created by msxbox

810 atoms
870 bonds
1440 angles
1980 dihedrals

9 atom types
11 bond types
16 angle types
20 dihedral types
-11.2780 11.2780 xlo xhi
-19.5341 19.5341 ylo yhi
-25.0000 25.0000 zlo zhi

Masses

   1   16.000  # O
   2   14.010  # N
   3   12.010  # C
   4   12.010  # C
   5   12.010  # C
   6    1.008  # H
   7    1.008  # H
   8    1.008  # H
   9   32.060  # S

Bond Coeffs

   1   262.840583     1.490700  # c-ca
   2   590.599904     1.219000  # o-c
   3   319.919933     1.394400  # nu-ca
   4   313.239723     1.400700  # nu-ce
   5   472.490440     1.013700  # nu-hn
   6   354.249522     1.398600  # ca-ca
   7   352.410373     1.091400  # ce-h4
   8   271.849904     1.480000  # ca-ce
   9   360.689532     1.086000  # ca-ha
  10   190.139818     1.829400  # ca-s6
  11   614.489723     1.465700  # s6-o

Angle Coeffs

   1    76.300191   127.860000  # ce-nu-ca
   2    57.460564   114.730000  # ca-nu-hn
   3    57.170172   115.000000  # ce-nu-hn
   4    77.960086   122.600000  # o-c-ca
   5    60.270076   117.930000  # ca-c-ca
   6    64.500478   120.000000  # c-ca-c
   7    64.500478   120.000000  # c-ca-ce
   8    48.550430   115.060000  # nu-ce-h4
   9    66.359943   117.040000  # nu-ce-ca
  10    43.280354   117.150000  # ca-ce-h4
  11    67.490440   120.740000  # nu-ca-ca
  12    63.669933   120.020000  # ca-ca-ca
  13    44.899618   119.880000  # ca-ca-ha
  14    61.760277   120.360000  # ca-ca-s6
  15   120.899857   104.110000  # ca-s6-o
  16   158.500239   120.210000  # o-s6-o

Dihedral Coeffs

   1    1     1.000000    2   180.000000  # o-c-ca-c
   2    1     1.000000    2   180.000000  # o-c-ca-ce
   3    1     1.000000    2   180.000000  # c-ca-c-ca
   4    1     1.000000    2   180.000000  # ca-c-ca-ce
   5    1     0.120005    2   180.000000  # ce-nu-ca-ca
   6    1     0.800000    2   180.000000  # ca-ce-nu-ca
   7    1     3.625000    2   180.000000  # nu-ca-ca-ha
   8    1     3.625000    2   180.000000  # nu-ca-ca-ca
   9    1     3.625000    2   180.000000  # ca-ca-ca-ha
  10    1     3.625000    2   180.000000  # ca-ca-ca-ca
  11    1     3.625000    2   180.000000  # ca-ca-ca-s6
  12    1     3.625000    2   180.000000  # nu-ca-ca-s6
  13    1     1.097490    2   180.000000  # nu-ce-ca-c
  14    1     3.625000    2   180.000000  # ha-ca-ca-s6
  15    1     1.300000    2   180.000000  # ca-ca-s6-o
  16    1     3.625000    2   180.000000  # ha-ca-ca-ha
  17    1    10.500000    2   180.000000  # o-ca-c-ca
  18    1     1.100000    2   180.000000  # c-c-ca-ce
  19    1     1.100000    2   180.000000  # ha-ca-ca-ca
  20    1     1.100000    2   180.000000  # s6-ca-ca-ca

Atoms

      1       1    1  -0.569996000000    -8.933360     4.636663    -6.802017  # O0
      2       1    1  -0.569996000000     8.900213     5.418179    -6.802017  # O1
      3       1    1  -0.569996000000   -10.617788     9.117148    -6.802017  # O2
      4       1    1  -0.569996000000     9.351354    -4.878021    -6.802017  # O3
      5       1    1  -0.569996000000    -8.482132    -5.659587    -6.802017  # O4
      6       1    1  -0.569996000000    11.035782    -9.358506    -6.802017  # O5
      7       1    2  -0.599996000000   -10.656347     2.630363    -6.802017  # N6
      8       1    2  -0.599996000000     8.024070     7.913455    -6.802017  # N7
      9       1    2  -0.599996000000    -8.018745     8.628223    -6.802017  # N8
     10       1    2  -0.599996000000    11.074341    -2.871721    -6.802017  # N9
     11       1    2  -0.599996000000    -7.606075    -8.154813    -6.802017  # N10
     12       1    2  -0.599996000000     8.436739    -8.869581    -6.802017  # N11
     13       1    3   0.541204000000    -9.923251     5.436922    -6.802017  # C12
     14       1    3   0.541204000000    10.088243     5.875308    -6.802017  # C13
     15       1    3   0.541204000000   -10.815928     7.859760    -6.802017  # C14
     16       1    3   0.541204000000    10.341331    -5.678330    -6.802017  # C15
     17       1    3   0.541204000000    -9.670162    -6.116716    -6.802017  # C16
     18       1    3   0.541204000000    11.233922    -8.101118    -6.802017  # C17
     19       1    4   0.028804000000    11.241632     4.948436    -6.802017  # C18
     20       1    4   0.028804000000    10.360653     7.324336    -6.802017  # C19
     21       1    4   0.028804000000    -9.697221     6.899218    -6.802017  # C20
     22       1    4   0.028804000000   -10.823638    -5.189794    -6.802017  # C21
     23       1    4   0.028804000000    -9.942659    -7.565694    -6.802017  # C22
     24       1    4   0.028804000000    10.115301    -7.140626    -6.802017  # C23
     25       1    5  -0.049996000000    10.970387     3.588225    -6.802017  # C24
     26       1    5  -0.049996000000     9.318372     8.239252    -6.802017  # C25
     27       1    5  -0.049996000000    -8.383744     7.344426    -6.802017  # C26
     28       1    5  -0.049996000000   -10.552306    -3.829633    -6.802017  # C27
     29       1    5  -0.049996000000    -8.900291    -8.480660    -6.802017  # C28
     30       1    5  -0.049996000000     8.801738    -7.585784    -6.802017  # C29
     31       1    4   0.100004000000   -10.864244     1.290273    -6.802017  # C30
     32       1    4   0.100004000000     6.967596     8.763588    -6.802017  # C31
     33       1    4   0.100004000000    -6.754287     9.118128    -6.802017  # C32
     34       1    4   0.100004000000    11.282325    -1.531681    -6.802017  # C33
     35       1    4   0.100004000000    -6.549515    -9.004996    -6.802017  # C34
     36       1    4   0.100004000000     7.172281    -9.359486    -6.802017  # C35
     37       1    4  -0.149996000000    -9.774965     0.397760    -6.802017  # C36
     38       1    4  -0.149996000000     5.650018     8.266476    -6.802017  # C37
     39       1    4  -0.149996000000    -6.525988    10.507754    -6.802017  # C38
     40       1    4  -0.149996000000    10.192960    -0.639118    -6.802017  # C39
     41       1    4  -0.149996000000    -5.231937    -8.507884    -6.802017  # C40
     42       1    4  -0.149996000000     6.944069   -10.749162    -6.802017  # C41
     43       1    4  -0.149996000000    10.388639     0.737008    -6.802017  # C42
     44       1    4  -0.149996000000     7.140060    10.168706    -6.802017  # C43
     45       1    4  -0.149996000000    -5.623634     8.266276    -6.802017  # C44
     46       1    4  -0.008996000000    -9.970644    -0.978367    -6.802017  # C45
     47       1    4  -0.008996000000    -6.721979   -10.410114    -6.802017  # C46
     48       1    4  -0.008996000000     6.041629    -8.507634    -6.802017  # C47
     49       1    6   0.150004000000    -8.745246     0.795485    -6.802017  # H48
     50       1    6   0.150004000000     5.479586     7.175880    -6.802017  # H49
     51       1    6   0.150004000000    -7.385225    11.200711    -6.802017  # H50
     52       1    6   0.150004000000     9.163241    -1.036843    -6.802017  # H51
     53       1    6   0.150004000000    -5.061505    -7.417288    -6.802017  # H52
     54       1    6   0.150004000000     7.803220   -11.442069    -6.802017  # H53
     55       1    7   0.150004000000     9.911784     3.244472    -6.802017  # H54
     56       1    7   0.150004000000     9.549932     9.327926    -6.802017  # H55
     57       1    7   0.150004000000    -7.556652     6.599591    -6.802017  # H56
     58       1    7   0.150004000000    -9.493790    -3.485830    -6.802017  # H57
     59       1    7   0.150004000000    -9.131852    -9.569334    -6.802017  # H58
     60       1    7   0.150004000000     7.974733    -6.840999    -6.802017  # H59
     61       1    6   0.150004000000     9.504566     1.401350    -6.802017  # H60
     62       1    6   0.150004000000     8.157361    10.602122    -6.802017  # H61
     63       1    6   0.150004000000    -5.756912     7.168431    -6.802017  # H62
     64       1    8   0.400004000000    -9.659364     3.002186    -6.802017  # H63
     65       1    8   0.400004000000     7.847694     6.864164    -6.802017  # H64
     66       1    8   0.400004000000    -8.839352     9.305689    -6.802017  # H65
     67       1    8   0.400004000000    10.077359    -3.243544    -6.802017  # H66
     68       1    8   0.400004000000    -7.429700    -7.105522    -6.802017  # H67
     69       1    8   0.400004000000     9.257346    -9.547048    -6.802017  # H68
     70       1    9   1.459004000000    -8.524993    -2.067625    -6.802017  # S69
     71       1    1  -0.816696000000    -7.395858    -1.009305    -6.746017  # O70
     72       1    1  -0.816696000000    -8.022119    -2.639822    -8.165617  # O71
     73       1    1  -0.816696000000    -7.881054    -2.960289    -5.439017  # O72
     74       1    9   1.459004000000    -8.387059   -11.119516    -6.802017  # S73
     75       1    1  -0.816696000000    -8.035604   -12.626778    -6.746617  # O74
     76       1    1  -0.816696000000    -9.134698   -11.267064    -8.165517  # O75
     77       1    1  -0.816696000000    -9.482772   -11.229147    -5.439217  # O76
     78       1    9   1.459004000000     6.259734    -6.710865    -6.802017  # S77
     79       1    1  -0.816696000000     4.778283    -6.262812    -6.750317  # O78
     80       1    1  -0.816696000000     6.506254    -5.981279    -8.160917  # O79
     81       1    1  -0.816720000000     6.702858    -5.701151    -5.441517  # O80
     82       1    1  -0.569996000000     2.344640   -14.897406    -6.802017  # O0
     83       1    1  -0.569996000000    -2.377787   -14.115890    -6.802017  # O1
     84       1    1  -0.569996000000     0.660212   -10.416921    -6.802017  # O2
     85       1    1  -0.569996000000    -1.926646    14.656048    -6.802017  # O3
     86       1    1  -0.569996000000     2.795868    13.874482    -6.802017  # O4
     87       1    1  -0.569996000000    -0.242218    10.175563    -6.802017  # O5
     88       1    2  -0.599996000000     0.621653   -16.903706    -6.802017  # N6
     89       1    2  -0.599996000000    -3.253930   -11.620614    -6.802017  # N7
     90       1    2  -0.599996000000     3.259255   -10.905846    -6.802017  # N8
     91       1    2  -0.599996000000    -0.203659    16.662348    -6.802017  # N9
     92       1    2  -0.599996000000     3.671925    11.379256    -6.802017  # N10
     93       1    2  -0.599996000000    -2.841261    10.664488    -6.802017  # N11
     94       1    3   0.541204000000     1.354749   -14.097147    -6.802017  # C12
     95       1    3   0.541204000000    -1.189757   -13.658761    -6.802017  # C13
     96       1    3   0.541204000000     0.462072   -11.674309    -6.802017  # C14
     97       1    3   0.541204000000    -0.936669    13.855739    -6.802017  # C15
     98       1    3   0.541204000000     1.607838    13.417353    -6.802017  # C16
     99       1    3   0.541204000000    -0.044078    11.432951    -6.802017  # C17
    100       1    4   0.028804000000    -0.036368   -14.585633    -6.802017  # C18
    101       1    4   0.028804000000    -0.917347   -12.209733    -6.802017  # C19
    102       1    4   0.028804000000     1.580779   -12.634851    -6.802017  # C20
    103       1    4   0.028804000000     0.454362    14.344275    -6.802017  # C21
    104       1    4   0.028804000000     1.335341    11.968375    -6.802017  # C22
    105       1    4   0.028804000000    -1.162699    12.393443    -6.802017  # C23
    106       1    5  -0.049996000000    -0.307613   -15.945844    -6.802017  # C24
    107       1    5  -0.049996000000    -1.959628   -11.294817    -6.802017  # C25
    108       1    5  -0.049996000000     2.894256   -12.189643    -6.802017  # C26
    109       1    5  -0.049996000000     0.725694    15.704436    -6.802017  # C27
    110       1    5  -0.049996000000     2.377709    11.053409    -6.802017  # C28
    111       1    5  -0.049996000000    -2.476262    11.948285    -6.802017  # C29
    112       1    4   0.100004000000     0.413756   -18.243796    -6.802017  # C30
    113       1    4   0.100004000000    -4.310404   -10.770481    -6.802017  # C31
    114       1    4   0.100004000000     4.523713   -10.415941    -6.802017  # C32
    115       1    4   0.100004000000     0.004325    18.002388    -6.802017  # C33
    116       1    4   0.100004000000     4.728485    10.529073    -6.802017  # C34
    117       1    4   0.100004000000    -4.105719    10.174583    -6.802017  # C35
    118       1    4  -0.149996000000     1.503035   -19.136309    -6.802017  # C36
    119       1    4  -0.149996000000    -5.627982   -11.267593    -6.802017  # C37
    120       1    4  -0.149996000000     4.752012    -9.026315    -6.802017  # C38
    121       1    4  -0.149996000000    -1.085040   -20.173187    -6.802017  # C39
    122       1    4  -0.149996000000     6.046063    11.026185    -6.802017  # C40
    123       1    4  -0.149996000000    -4.333931     8.784907    -6.802017  # C41
    124       1    4  -0.149996000000    -0.889361   -18.797061    -6.802017  # C42
    125       1    4  -0.149996000000    -4.137940    -9.365363    -6.802017  # C43
    126       1    4  -0.149996000000     5.654366   -11.267793    -6.802017  # C44
    127       1    4  -0.008996000000     1.307356    18.555702    -6.802017  # C45
    128       1    4  -0.008996000000     4.556021     9.123955    -6.802017  # C46
    129       1    4  -0.008996000000    -5.236371    11.026435    -6.802017  # C47
    130       1    6   0.150004000000     2.532754   -18.738584    -6.802017  # H48
    131       1    6   0.150004000000    -5.798414   -12.358189    -6.802017  # H49
    132       1    6   0.150004000000     3.892775    -8.333358    -6.802017  # H50
    133       1    6   0.150004000000    -2.114759    18.497226    -6.802017  # H51
    134       1    6   0.150004000000     6.216495    12.116781    -6.802017  # H52
    135       1    6   0.150004000000    -3.474780     8.092000    -6.802017  # H53
    136       1    7   0.150004000000    -1.366216   -16.289597    -6.802017  # H54
    137       1    7   0.150004000000    -1.728068   -10.206143    -6.802017  # H55
    138       1    7   0.150004000000     3.721348   -12.934478    -6.802017  # H56
    139       1    7   0.150004000000     1.784210    16.048239    -6.802017  # H57
    140       1    7   0.150004000000     2.146148     9.964735    -6.802017  # H58
    141       1    7   0.150004000000    -3.303267    12.693070    -6.802017  # H59
    142       1    6   0.150004000000    -1.773434   -18.132719    -6.802017  # H60
    143       1    6   0.150004000000    -3.120639    -8.931947    -6.802017  # H61
    144       1    6   0.150004000000     5.521088   -12.365638    -6.802017  # H62
    145       1    8   0.400004000000     1.618636   -16.531883    -6.802017  # H63
    146       1    8   0.400004000000    -3.430306   -12.669905    -6.802017  # H64
    147       1    8   0.400004000000     2.438648   -10.228380    -6.802017  # H65
    148       1    8   0.400004000000    -1.200641    16.290525    -6.802017  # H66
    149       1    8   0.400004000000     3.848300    12.428547    -6.802017  # H67
    150       1    8   0.400004000000    -2.020654     9.987021    -6.802017  # H68
    151       1    9   1.459004000000     2.753007    17.466444    -6.802017  # S69
    152       1    1  -0.816696000000     3.882142    18.524764    -6.746017  # O70
    153       1    1  -0.816696000000     3.255881    16.894247    -8.165617  # O71
    154       1    1  -0.816696000000     3.396946    16.573780    -5.439017  # O72
    155       1    9   1.459004000000     2.890941     8.414553    -6.802017  # S73
    156       1    1  -0.816696000000     3.242396     6.907291    -6.746617  # O74
    157       1    1  -0.816696000000     2.143302     8.267005    -8.165517  # O75
    158       1    1  -0.816696000000     1.795228     8.304922    -5.439217  # O76
    159       1    9   1.459004000000    -5.018266    12.823204    -6.802017  # S77
    160       1    1  -0.816696000000    -6.499717    13.271257    -6.750317  # O78
    161       1    1  -0.816696000000    -4.771746    13.552790    -8.160917  # O79
    162       1    1  -0.816720000000    -4.575142    13.832918    -5.441517  # O80
    163       2    1  -0.569996000000     8.933362    -4.636660    -3.402017  # O0
    164       2    1  -0.569996000000    -8.900211    -5.418182    -3.402017  # O1
    165       2    1  -0.569996000000    10.617791    -9.117145    -3.402017  # O2
    166       2    1  -0.569996000000    -9.351356     4.878017    -3.402017  # O3
    167       2    1  -0.569996000000     8.482130     5.659590    -3.402017  # O4
    168       2    1  -0.569996000000   -11.035785     9.358502    -3.402017  # O5
    169       2    2  -0.599996000000    10.656348    -2.630360    -3.402017  # N6
    170       2    2  -0.599996000000    -8.024067    -7.913458    -3.402017  # N7
    171       2    2  -0.599996000000     8.018748    -8.628221    -3.402017  # N8
    172       2    2  -0.599996000000   -11.074342     2.871717    -3.402017  # N9
    173       2    2  -0.599996000000     7.606072     8.154815    -3.402017  # N10
    174       2    2  -0.599996000000    -8.436742     8.869578    -3.402017  # N11
    175       2    3   0.541204000000     9.923253    -5.436919    -3.402017  # C12
    176       2    3   0.541204000000   -10.088241    -5.875312    -3.402017  # C13
    177       2    3   0.541204000000    10.815931    -7.859757    -3.402017  # C14
    178       2    3   0.541204000000   -10.341333     5.678326    -3.402017  # C15
    179       2    3   0.541204000000     9.670160     6.116719    -3.402017  # C16
    180       2    3   0.541204000000   -11.233925     8.101114    -3.402017  # C17
    181       2    4   0.028804000000   -11.241630    -4.948440    -3.402017  # C18
    182       2    4   0.028804000000   -10.360650    -7.324340    -3.402017  # C19
    183       2    4   0.028804000000     9.697224    -6.899215    -3.402017  # C20
    184       2    4   0.028804000000    10.823636     5.189797    -3.402017  # C21
    185       2    4   0.028804000000     9.942657     7.565697    -3.402017  # C22
    186       2    4   0.028804000000   -10.115303     7.140622    -3.402017  # C23
    187       2    5  -0.049996000000   -10.970386    -3.588229    -3.402017  # C24
    188       2    5  -0.049996000000    -9.318369    -8.239256    -3.402017  # C25
    189       2    5  -0.049996000000     8.383747    -7.344423    -3.402017  # C26
    190       2    5  -0.049996000000    10.552305     3.829636    -3.402017  # C27
    191       2    5  -0.049996000000     8.900288     8.480663    -3.402017  # C28
    192       2    5  -0.049996000000    -8.801740     7.585781    -3.402017  # C29
    193       2    4   0.100004000000    10.864245    -1.290270    -3.402017  # C30
    194       2    4   0.100004000000    -6.967593    -8.763591    -3.402017  # C31
    195       2    4   0.100004000000     6.754290    -9.118126    -3.402017  # C32
    196       2    4   0.100004000000   -11.282325     1.531677    -3.402017  # C33
    197       2    4   0.100004000000     6.549512     9.004998    -3.402017  # C34
    198       2    4   0.100004000000    -7.172284     9.359483    -3.402017  # C35
    199       2    4  -0.149996000000     9.774965    -0.397757    -3.402017  # C36
    200       2    4  -0.149996000000    -5.650015    -8.266478    -3.402017  # C37
    201       2    4  -0.149996000000     6.525992   -10.507752    -3.402017  # C38
    202       2    4  -0.149996000000   -10.192960     0.639114    -3.402017  # C39
    203       2    4  -0.149996000000     5.231934     8.507886    -3.402017  # C40
    204       2    4  -0.149996000000    -6.944073    10.749159    -3.402017  # C41
    205       2    4  -0.149996000000   -10.388639    -0.737012    -3.402017  # C42
    206       2    4  -0.149996000000    -7.140056   -10.168709    -3.402017  # C43
    207       2    4  -0.149996000000     5.623637    -8.266274    -3.402017  # C44
    208       2    4  -0.008996000000     9.970644     0.978370    -3.402017  # C45
    209       2    4  -0.008996000000     6.721976    10.410116    -3.402017  # C46
    210       2    4  -0.008996000000    -6.041632     8.507632    -3.402017  # C47
    211       2    6   0.150004000000     8.745246    -0.795482    -3.402017  # H48
    212       2    6   0.150004000000    -5.479583    -7.175882    -3.402017  # H49
    213       2    6   0.150004000000     7.385229   -11.200709    -3.402017  # H50
    214       2    6   0.150004000000    -9.163241     1.036840    -3.402017  # H51
    215       2    6   0.150004000000     5.061503     7.417289    -3.402017  # H52
    216       2    6   0.150004000000    -7.803224    11.442066    -3.402017  # H53
    217       2    7   0.150004000000    -9.911783    -3.244476    -3.402017  # H54
    218       2    7   0.150004000000    -9.549929    -9.327930    -3.402017  # H55
    219       2    7   0.150004000000     7.556654    -6.599589    -3.402017  # H56
    220       2    7   0.150004000000     9.493789     3.485833    -3.402017  # H57
    221       2    7   0.150004000000     9.131849     9.569337    -3.402017  # H58
    222       2    7   0.150004000000    -7.974735     6.840996    -3.402017  # H59
    223       2    6   0.150004000000    -9.504565    -1.401354    -3.402017  # H60
    224       2    6   0.150004000000    -8.157357   -10.602125    -3.402017  # H61
    225       2    6   0.150004000000     5.756915    -7.168429    -3.402017  # H62
    226       2    8   0.400004000000     9.659365    -3.002183    -3.402017  # H63
    227       2    8   0.400004000000    -7.847691    -6.864167    -3.402017  # H64
    228       2    8   0.400004000000     8.839355    -9.305686    -3.402017  # H65
    229       2    8   0.400004000000   -10.077360     3.243540    -3.402017  # H66
    230       2    8   0.400004000000     7.429698     7.105524    -3.402017  # H67
    231       2    8   0.400004000000    -9.257349     9.547044    -3.402017  # H68
    232       2    9   1.459004000000     8.524992     2.067628    -3.402017  # S69
    233       2    1  -0.816696000000     7.395858     1.009307    -3.346017  # O70
    234       2    1  -0.816696000000     8.022118     2.639824    -4.765617  # O71
    235       2    1  -0.816696000000     7.881053     2.960291    -2.039017  # O72
    236       2    9   1.459004000000     8.387055    11.119519    -3.402017  # S73
    237       2    1  -0.816696000000     8.035600    12.626780    -3.346617  # O74
    238       2    1  -0.816696000000     9.134694    11.267067    -4.765517  # O75
    239       2    1  -0.816696000000     9.482768    11.229150    -2.039217  # O76
    240       2    9   1.459004000000    -6.259736     6.710863    -3.402017  # S77
    241       2    1  -0.816696000000    -4.778285     6.262810    -3.350317  # O78
    242       2    1  -0.816696000000    -6.506256     5.981276    -4.760917  # O79
    243       2    1  -0.816720000000    -6.702860     5.701148    -2.041517  # O80
    244       2    1  -0.569996000000    -2.344645    14.897405    -3.402017  # O0
    245       2    1  -0.569996000000     2.377782    14.115891    -3.402017  # O1
    246       2    1  -0.569996000000    -0.660215    10.416920    -3.402017  # O2
    247       2    1  -0.569996000000     1.926651   -14.656048    -3.402017  # O3
    248       2    1  -0.569996000000    -2.795863   -13.874483    -3.402017  # O4
    249       2    1  -0.569996000000     0.242222   -10.175563    -3.402017  # O5
    250       2    2  -0.599996000000    -0.621659    16.903705    -3.402017  # N6
    251       2    2  -0.599996000000     3.253926    11.620615    -3.402017  # N7
    252       2    2  -0.599996000000    -3.259259    10.905845    -3.402017  # N8
    253       2    2  -0.599996000000     0.203665   -16.662348    -3.402017  # N9
    254       2    2  -0.599996000000    -3.671921   -11.379258    -3.402017  # N10
    255       2    2  -0.599996000000     2.841265   -10.664487    -3.402017  # N11
    256       2    3   0.541204000000    -1.354754    14.097146    -3.402017  # C12
    257       2    3   0.541204000000     1.189752    13.658761    -3.402017  # C13
    258       2    3   0.541204000000    -0.462076    11.674309    -3.402017  # C14
    259       2    3   0.541204000000     0.936674   -13.855739    -3.402017  # C15
    260       2    3   0.541204000000    -1.607833   -13.417354    -3.402017  # C16
    261       2    3   0.541204000000     0.044082   -11.432951    -3.402017  # C17
    262       2    4   0.028804000000     0.036363    14.585633    -3.402017  # C18
    263       2    4   0.028804000000     0.917343    12.209733    -3.402017  # C19
    264       2    4   0.028804000000    -1.580783    12.634850    -3.402017  # C20
    265       2    4   0.028804000000    -0.454357   -14.344275    -3.402017  # C21
    266       2    4   0.028804000000    -1.335337   -11.968376    -3.402017  # C22
    267       2    4   0.028804000000     1.162703   -12.393443    -3.402017  # C23
    268       2    5  -0.049996000000     0.307608    15.945844    -3.402017  # C24
    269       2    5  -0.049996000000     1.959624    11.294817    -3.402017  # C25
    270       2    5  -0.049996000000    -2.894260    12.189642    -3.402017  # C26
    271       2    5  -0.049996000000    -0.725688   -15.704437    -3.402017  # C27
    272       2    5  -0.049996000000    -2.377705   -11.053410    -3.402017  # C28
    273       2    5  -0.049996000000     2.476266   -11.948284    -3.402017  # C29
    274       2    4   0.100004000000    -0.413762    18.243796    -3.402017  # C30
    275       2    4   0.100004000000     4.310400    10.770482    -3.402017  # C31
    276       2    4   0.100004000000    -4.523716    10.415939    -3.402017  # C32
    277       2    4   0.100004000000    -0.004319   -18.002388    -3.402017  # C33
    278       2    4   0.100004000000    -4.728481   -10.529075    -3.402017  # C34
    279       2    4   0.100004000000     4.105723   -10.174582    -3.402017  # C35
    280       2    4  -0.149996000000    -1.503041    19.136308    -3.402017  # C36
    281       2    4  -0.149996000000     5.627978    11.267595    -3.402017  # C37
    282       2    4  -0.149996000000    -4.752015     9.026313    -3.402017  # C38
    283       2    4  -0.149996000000     1.085033    20.173187    -3.402017  # C39
    284       2    4  -0.149996000000    -6.046059   -11.026187    -3.402017  # C40
    285       2    4  -0.149996000000     4.333934    -8.784906    -3.402017  # C41
    286       2    4  -0.149996000000     0.889355    18.797061    -3.402017  # C42
    287       2    4  -0.149996000000     4.137937     9.365364    -3.402017  # C43
    288       2    4  -0.149996000000    -5.654370    11.267791    -3.402017  # C44
    289       2    4  -0.008996000000    -1.307349   -18.555703    -3.402017  # C45
    290       2    4  -0.008996000000    -4.556018    -9.123957    -3.402017  # C46
    291       2    4  -0.008996000000     5.236375   -11.026433    -3.402017  # C47
    292       2    6   0.150004000000    -2.532760    18.738583    -3.402017  # H48
    293       2    6   0.150004000000     5.798410    12.358191    -3.402017  # H49
    294       2    6   0.150004000000    -3.892778     8.333356    -3.402017  # H50
    295       2    6   0.150004000000     2.114766   -18.497226    -3.402017  # H51
    296       2    6   0.150004000000    -6.216491   -12.116783    -3.402017  # H52
    297       2    6   0.150004000000     3.474783    -8.091999    -3.402017  # H53
    298       2    7   0.150004000000     1.366210    16.289597    -3.402017  # H54
    299       2    7   0.150004000000     1.728065    10.206143    -3.402017  # H55
    300       2    7   0.150004000000    -3.721352    12.934476    -3.402017  # H56
    301       2    7   0.150004000000    -1.784204   -16.048240    -3.402017  # H57
    302       2    7   0.150004000000    -2.146144    -9.964736    -3.402017  # H58
    303       2    7   0.150004000000     3.303272   -12.693069    -3.402017  # H59
    304       2    6   0.150004000000     1.773428    18.132719    -3.402017  # H60
    305       2    6   0.150004000000     3.120636     8.931948    -3.402017  # H61
    306       2    6   0.150004000000    -5.521092    12.365636    -3.402017  # H62
    307       2    8   0.400004000000    -1.618642    16.531882    -3.402017  # H63
    308       2    8   0.400004000000     3.430302    12.669906    -3.402017  # H64
    309       2    8   0.400004000000    -2.438651    10.228379    -3.402017  # H65
    310       2    8   0.400004000000     1.200647   -16.290525    -3.402017  # H66
    311       2    8   0.400004000000    -3.848296   -12.428549    -3.402017  # H67
    312       2    8   0.400004000000     2.020658    -9.987021    -3.402017  # H68
    313       2    9   1.459004000000    -2.753001   -17.466445    -3.402017  # S69
    314       2    1  -0.816696000000    -3.882135   -18.524766    -3.346017  # O70
    315       2    1  -0.816696000000    -3.255875   -16.894248    -4.765617  # O71
    316       2    1  -0.816696000000    -3.396940   -16.573781    -2.039017  # O72
    317       2    9   1.459004000000    -2.890938    -8.414554    -3.402017  # S73
    318       2    1  -0.816696000000    -3.242393    -6.907292    -3.346617  # O74
    319       2    1  -0.816696000000    -2.143299    -8.267006    -4.765517  # O75
    320       2    1  -0.816696000000    -1.795225    -8.304923    -2.039217  # O76
    321       2    9   1.459004000000     5.018271   -12.823203    -3.402017  # S77
    322       2    1  -0.816696000000     6.499722   -13.271255    -3.350317  # O78
    323       2    1  -0.816696000000     4.771751   -13.552789    -4.760917  # O79
    324       2    1  -0.816720000000     4.575147   -13.832917    -2.041517  # O80
    325       3    1  -0.569996000000    -8.933360     4.636663    -0.002017  # O0
    326       3    1  -0.569996000000     8.900213     5.418179    -0.002017  # O1
    327       3    1  -0.569996000000   -10.617788     9.117148    -0.002017  # O2
    328       3    1  -0.569996000000     9.351354    -4.878021    -0.002017  # O3
    329       3    1  -0.569996000000    -8.482132    -5.659587    -0.002017  # O4
    330       3    1  -0.569996000000    11.035782    -9.358506    -0.002017  # O5
    331       3    2  -0.599996000000   -10.656347     2.630363    -0.002017  # N6
    332       3    2  -0.599996000000     8.024070     7.913455    -0.002017  # N7
    333       3    2  -0.599996000000    -8.018745     8.628223    -0.002017  # N8
    334       3    2  -0.599996000000    11.074341    -2.871721    -0.002017  # N9
    335       3    2  -0.599996000000    -7.606075    -8.154813    -0.002017  # N10
    336       3    2  -0.599996000000     8.436739    -8.869581    -0.002017  # N11
    337       3    3   0.541204000000    -9.923251     5.436922    -0.002017  # C12
    338       3    3   0.541204000000    10.088243     5.875308    -0.002017  # C13
    339       3    3   0.541204000000   -10.815928     7.859760    -0.002017  # C14
    340       3    3   0.541204000000    10.341331    -5.678330    -0.002017  # C15
    341       3    3   0.541204000000    -9.670162    -6.116716    -0.002017  # C16
    342       3    3   0.541204000000    11.233922    -8.101118    -0.002017  # C17
    343       3    4   0.028804000000    11.241632     4.948436    -0.002017  # C18
    344       3    4   0.028804000000    10.360653     7.324336    -0.002017  # C19
    345       3    4   0.028804000000    -9.697221     6.899218    -0.002017  # C20
    346       3    4   0.028804000000   -10.823638    -5.189794    -0.002017  # C21
    347       3    4   0.028804000000    -9.942659    -7.565694    -0.002017  # C22
    348       3    4   0.028804000000    10.115301    -7.140626    -0.002017  # C23
    349       3    5  -0.049996000000    10.970387     3.588225    -0.002017  # C24
    350       3    5  -0.049996000000     9.318372     8.239252    -0.002017  # C25
    351       3    5  -0.049996000000    -8.383744     7.344426    -0.002017  # C26
    352       3    5  -0.049996000000   -10.552306    -3.829633    -0.002017  # C27
    353       3    5  -0.049996000000    -8.900291    -8.480660    -0.002017  # C28
    354       3    5  -0.049996000000     8.801738    -7.585784    -0.002017  # C29
    355       3    4   0.100004000000   -10.864244     1.290273    -0.002017  # C30
    356       3    4   0.100004000000     6.967596     8.763588    -0.002017  # C31
    357       3    4   0.100004000000    -6.754287     9.118128    -0.002017  # C32
    358       3    4   0.100004000000    11.282325    -1.531681    -0.002017  # C33
    359       3    4   0.100004000000    -6.549515    -9.004996    -0.002017  # C34
    360       3    4   0.100004000000     7.172281    -9.359486    -0.002017  # C35
    361       3    4  -0.149996000000    -9.774965     0.397760    -0.002017  # C36
    362       3    4  -0.149996000000     5.650018     8.266476    -0.002017  # C37
    363       3    4  -0.149996000000    -6.525988    10.507754    -0.002017  # C38
    364       3    4  -0.149996000000    10.192960    -0.639118    -0.002017  # C39
    365       3    4  -0.149996000000    -5.231937    -8.507884    -0.002017  # C40
    366       3    4  -0.149996000000     6.944069   -10.749162    -0.002017  # C41
    367       3    4  -0.149996000000    10.388639     0.737008    -0.002017  # C42
    368       3    4  -0.149996000000     7.140060    10.168706    -0.002017  # C43
    369       3    4  -0.149996000000    -5.623634     8.266276    -0.002017  # C44
    370       3    4  -0.008996000000    -9.970644    -0.978367    -0.002017  # C45
    371       3    4  -0.008996000000    -6.721979   -10.410114    -0.002017  # C46
    372       3    4  -0.008996000000     6.041629    -8.507634    -0.002017  # C47
    373       3    6   0.150004000000    -8.745246     0.795485    -0.002017  # H48
    374       3    6   0.150004000000     5.479586     7.175880    -0.002017  # H49
    375       3    6   0.150004000000    -7.385225    11.200711    -0.002017  # H50
    376       3    6   0.150004000000     9.163241    -1.036843    -0.002017  # H51
    377       3    6   0.150004000000    -5.061505    -7.417288    -0.002017  # H52
    378       3    6   0.150004000000     7.803220   -11.442069    -0.002017  # H53
    379       3    7   0.150004000000     9.911784     3.244472    -0.002017  # H54
    380       3    7   0.150004000000     9.549932     9.327926    -0.002017  # H55
    381       3    7   0.150004000000    -7.556652     6.599591    -0.002017  # H56
    382       3    7   0.150004000000    -9.493790    -3.485830    -0.002017  # H57
    383       3    7   0.150004000000    -9.131852    -9.569334    -0.002017  # H58
    384       3    7   0.150004000000     7.974733    -6.840999    -0.002017  # H59
    385       3    6   0.150004000000     9.504566     1.401350    -0.002017  # H60
    386       3    6   0.150004000000     8.157361    10.602122    -0.002017  # H61
    387       3    6   0.150004000000    -5.756912     7.168431    -0.002017  # H62
    388       3    8   0.400004000000    -9.659364     3.002186    -0.002017  # H63
    389       3    8   0.400004000000     7.847694     6.864164    -0.002017  # H64
    390       3    8   0.400004000000    -8.839352     9.305689    -0.002017  # H65
    391       3    8   0.400004000000    10.077359    -3.243544    -0.002017  # H66
    392       3    8   0.400004000000    -7.429700    -7.105522    -0.002017  # H67
    393       3    8   0.400004000000     9.257346    -9.547048    -0.002017  # H68
    394       3    9   1.459004000000    -8.524993    -2.067625    -0.002017  # S69
    395       3    1  -0.816696000000    -7.395858    -1.009305     0.053983  # O70
    396       3    1  -0.816696000000    -8.022119    -2.639822    -1.365617  # O71
    397       3    1  -0.816696000000    -7.881054    -2.960289     1.360983  # O72
    398       3    9   1.459004000000    -8.387059   -11.119516    -0.002017  # S73
    399       3    1  -0.816696000000    -8.035604   -12.626778     0.053383  # O74
    400       3    1  -0.816696000000    -9.134698   -11.267064    -1.365517  # O75
    401       3    1  -0.816696000000    -9.482772   -11.229147     1.360783  # O76
    402       3    9   1.459004000000     6.259734    -6.710865    -0.002017  # S77
    403       3    1  -0.816696000000     4.778283    -6.262812     0.049683  # O78
    404       3    1  -0.816696000000     6.506254    -5.981279    -1.360917  # O79
    405       3    1  -0.816720000000     6.702858    -5.701151     1.358483  # O80
    406       3    1  -0.569996000000     2.344640   -14.897406    -0.002017  # O0
    407       3    1  -0.569996000000    -2.377787   -14.115890    -0.002017  # O1
    408       3    1  -0.569996000000     0.660212   -10.416921    -0.002017  # O2
    409       3    1  -0.569996000000    -1.926646    14.656048    -0.002017  # O3
    410       3    1  -0.569996000000     2.795868    13.874482    -0.002017  # O4
    411       3    1  -0.569996000000    -0.242218    10.175563    -0.002017  # O5
    412       3    2  -0.599996000000     0.621653   -16.903706    -0.002017  # N6
    413       3    2  -0.599996000000    -3.253930   -11.620614    -0.002017  # N7
    414       3    2  -0.599996000000     3.259255   -10.905846    -0.002017  # N8
    415       3    2  -0.599996000000    -0.203659    16.662348    -0.002017  # N9
    416       3    2  -0.599996000000     3.671925    11.379256    -0.002017  # N10
    417       3    2  -0.599996000000    -2.841261    10.664488    -0.002017  # N11
    418       3    3   0.541204000000     1.354749   -14.097147    -0.002017  # C12
    419       3    3   0.541204000000    -1.189757   -13.658761    -0.002017  # C13
    420       3    3   0.541204000000     0.462072   -11.674309    -0.002017  # C14
    421       3    3   0.541204000000    -0.936669    13.855739    -0.002017  # C15
    422       3    3   0.541204000000     1.607838    13.417353    -0.002017  # C16
    423       3    3   0.541204000000    -0.044078    11.432951    -0.002017  # C17
    424       3    4   0.028804000000    -0.036368   -14.585633    -0.002017  # C18
    425       3    4   0.028804000000    -0.917347   -12.209733    -0.002017  # C19
    426       3    4   0.028804000000     1.580779   -12.634851    -0.002017  # C20
    427       3    4   0.028804000000     0.454362    14.344275    -0.002017  # C21
    428       3    4   0.028804000000     1.335341    11.968375    -0.002017  # C22
    429       3    4   0.028804000000    -1.162699    12.393443    -0.002017  # C23
    430       3    5  -0.049996000000    -0.307613   -15.945844    -0.002017  # C24
    431       3    5  -0.049996000000    -1.959628   -11.294817    -0.002017  # C25
    432       3    5  -0.049996000000     2.894256   -12.189643    -0.002017  # C26
    433       3    5  -0.049996000000     0.725694    15.704436    -0.002017  # C27
    434       3    5  -0.049996000000     2.377709    11.053409    -0.002017  # C28
    435       3    5  -0.049996000000    -2.476262    11.948285    -0.002017  # C29
    436       3    4   0.100004000000     0.413756   -18.243796    -0.002017  # C30
    437       3    4   0.100004000000    -4.310404   -10.770481    -0.002017  # C31
    438       3    4   0.100004000000     4.523713   -10.415941    -0.002017  # C32
    439       3    4   0.100004000000     0.004325    18.002388    -0.002017  # C33
    440       3    4   0.100004000000     4.728485    10.529073    -0.002017  # C34
    441       3    4   0.100004000000    -4.105719    10.174583    -0.002017  # C35
    442       3    4  -0.149996000000     1.503035   -19.136309    -0.002017  # C36
    443       3    4  -0.149996000000    -5.627982   -11.267593    -0.002017  # C37
    444       3    4  -0.149996000000     4.752012    -9.026315    -0.002017  # C38
    445       3    4  -0.149996000000    -1.085040   -20.173187    -0.002017  # C39
    446       3    4  -0.149996000000     6.046063    11.026185    -0.002017  # C40
    447       3    4  -0.149996000000    -4.333931     8.784907    -0.002017  # C41
    448       3    4  -0.149996000000    -0.889361   -18.797061    -0.002017  # C42
    449       3    4  -0.149996000000    -4.137940    -9.365363    -0.002017  # C43
    450       3    4  -0.149996000000     5.654366   -11.267793    -0.002017  # C44
    451       3    4  -0.008996000000     1.307356    18.555702    -0.002017  # C45
    452       3    4  -0.008996000000     4.556021     9.123955    -0.002017  # C46
    453       3    4  -0.008996000000    -5.236371    11.026435    -0.002017  # C47
    454       3    6   0.150004000000     2.532754   -18.738584    -0.002017  # H48
    455       3    6   0.150004000000    -5.798414   -12.358189    -0.002017  # H49
    456       3    6   0.150004000000     3.892775    -8.333358    -0.002017  # H50
    457       3    6   0.150004000000    -2.114759    18.497226    -0.002017  # H51
    458       3    6   0.150004000000     6.216495    12.116781    -0.002017  # H52
    459       3    6   0.150004000000    -3.474780     8.092000    -0.002017  # H53
    460       3    7   0.150004000000    -1.366216   -16.289597    -0.002017  # H54
    461       3    7   0.150004000000    -1.728068   -10.206143    -0.002017  # H55
    462       3    7   0.150004000000     3.721348   -12.934478    -0.002017  # H56
    463       3    7   0.150004000000     1.784210    16.048239    -0.002017  # H57
    464       3    7   0.150004000000     2.146148     9.964735    -0.002017  # H58
    465       3    7   0.150004000000    -3.303267    12.693070    -0.002017  # H59
    466       3    6   0.150004000000    -1.773434   -18.132719    -0.002017  # H60
    467       3    6   0.150004000000    -3.120639    -8.931947    -0.002017  # H61
    468       3    6   0.150004000000     5.521088   -12.365638    -0.002017  # H62
    469       3    8   0.400004000000     1.618636   -16.531883    -0.002017  # H63
    470       3    8   0.400004000000    -3.430306   -12.669905    -0.002017  # H64
    471       3    8   0.400004000000     2.438648   -10.228380    -0.002017  # H65
    472       3    8   0.400004000000    -1.200641    16.290525    -0.002017  # H66
    473       3    8   0.400004000000     3.848300    12.428547    -0.002017  # H67
    474       3    8   0.400004000000    -2.020654     9.987021    -0.002017  # H68
    475       3    9   1.459004000000     2.753007    17.466444    -0.002017  # S69
    476       3    1  -0.816696000000     3.882142    18.524764     0.053983  # O70
    477       3    1  -0.816696000000     3.255881    16.894247    -1.365617  # O71
    478       3    1  -0.816696000000     3.396946    16.573780     1.360983  # O72
    479       3    9   1.459004000000     2.890941     8.414553    -0.002017  # S73
    480       3    1  -0.816696000000     3.242396     6.907291     0.053383  # O74
    481       3    1  -0.816696000000     2.143302     8.267005    -1.365517  # O75
    482       3    1  -0.816696000000     1.795228     8.304922     1.360783  # O76
    483       3    9   1.459004000000    -5.018266    12.823204    -0.002017  # S77
    484       3    1  -0.816696000000    -6.499717    13.271257     0.049683  # O78
    485       3    1  -0.816696000000    -4.771746    13.552790    -1.360917  # O79
    486       3    1  -0.816720000000    -4.575142    13.832918     1.358483  # O80
    487       4    1  -0.569996000000     8.933362    -4.636660     3.397983  # O0
    488       4    1  -0.569996000000    -8.900211    -5.418182     3.397983  # O1
    489       4    1  -0.569996000000    10.617791    -9.117145     3.397983  # O2
    490       4    1  -0.569996000000    -9.351356     4.878017     3.397983  # O3
    491       4    1  -0.569996000000     8.482130     5.659590     3.397983  # O4
    492       4    1  -0.569996000000   -11.035785     9.358502     3.397983  # O5
    493       4    2  -0.599996000000    10.656348    -2.630360     3.397983  # N6
    494       4    2  -0.599996000000    -8.024067    -7.913458     3.397983  # N7
    495       4    2  -0.599996000000     8.018748    -8.628221     3.397983  # N8
    496       4    2  -0.599996000000   -11.074342     2.871717     3.397983  # N9
    497       4    2  -0.599996000000     7.606072     8.154815     3.397983  # N10
    498       4    2  -0.599996000000    -8.436742     8.869578     3.397983  # N11
    499       4    3   0.541204000000     9.923253    -5.436919     3.397983  # C12
    500       4    3   0.541204000000   -10.088241    -5.875312     3.397983  # C13
    501       4    3   0.541204000000    10.815931    -7.859757     3.397983  # C14
    502       4    3   0.541204000000   -10.341333     5.678326     3.397983  # C15
    503       4    3   0.541204000000     9.670160     6.116719     3.397983  # C16
    504       4    3   0.541204000000   -11.233925     8.101114     3.397983  # C17
    505       4    4   0.028804000000   -11.241630    -4.948440     3.397983  # C18
    506       4    4   0.028804000000   -10.360650    -7.324340     3.397983  # C19
    507       4    4   0.028804000000     9.697224    -6.899215     3.397983  # C20
    508       4    4   0.028804000000    10.823636     5.189797     3.397983  # C21
    509       4    4   0.028804000000     9.942657     7.565697     3.397983  # C22
    510       4    4   0.028804000000   -10.115303     7.140622     3.397983  # C23
    511       4    5  -0.049996000000   -10.970386    -3.588229     3.397983  # C24
    512       4    5  -0.049996000000    -9.318369    -8.239256     3.397983  # C25
    513       4    5  -0.049996000000     8.383747    -7.344423     3.397983  # C26
    514       4    5  -0.049996000000    10.552305     3.829636     3.397983  # C27
    515       4    5  -0.049996000000     8.900288     8.480663     3.397983  # C28
    516       4    5  -0.049996000000    -8.801740     7.585781     3.397983  # C29
    517       4    4   0.100004000000    10.864245    -1.290270     3.397983  # C30
    518       4    4   0.100004000000    -6.967593    -8.763591     3.397983  # C31
    519       4    4   0.100004000000     6.754290    -9.118126     3.397983  # C32
    520       4    4   0.100004000000   -11.282325     1.531677     3.397983  # C33
    521       4    4   0.100004000000     6.549512     9.004998     3.397983  # C34
    522       4    4   0.100004000000    -7.172284     9.359483     3.397983  # C35
    523       4    4  -0.149996000000     9.774965    -0.397757     3.397983  # C36
    524       4    4  -0.149996000000    -5.650015    -8.266478     3.397983  # C37
    525       4    4  -0.149996000000     6.525992   -10.507752     3.397983  # C38
    526       4    4  -0.149996000000   -10.192960     0.639114     3.397983  # C39
    527       4    4  -0.149996000000     5.231934     8.507886     3.397983  # C40
    528       4    4  -0.149996000000    -6.944073    10.749159     3.397983  # C41
    529       4    4  -0.149996000000   -10.388639    -0.737012     3.397983  # C42
    530       4    4  -0.149996000000    -7.140056   -10.168709     3.397983  # C43
    531       4    4  -0.149996000000     5.623637    -8.266274     3.397983  # C44
    532       4    4  -0.008996000000     9.970644     0.978370     3.397983  # C45
    533       4    4  -0.008996000000     6.721976    10.410116     3.397983  # C46
    534       4    4  -0.008996000000    -6.041632     8.507632     3.397983  # C47
    535       4    6   0.150004000000     8.745246    -0.795482     3.397983  # H48
    536       4    6   0.150004000000    -5.479583    -7.175882     3.397983  # H49
    537       4    6   0.150004000000     7.385229   -11.200709     3.397983  # H50
    538       4    6   0.150004000000    -9.163241     1.036840     3.397983  # H51
    539       4    6   0.150004000000     5.061503     7.417289     3.397983  # H52
    540       4    6   0.150004000000    -7.803224    11.442066     3.397983  # H53
    541       4    7   0.150004000000    -9.911783    -3.244476     3.397983  # H54
    542       4    7   0.150004000000    -9.549929    -9.327930     3.397983  # H55
    543       4    7   0.150004000000     7.556654    -6.599589     3.397983  # H56
    544       4    7   0.150004000000     9.493789     3.485833     3.397983  # H57
    545       4    7   0.150004000000     9.131849     9.569337     3.397983  # H58
    546       4    7   0.150004000000    -7.974735     6.840996     3.397983  # H59
    547       4    6   0.150004000000    -9.504565    -1.401354     3.397983  # H60
    548       4    6   0.150004000000    -8.157357   -10.602125     3.397983  # H61
    549       4    6   0.150004000000     5.756915    -7.168429     3.397983  # H62
    550       4    8   0.400004000000     9.659365    -3.002183     3.397983  # H63
    551       4    8   0.400004000000    -7.847691    -6.864167     3.397983  # H64
    552       4    8   0.400004000000     8.839355    -9.305686     3.397983  # H65
    553       4    8   0.400004000000   -10.077360     3.243540     3.397983  # H66
    554       4    8   0.400004000000     7.429698     7.105524     3.397983  # H67
    555       4    8   0.400004000000    -9.257349     9.547044     3.397983  # H68
    556       4    9   1.459004000000     8.524992     2.067628     3.397983  # S69
    557       4    1  -0.816696000000     7.395858     1.009307     3.453983  # O70
    558       4    1  -0.816696000000     8.022118     2.639824     2.034383  # O71
    559       4    1  -0.816696000000     7.881053     2.960291     4.760983  # O72
    560       4    9   1.459004000000     8.387055    11.119519     3.397983  # S73
    561       4    1  -0.816696000000     8.035600    12.626780     3.453383  # O74
    562       4    1  -0.816696000000     9.134694    11.267067     2.034483  # O75
    563       4    1  -0.816696000000     9.482768    11.229150     4.760783  # O76
    564       4    9   1.459004000000    -6.259736     6.710863     3.397983  # S77
    565       4    1  -0.816696000000    -4.778285     6.262810     3.449683  # O78
    566       4    1  -0.816696000000    -6.506256     5.981276     2.039083  # O79
    567       4    1  -0.816720000000    -6.702860     5.701148     4.758483  # O80
    568       4    1  -0.569996000000    -2.344645    14.897405     3.397983  # O0
    569       4    1  -0.569996000000     2.377782    14.115891     3.397983  # O1
    570       4    1  -0.569996000000    -0.660215    10.416920     3.397983  # O2
    571       4    1  -0.569996000000     1.926651   -14.656048     3.397983  # O3
    572       4    1  -0.569996000000    -2.795863   -13.874483     3.397983  # O4
    573       4    1  -0.569996000000     0.242222   -10.175563     3.397983  # O5
    574       4    2  -0.599996000000    -0.621659    16.903705     3.397983  # N6
    575       4    2  -0.599996000000     3.253926    11.620615     3.397983  # N7
    576       4    2  -0.599996000000    -3.259259    10.905845     3.397983  # N8
    577       4    2  -0.599996000000     0.203665   -16.662348     3.397983  # N9
    578       4    2  -0.599996000000    -3.671921   -11.379258     3.397983  # N10
    579       4    2  -0.599996000000     2.841265   -10.664487     3.397983  # N11
    580       4    3   0.541204000000    -1.354754    14.097146     3.397983  # C12
    581       4    3   0.541204000000     1.189752    13.658761     3.397983  # C13
    582       4    3   0.541204000000    -0.462076    11.674309     3.397983  # C14
    583       4    3   0.541204000000     0.936674   -13.855739     3.397983  # C15
    584       4    3   0.541204000000    -1.607833   -13.417354     3.397983  # C16
    585       4    3   0.541204000000     0.044082   -11.432951     3.397983  # C17
    586       4    4   0.028804000000     0.036363    14.585633     3.397983  # C18
    587       4    4   0.028804000000     0.917343    12.209733     3.397983  # C19
    588       4    4   0.028804000000    -1.580783    12.634850     3.397983  # C20
    589       4    4   0.028804000000    -0.454357   -14.344275     3.397983  # C21
    590       4    4   0.028804000000    -1.335337   -11.968376     3.397983  # C22
    591       4    4   0.028804000000     1.162703   -12.393443     3.397983  # C23
    592       4    5  -0.049996000000     0.307608    15.945844     3.397983  # C24
    593       4    5  -0.049996000000     1.959624    11.294817     3.397983  # C25
    594       4    5  -0.049996000000    -2.894260    12.189642     3.397983  # C26
    595       4    5  -0.049996000000    -0.725688   -15.704437     3.397983  # C27
    596       4    5  -0.049996000000    -2.377705   -11.053410     3.397983  # C28
    597       4    5  -0.049996000000     2.476266   -11.948284     3.397983  # C29
    598       4    4   0.100004000000    -0.413762    18.243796     3.397983  # C30
    599       4    4   0.100004000000     4.310400    10.770482     3.397983  # C31
    600       4    4   0.100004000000    -4.523716    10.415939     3.397983  # C32
    601       4    4   0.100004000000    -0.004319   -18.002388     3.397983  # C33
    602       4    4   0.100004000000    -4.728481   -10.529075     3.397983  # C34
    603       4    4   0.100004000000     4.105723   -10.174582     3.397983  # C35
    604       4    4  -0.149996000000    -1.503041    19.136308     3.397983  # C36
    605       4    4  -0.149996000000     5.627978    11.267595     3.397983  # C37
    606       4    4  -0.149996000000    -4.752015     9.026313     3.397983  # C38
    607       4    4  -0.149996000000     1.085033    20.173187     3.397983  # C39
    608       4    4  -0.149996000000    -6.046059   -11.026187     3.397983  # C40
    609       4    4  -0.149996000000     4.333934    -8.784906     3.397983  # C41
    610       4    4  -0.149996000000     0.889355    18.797061     3.397983  # C42
    611       4    4  -0.149996000000     4.137937     9.365364     3.397983  # C43
    612       4    4  -0.149996000000    -5.654370    11.267791     3.397983  # C44
    613       4    4  -0.008996000000    -1.307349   -18.555703     3.397983  # C45
    614       4    4  -0.008996000000    -4.556018    -9.123957     3.397983  # C46
    615       4    4  -0.008996000000     5.236375   -11.026433     3.397983  # C47
    616       4    6   0.150004000000    -2.532760    18.738583     3.397983  # H48
    617       4    6   0.150004000000     5.798410    12.358191     3.397983  # H49
    618       4    6   0.150004000000    -3.892778     8.333356     3.397983  # H50
    619       4    6   0.150004000000     2.114766   -18.497226     3.397983  # H51
    620       4    6   0.150004000000    -6.216491   -12.116783     3.397983  # H52
    621       4    6   0.150004000000     3.474783    -8.091999     3.397983  # H53
    622       4    7   0.150004000000     1.366210    16.289597     3.397983  # H54
    623       4    7   0.150004000000     1.728065    10.206143     3.397983  # H55
    624       4    7   0.150004000000    -3.721352    12.934476     3.397983  # H56
    625       4    7   0.150004000000    -1.784204   -16.048240     3.397983  # H57
    626       4    7   0.150004000000    -2.146144    -9.964736     3.397983  # H58
    627       4    7   0.150004000000     3.303272   -12.693069     3.397983  # H59
    628       4    6   0.150004000000     1.773428    18.132719     3.397983  # H60
    629       4    6   0.150004000000     3.120636     8.931948     3.397983  # H61
    630       4    6   0.150004000000    -5.521092    12.365636     3.397983  # H62
    631       4    8   0.400004000000    -1.618642    16.531882     3.397983  # H63
    632       4    8   0.400004000000     3.430302    12.669906     3.397983  # H64
    633       4    8   0.400004000000    -2.438651    10.228379     3.397983  # H65
    634       4    8   0.400004000000     1.200647   -16.290525     3.397983  # H66
    635       4    8   0.400004000000    -3.848296   -12.428549     3.397983  # H67
    636       4    8   0.400004000000     2.020658    -9.987021     3.397983  # H68
    637       4    9   1.459004000000    -2.753001   -17.466445     3.397983  # S69
    638       4    1  -0.816696000000    -3.882135   -18.524766     3.453983  # O70
    639       4    1  -0.816696000000    -3.255875   -16.894248     2.034383  # O71
    640       4    1  -0.816696000000    -3.396940   -16.573781     4.760983  # O72
    641       4    9   1.459004000000    -2.890938    -8.414554     3.397983  # S73
    642       4    1  -0.816696000000    -3.242393    -6.907292     3.453383  # O74
    643       4    1  -0.816696000000    -2.143299    -8.267006     2.034483  # O75
    644       4    1  -0.816696000000    -1.795225    -8.304923     4.760783  # O76
    645       4    9   1.459004000000     5.018271   -12.823203     3.397983  # S77
    646       4    1  -0.816696000000     6.499722   -13.271255     3.449683  # O78
    647       4    1  -0.816696000000     4.771751   -13.552789     2.039083  # O79
    648       4    1  -0.816720000000     4.575147   -13.832917     4.758483  # O80
    649       5    1  -0.569996000000    -8.933360     4.636663     6.797983  # O0
    650       5    1  -0.569996000000     8.900213     5.418179     6.797983  # O1
    651       5    1  -0.569996000000   -10.617788     9.117148     6.797983  # O2
    652       5    1  -0.569996000000     9.351354    -4.878021     6.797983  # O3
    653       5    1  -0.569996000000    -8.482132    -5.659587     6.797983  # O4
    654       5    1  -0.569996000000    11.035782    -9.358506     6.797983  # O5
    655       5    2  -0.599996000000   -10.656347     2.630363     6.797983  # N6
    656       5    2  -0.599996000000     8.024070     7.913455     6.797983  # N7
    657       5    2  -0.599996000000    -8.018745     8.628223     6.797983  # N8
    658       5    2  -0.599996000000    11.074341    -2.871721     6.797983  # N9
    659       5    2  -0.599996000000    -7.606075    -8.154813     6.797983  # N10
    660       5    2  -0.599996000000     8.436739    -8.869581     6.797983  # N11
    661       5    3   0.541204000000    -9.923251     5.436922     6.797983  # C12
    662       5    3   0.541204000000    10.088243     5.875308     6.797983  # C13
    663       5    3   0.541204000000   -10.815928     7.859760     6.797983  # C14
    664       5    3   0.541204000000    10.341331    -5.678330     6.797983  # C15
    665       5    3   0.541204000000    -9.670162    -6.116716     6.797983  # C16
    666       5    3   0.541204000000    11.233922    -8.101118     6.797983  # C17
    667       5    4   0.028804000000    11.241632     4.948436     6.797983  # C18
    668       5    4   0.028804000000    10.360653     7.324336     6.797983  # C19
    669       5    4   0.028804000000    -9.697221     6.899218     6.797983  # C20
    670       5    4   0.028804000000   -10.823638    -5.189794     6.797983  # C21
    671       5    4   0.028804000000    -9.942659    -7.565694     6.797983  # C22
    672       5    4   0.028804000000    10.115301    -7.140626     6.797983  # C23
    673       5    5  -0.049996000000    10.970387     3.588225     6.797983  # C24
    674       5    5  -0.049996000000     9.318372     8.239252     6.797983  # C25
    675       5    5  -0.049996000000    -8.383744     7.344426     6.797983  # C26
    676       5    5  -0.049996000000   -10.552306    -3.829633     6.797983  # C27
    677       5    5  -0.049996000000    -8.900291    -8.480660     6.797983  # C28
    678       5    5  -0.049996000000     8.801738    -7.585784     6.797983  # C29
    679       5    4   0.100004000000   -10.864244     1.290273     6.797983  # C30
    680       5    4   0.100004000000     6.967596     8.763588     6.797983  # C31
    681       5    4   0.100004000000    -6.754287     9.118128     6.797983  # C32
    682       5    4   0.100004000000    11.282325    -1.531681     6.797983  # C33
    683       5    4   0.100004000000    -6.549515    -9.004996     6.797983  # C34
    684       5    4   0.100004000000     7.172281    -9.359486     6.797983  # C35
    685       5    4  -0.149996000000    -9.774965     0.397760     6.797983  # C36
    686       5    4  -0.149996000000     5.650018     8.266476     6.797983  # C37
    687       5    4  -0.149996000000    -6.525988    10.507754     6.797983  # C38
    688       5    4  -0.149996000000    10.192960    -0.639118     6.797983  # C39
    689       5    4  -0.149996000000    -5.231937    -8.507884     6.797983  # C40
    690       5    4  -0.149996000000     6.944069   -10.749162     6.797983  # C41
    691       5    4  -0.149996000000    10.388639     0.737008     6.797983  # C42
    692       5    4  -0.149996000000     7.140060    10.168706     6.797983  # C43
    693       5    4  -0.149996000000    -5.623634     8.266276     6.797983  # C44
    694       5    4  -0.008996000000    -9.970644    -0.978367     6.797983  # C45
    695       5    4  -0.008996000000    -6.721979   -10.410114     6.797983  # C46
    696       5    4  -0.008996000000     6.041629    -8.507634     6.797983  # C47
    697       5    6   0.150004000000    -8.745246     0.795485     6.797983  # H48
    698       5    6   0.150004000000     5.479586     7.175880     6.797983  # H49
    699       5    6   0.150004000000    -7.385225    11.200711     6.797983  # H50
    700       5    6   0.150004000000     9.163241    -1.036843     6.797983  # H51
    701       5    6   0.150004000000    -5.061505    -7.417288     6.797983  # H52
    702       5    6   0.150004000000     7.803220   -11.442069     6.797983  # H53
    703       5    7   0.150004000000     9.911784     3.244472     6.797983  # H54
    704       5    7   0.150004000000     9.549932     9.327926     6.797983  # H55
    705       5    7   0.150004000000    -7.556652     6.599591     6.797983  # H56
    706       5    7   0.150004000000    -9.493790    -3.485830     6.797983  # H57
    707       5    7   0.150004000000    -9.131852    -9.569334     6.797983  # H58
    708       5    7   0.150004000000     7.974733    -6.840999     6.797983  # H59
    709       5    6   0.150004000000     9.504566     1.401350     6.797983  # H60
    710       5    6   0.150004000000     8.157361    10.602122     6.797983  # H61
    711       5    6   0.150004000000    -5.756912     7.168431     6.797983  # H62
    712       5    8   0.400004000000    -9.659364     3.002186     6.797983  # H63
    713       5    8   0.400004000000     7.847694     6.864164     6.797983  # H64
    714       5    8   0.400004000000    -8.839352     9.305689     6.797983  # H65
    715       5    8   0.400004000000    10.077359    -3.243544     6.797983  # H66
    716       5    8   0.400004000000    -7.429700    -7.105522     6.797983  # H67
    717       5    8   0.400004000000     9.257346    -9.547048     6.797983  # H68
    718       5    9   1.459004000000    -8.524993    -2.067625     6.797983  # S69
    719       5    1  -0.816696000000    -7.395858    -1.009305     6.853983  # O70
    720       5    1  -0.816696000000    -8.022119    -2.639822     5.434383  # O71
    721       5    1  -0.816696000000    -7.881054    -2.960289     8.160983  # O72
    722       5    9   1.459004000000    -8.387059   -11.119516     6.797983  # S73
    723       5    1  -0.816696000000    -8.035604   -12.626778     6.853383  # O74
    724       5    1  -0.816696000000    -9.134698   -11.267064     5.434483  # O75
    725       5    1  -0.816696000000    -9.482772   -11.229147     8.160783  # O76
    726       5    9   1.459004000000     6.259734    -6.710865     6.797983  # S77
    727       5    1  -0.816696000000     4.778283    -6.262812     6.849683  # O78
    728       5    1  -0.816696000000     6.506254    -5.981279     5.439083  # O79
    729       5    1  -0.816720000000     6.702858    -5.701151     8.158483  # O80
    730       5    1  -0.569996000000     2.344640   -14.897406     6.797983  # O0
    731       5    1  -0.569996000000    -2.377787   -14.115890     6.797983  # O1
    732       5    1  -0.569996000000     0.660212   -10.416921     6.797983  # O2
    733       5    1  -0.569996000000    -1.926646    14.656048     6.797983  # O3
    734       5    1  -0.569996000000     2.795868    13.874482     6.797983  # O4
    735       5    1  -0.569996000000    -0.242218    10.175563     6.797983  # O5
    736       5    2  -0.599996000000     0.621653   -16.903706     6.797983  # N6
    737       5    2  -0.599996000000    -3.253930   -11.620614     6.797983  # N7
    738       5    2  -0.599996000000     3.259255   -10.905846     6.797983  # N8
    739       5    2  -0.599996000000    -0.203659    16.662348     6.797983  # N9
    740       5    2  -0.599996000000     3.671925    11.379256     6.797983  # N10
    741       5    2  -0.599996000000    -2.841261    10.664488     6.797983  # N11
    742       5    3   0.541204000000     1.354749   -14.097147     6.797983  # C12
    743       5    3   0.541204000000    -1.189757   -13.658761     6.797983  # C13
    744       5    3   0.541204000000     0.462072   -11.674309     6.797983  # C14
    745       5    3   0.541204000000    -0.936669    13.855739     6.797983  # C15
    746       5    3   0.541204000000     1.607838    13.417353     6.797983  # C16
    747       5    3   0.541204000000    -0.044078    11.432951     6.797983  # C17
    748       5    4   0.028804000000    -0.036368   -14.585633     6.797983  # C18
    749       5    4   0.028804000000    -0.917347   -12.209733     6.797983  # C19
    750       5    4   0.028804000000     1.580779   -12.634851     6.797983  # C20
    751       5    4   0.028804000000     0.454362    14.344275     6.797983  # C21
    752       5    4   0.028804000000     1.335341    11.968375     6.797983  # C22
    753       5    4   0.028804000000    -1.162699    12.393443     6.797983  # C23
    754       5    5  -0.049996000000    -0.307613   -15.945844     6.797983  # C24
    755       5    5  -0.049996000000    -1.959628   -11.294817     6.797983  # C25
    756       5    5  -0.049996000000     2.894256   -12.189643     6.797983  # C26
    757       5    5  -0.049996000000     0.725694    15.704436     6.797983  # C27
    758       5    5  -0.049996000000     2.377709    11.053409     6.797983  # C28
    759       5    5  -0.049996000000    -2.476262    11.948285     6.797983  # C29
    760       5    4   0.100004000000     0.413756   -18.243796     6.797983  # C30
    761       5    4   0.100004000000    -4.310404   -10.770481     6.797983  # C31
    762       5    4   0.100004000000     4.523713   -10.415941     6.797983  # C32
    763       5    4   0.100004000000     0.004325    18.002388     6.797983  # C33
    764       5    4   0.100004000000     4.728485    10.529073     6.797983  # C34
    765       5    4   0.100004000000    -4.105719    10.174583     6.797983  # C35
    766       5    4  -0.149996000000     1.503035   -19.136309     6.797983  # C36
    767       5    4  -0.149996000000    -5.627982   -11.267593     6.797983  # C37
    768       5    4  -0.149996000000     4.752012    -9.026315     6.797983  # C38
    769       5    4  -0.149996000000    -1.085040   -20.173187     6.797983  # C39
    770       5    4  -0.149996000000     6.046063    11.026185     6.797983  # C40
    771       5    4  -0.149996000000    -4.333931     8.784907     6.797983  # C41
    772       5    4  -0.149996000000    -0.889361   -18.797061     6.797983  # C42
    773       5    4  -0.149996000000    -4.137940    -9.365363     6.797983  # C43
    774       5    4  -0.149996000000     5.654366   -11.267793     6.797983  # C44
    775       5    4  -0.008996000000     1.307356    18.555702     6.797983  # C45
    776       5    4  -0.008996000000     4.556021     9.123955     6.797983  # C46
    777       5    4  -0.008996000000    -5.236371    11.026435     6.797983  # C47
    778       5    6   0.150004000000     2.532754   -18.738584     6.797983  # H48
    779       5    6   0.150004000000    -5.798414   -12.358189     6.797983  # H49
    780       5    6   0.150004000000     3.892775    -8.333358     6.797983  # H50
    781       5    6   0.150004000000    -2.114759    18.497226     6.797983  # H51
    782       5    6   0.150004000000     6.216495    12.116781     6.797983  # H52
    783       5    6   0.150004000000    -3.474780     8.092000     6.797983  # H53
    784       5    7   0.150004000000    -1.366216   -16.289597     6.797983  # H54
    785       5    7   0.150004000000    -1.728068   -10.206143     6.797983  # H55
    786       5    7   0.150004000000     3.721348   -12.934478     6.797983  # H56
    787       5    7   0.150004000000     1.784210    16.048239     6.797983  # H57
    788       5    7   0.150004000000     2.146148     9.964735     6.797983  # H58
    789       5    7   0.150004000000    -3.303267    12.693070     6.797983  # H59
    790       5    6   0.150004000000    -1.773434   -18.132719     6.797983  # H60
    791       5    6   0.150004000000    -3.120639    -8.931947     6.797983  # H61
    792       5    6   0.150004000000     5.521088   -12.365638     6.797983  # H62
    793       5    8   0.400004000000     1.618636   -16.531883     6.797983  # H63
    794       5    8   0.400004000000    -3.430306   -12.669905     6.797983  # H64
    795       5    8   0.400004000000     2.438648   -10.228380     6.797983  # H65
    796       5    8   0.400004000000    -1.200641    16.290525     6.797983  # H66
    797       5    8   0.400004000000     3.848300    12.428547     6.797983  # H67
    798       5    8   0.400004000000    -2.020654     9.987021     6.797983  # H68
    799       5    9   1.459004000000     2.753007    17.466444     6.797983  # S69
    800       5    1  -0.816696000000     3.882142    18.524764     6.853983  # O70
    801       5    1  -0.816696000000     3.255881    16.894247     5.434383  # O71
    802       5    1  -0.816696000000     3.396946    16.573780     8.160983  # O72
    803       5    9   1.459004000000     2.890941     8.414553     6.797983  # S73
    804       5    1  -0.816696000000     3.242396     6.907291     6.853383  # O74
    805       5    1  -0.816696000000     2.143302     8.267005     5.434483  # O75
    806       5    1  -0.816696000000     1.795228     8.304922     8.160783  # O76
    807       5    9   1.459004000000    -5.018266    12.823204     6.797983  # S77
    808       5    1  -0.816696000000    -6.499717    13.271257     6.849683  # O78
    809       5    1  -0.816696000000    -4.771746    13.552790     5.439083  # O79
    810       5    1  -0.816720000000    -4.575142    13.832918     8.158483  # O80

Bonds

      1    1      13      19  # C12-C18
      2    2       1      13  # O0-C12
      3    1      13      21  # C12-C20
      4    2       2      14  # O1-C13
      5    1      15      20  # C14-C19
      6    2       3      15  # O2-C14
      7    1      15      21  # C14-C20
      8    2       4      16  # O3-C15
      9    1      17      22  # C16-C21
     10    1      17      23  # C16-C22
     11    2       5      17  # O4-C16
     12    1      18      24  # C17-C23
     13    2       6      18  # O5-C17
     14    1      18      23  # C17-C22
     15    3       7      31  # N6-C30
     16    4       7      25  # N6-C24
     17    5       7      64  # N6-H63
     18    6      32      38  # C31-C37
     19    5       8      65  # N7-H64
     20    3       8      32  # N7-C31
     21    6      32      44  # C31-C43
     22    4       8      26  # N7-C25
     23    4       9      27  # N8-C26
     24    5       9      66  # N8-H65
     25    3       9      33  # N8-C32
     26    5      10      67  # N9-H66
     27    6      34      40  # C33-C39
     28    4      10      28  # N9-C27
     29    3      10      34  # N9-C33
     30    6      34      46  # C33-C45
     31    4      11      29  # N10-C28
     32    6      35      47  # C34-C46
     33    3      11      35  # N10-C34
     34    5      11      68  # N10-H67
     35    6      35      41  # C34-C40
     36    3      12      36  # N11-C35
     37    7      30      60  # C29-H59
     38    5      12      69  # N11-H68
     39    4      12      30  # N11-C29
     40    1      14      20  # C13-C19
     41    8      20      26  # C19-C25
     42    1      14      19  # C13-C18
     43    8      24      30  # C23-C29
     44    1      16      24  # C15-C23
     45    1      16      22  # C15-C21
     46    7      25      55  # C24-H54
     47    8      19      25  # C18-C24
     48    8      21      27  # C20-C26
     49    7      27      57  # C26-H56
     50    8      22      28  # C21-C27
     51    7      29      59  # C28-H58
     52    8      23      29  # C22-C28
     53    7      26      56  # C25-H55
     54    7      28      58  # C27-H57
     55    6      31      43  # C30-C42
     56    6      31      37  # C30-C36
     57    6      33      39  # C32-C38
     58    6      33      45  # C32-C44
     59    6      36      48  # C35-C47
     60    6      36      42  # C35-C41
     61    6      37      46  # C36-C45
     62    9      37      49  # C36-H48
     63   10     128     155  # C46-S73
     64    9      38      50  # C37-H49
     65    6      38     128  # C37-C46
     66    9      39      51  # C38-H50
     67    6      39     129  # C38-C47
     68    9      40      52  # C39-H51
     69    6      40      43  # C39-C42
     70    9      43      61  # C42-H60
     71    9      41      53  # C40-H52
     72    6      41     125  # C40-C43
     73    9     125     143  # C43-H61
     74    6      42     126  # C41-C44
     75    9      42      54  # C41-H53
     76    6      44     122  # C43-C40
     77    9      44      62  # C43-H61
     78    9      45      63  # C44-H62
     79    6      45     123  # C44-C41
     80    9     123     135  # C41-H53
     81   10      46      70  # C45-S69
     82   11      70      72  # S69-O71
     83   11      70      71  # S69-O70
     84   11      70      73  # S69-O72
     85   10      47      74  # C46-S73
     86    6      47     119  # C46-C37
     87    9     120     132  # C38-H50
     88    6      48     120  # C47-C38
     89   10      48      78  # C47-S77
     90   11      74      75  # S73-O74
     91   11      74      76  # S73-O75
     92   11      74      77  # S73-O76
     93   11      78      79  # S77-O78
     94   11      78      80  # S77-O79
     95   11      78      81  # S77-O80
     96    2      82      94  # O0-C12
     97    2      83      95  # O1-C13
     98    1      96     101  # C14-C19
     99    1      96     102  # C14-C20
    100    2      84      96  # O2-C14
    101    2      85      97  # O3-C15
    102    2      86      98  # O4-C16
    103    2      87      99  # O5-C17
    104    1      99     105  # C17-C23
    105    1      99     104  # C17-C22
    106    4      88     106  # N6-C24
    107    3      88     112  # N6-C30
    108    5      88     145  # N6-H63
    109    3      89     113  # N7-C31
    110    5      89     146  # N7-H64
    111    4      89     107  # N7-C25
    112    7     107     137  # C25-H55
    113    4      90     108  # N8-C26
    114    5      90     147  # N8-H65
    115    3      90     114  # N8-C32
    116    5      91     148  # N9-H66
    117    3      91     115  # N9-C33
    118    6     115     121  # C33-C39
    119    4      91     109  # N9-C27
    120    6     115     127  # C33-C45
    121    7     110     140  # C28-H58
    122    4      92     110  # N10-C28
    123    5      92     149  # N10-H67
    124    3      92     116  # N10-C34
    125    3      93     117  # N11-C35
    126    5      93     150  # N11-H68
    127    4      93     111  # N11-C29
    128    7     111     141  # C29-H59
    129    1      94     100  # C12-C18
    130    1      94     102  # C12-C20
    131    8     101     107  # C19-C25
    132    1      95     100  # C13-C18
    133    1      95     101  # C13-C19
    134    8     105     111  # C23-C29
    135    1      97     105  # C15-C23
    136    1      97     103  # C15-C21
    137    1      98     104  # C16-C22
    138    1      98     103  # C16-C21
    139    8     103     109  # C21-C27
    140    7     106     136  # C24-H54
    141    8     100     106  # C18-C24
    142    8     102     108  # C20-C26
    143    8     104     110  # C22-C28
    144    7     108     138  # C26-H56
    145    7     109     139  # C27-H57
    146    6     112     124  # C30-C42
    147    6     118     127  # C36-C45
    148    6     112     118  # C30-C36
    149    9     118     130  # C36-H48
    150    9     119     131  # C37-H49
    151    6     113     119  # C31-C37
    152    6     113     125  # C31-C43
    153    9     126     144  # C44-H62
    154    6     114     126  # C32-C44
    155    6     114     120  # C32-C38
    156    6     116     128  # C34-C46
    157    6     116     122  # C34-C40
    158    9     122     134  # C40-H52
    159    6     117     123  # C35-C41
    160    6     117     129  # C35-C47
    161   10     129     159  # C47-S77
    162    9     121     133  # C39-H51
    163    6     121     124  # C39-C42
    164    9     124     142  # C42-H60
    165   10     127     151  # C45-S69
    166   11     151     153  # S69-O71
    167   11     151     152  # S69-O70
    168   11     151     154  # S69-O72
    169   11     155     157  # S73-O75
    170   11     155     158  # S73-O76
    171   11     155     156  # S73-O74
    172   11     159     160  # S77-O78
    173   11     159     161  # S77-O79
    174   11     159     162  # S77-O80
    175    1     175     181  # C12-C18
    176    2     163     175  # O0-C12
    177    1     175     183  # C12-C20
    178    2     164     176  # O1-C13
    179    1     177     182  # C14-C19
    180    2     165     177  # O2-C14
    181    1     177     183  # C14-C20
    182    2     166     178  # O3-C15
    183    1     179     184  # C16-C21
    184    1     179     185  # C16-C22
    185    2     167     179  # O4-C16
    186    1     180     186  # C17-C23
    187    2     168     180  # O5-C17
    188    1     180     185  # C17-C22
    189    3     169     193  # N6-C30
    190    4     169     187  # N6-C24
    191    5     169     226  # N6-H63
    192    6     194     200  # C31-C37
    193    5     170     227  # N7-H64
    194    3     170     194  # N7-C31
    195    6     194     206  # C31-C43
    196    4     170     188  # N7-C25
    197    4     171     189  # N8-C26
    198    5     171     228  # N8-H65
    199    3     171     195  # N8-C32
    200    5     172     229  # N9-H66
    201    6     196     202  # C33-C39
    202    4     172     190  # N9-C27
    203    3     172     196  # N9-C33
    204    6     196     208  # C33-C45
    205    4     173     191  # N10-C28
    206    6     197     209  # C34-C46
    207    3     173     197  # N10-C34
    208    5     173     230  # N10-H67
    209    6     197     203  # C34-C40
    210    3     174     198  # N11-C35
    211    7     192     222  # C29-H59
    212    5     174     231  # N11-H68
    213    4     174     192  # N11-C29
    214    1     176     182  # C13-C19
    215    8     182     188  # C19-C25
    216    1     176     181  # C13-C18
    217    8     186     192  # C23-C29
    218    1     178     186  # C15-C23
    219    1     178     184  # C15-C21
    220    7     187     217  # C24-H54
    221    8     181     187  # C18-C24
    222    8     183     189  # C20-C26
    223    7     189     219  # C26-H56
    224    8     184     190  # C21-C27
    225    7     191     221  # C28-H58
    226    8     185     191  # C22-C28
    227    7     188     218  # C25-H55
    228    7     190     220  # C27-H57
    229    6     193     205  # C30-C42
    230    6     193     199  # C30-C36
    231    6     195     201  # C32-C38
    232    6     195     207  # C32-C44
    233    6     198     210  # C35-C47
    234    6     198     204  # C35-C41
    235    6     199     208  # C36-C45
    236    9     199     211  # C36-H48
    237   10     290     317  # C46-S73
    238    9     200     212  # C37-H49
    239    6     200     290  # C37-C46
    240    9     201     213  # C38-H50
    241    6     201     291  # C38-C47
    242    9     202     214  # C39-H51
    243    6     202     205  # C39-C42
    244    9     205     223  # C42-H60
    245    9     203     215  # C40-H52
    246    6     203     287  # C40-C43
    247    9     287     305  # C43-H61
    248    6     204     288  # C41-C44
    249    9     204     216  # C41-H53
    250    6     206     284  # C43-C40
    251    9     206     224  # C43-H61
    252    9     207     225  # C44-H62
    253    6     207     285  # C44-C41
    254    9     285     297  # C41-H53
    255   10     208     232  # C45-S69
    256   11     232     234  # S69-O71
    257   11     232     233  # S69-O70
    258   11     232     235  # S69-O72
    259   10     209     236  # C46-S73
    260    6     209     281  # C46-C37
    261    9     282     294  # C38-H50
    262    6     210     282  # C47-C38
    263   10     210     240  # C47-S77
    264   11     236     237  # S73-O74
    265   11     236     238  # S73-O75
    266   11     236     239  # S73-O76
    267   11     240     241  # S77-O78
    268   11     240     242  # S77-O79
    269   11     240     243  # S77-O80
    270    2     244     256  # O0-C12
    271    2     245     257  # O1-C13
    272    1     258     263  # C14-C19
    273    1     258     264  # C14-C20
    274    2     246     258  # O2-C14
    275    2     247     259  # O3-C15
    276    2     248     260  # O4-C16
    277    2     249     261  # O5-C17
    278    1     261     267  # C17-C23
    279    1     261     266  # C17-C22
    280    4     250     268  # N6-C24
    281    3     250     274  # N6-C30
    282    5     250     307  # N6-H63
    283    3     251     275  # N7-C31
    284    5     251     308  # N7-H64
    285    4     251     269  # N7-C25
    286    7     269     299  # C25-H55
    287    4     252     270  # N8-C26
    288    5     252     309  # N8-H65
    289    3     252     276  # N8-C32
    290    5     253     310  # N9-H66
    291    3     253     277  # N9-C33
    292    6     277     283  # C33-C39
    293    4     253     271  # N9-C27
    294    6     277     289  # C33-C45
    295    7     272     302  # C28-H58
    296    4     254     272  # N10-C28
    297    5     254     311  # N10-H67
    298    3     254     278  # N10-C34
    299    3     255     279  # N11-C35
    300    5     255     312  # N11-H68
    301    4     255     273  # N11-C29
    302    7     273     303  # C29-H59
    303    1     256     262  # C12-C18
    304    1     256     264  # C12-C20
    305    8     263     269  # C19-C25
    306    1     257     262  # C13-C18
    307    1     257     263  # C13-C19
    308    8     267     273  # C23-C29
    309    1     259     267  # C15-C23
    310    1     259     265  # C15-C21
    311    1     260     266  # C16-C22
    312    1     260     265  # C16-C21
    313    8     265     271  # C21-C27
    314    7     268     298  # C24-H54
    315    8     262     268  # C18-C24
    316    8     264     270  # C20-C26
    317    8     266     272  # C22-C28
    318    7     270     300  # C26-H56
    319    7     271     301  # C27-H57
    320    6     274     286  # C30-C42
    321    6     280     289  # C36-C45
    322    6     274     280  # C30-C36
    323    9     280     292  # C36-H48
    324    9     281     293  # C37-H49
    325    6     275     281  # C31-C37
    326    6     275     287  # C31-C43
    327    9     288     306  # C44-H62
    328    6     276     288  # C32-C44
    329    6     276     282  # C32-C38
    330    6     278     290  # C34-C46
    331    6     278     284  # C34-C40
    332    9     284     296  # C40-H52
    333    6     279     285  # C35-C41
    334    6     279     291  # C35-C47
    335   10     291     321  # C47-S77
    336    9     283     295  # C39-H51
    337    6     283     286  # C39-C42
    338    9     286     304  # C42-H60
    339   10     289     313  # C45-S69
    340   11     313     315  # S69-O71
    341   11     313     314  # S69-O70
    342   11     313     316  # S69-O72
    343   11     317     319  # S73-O75
    344   11     317     320  # S73-O76
    345   11     317     318  # S73-O74
    346   11     321     322  # S77-O78
    347   11     321     323  # S77-O79
    348   11     321     324  # S77-O80
    349    1     337     343  # C12-C18
    350    2     325     337  # O0-C12
    351    1     337     345  # C12-C20
    352    2     326     338  # O1-C13
    353    1     339     344  # C14-C19
    354    2     327     339  # O2-C14
    355    1     339     345  # C14-C20
    356    2     328     340  # O3-C15
    357    1     341     346  # C16-C21
    358    1     341     347  # C16-C22
    359    2     329     341  # O4-C16
    360    1     342     348  # C17-C23
    361    2     330     342  # O5-C17
    362    1     342     347  # C17-C22
    363    3     331     355  # N6-C30
    364    4     331     349  # N6-C24
    365    5     331     388  # N6-H63
    366    6     356     362  # C31-C37
    367    5     332     389  # N7-H64
    368    3     332     356  # N7-C31
    369    6     356     368  # C31-C43
    370    4     332     350  # N7-C25
    371    4     333     351  # N8-C26
    372    5     333     390  # N8-H65
    373    3     333     357  # N8-C32
    374    5     334     391  # N9-H66
    375    6     358     364  # C33-C39
    376    4     334     352  # N9-C27
    377    3     334     358  # N9-C33
    378    6     358     370  # C33-C45
    379    4     335     353  # N10-C28
    380    6     359     371  # C34-C46
    381    3     335     359  # N10-C34
    382    5     335     392  # N10-H67
    383    6     359     365  # C34-C40
    384    3     336     360  # N11-C35
    385    7     354     384  # C29-H59
    386    5     336     393  # N11-H68
    387    4     336     354  # N11-C29
    388    1     338     344  # C13-C19
    389    8     344     350  # C19-C25
    390    1     338     343  # C13-C18
    391    8     348     354  # C23-C29
    392    1     340     348  # C15-C23
    393    1     340     346  # C15-C21
    394    7     349     379  # C24-H54
    395    8     343     349  # C18-C24
    396    8     345     351  # C20-C26
    397    7     351     381  # C26-H56
    398    8     346     352  # C21-C27
    399    7     353     383  # C28-H58
    400    8     347     353  # C22-C28
    401    7     350     380  # C25-H55
    402    7     352     382  # C27-H57
    403    6     355     367  # C30-C42
    404    6     355     361  # C30-C36
    405    6     357     363  # C32-C38
    406    6     357     369  # C32-C44
    407    6     360     372  # C35-C47
    408    6     360     366  # C35-C41
    409    6     361     370  # C36-C45
    410    9     361     373  # C36-H48
    411   10     452     479  # C46-S73
    412    9     362     374  # C37-H49
    413    6     362     452  # C37-C46
    414    9     363     375  # C38-H50
    415    6     363     453  # C38-C47
    416    9     364     376  # C39-H51
    417    6     364     367  # C39-C42
    418    9     367     385  # C42-H60
    419    9     365     377  # C40-H52
    420    6     365     449  # C40-C43
    421    9     449     467  # C43-H61
    422    6     366     450  # C41-C44
    423    9     366     378  # C41-H53
    424    6     368     446  # C43-C40
    425    9     368     386  # C43-H61
    426    9     369     387  # C44-H62
    427    6     369     447  # C44-C41
    428    9     447     459  # C41-H53
    429   10     370     394  # C45-S69
    430   11     394     396  # S69-O71
    431   11     394     395  # S69-O70
    432   11     394     397  # S69-O72
    433   10     371     398  # C46-S73
    434    6     371     443  # C46-C37
    435    9     444     456  # C38-H50
    436    6     372     444  # C47-C38
    437   10     372     402  # C47-S77
    438   11     398     399  # S73-O74
    439   11     398     400  # S73-O75
    440   11     398     401  # S73-O76
    441   11     402     403  # S77-O78
    442   11     402     404  # S77-O79
    443   11     402     405  # S77-O80
    444    2     406     418  # O0-C12
    445    2     407     419  # O1-C13
    446    1     420     425  # C14-C19
    447    1     420     426  # C14-C20
    448    2     408     420  # O2-C14
    449    2     409     421  # O3-C15
    450    2     410     422  # O4-C16
    451    2     411     423  # O5-C17
    452    1     423     429  # C17-C23
    453    1     423     428  # C17-C22
    454    4     412     430  # N6-C24
    455    3     412     436  # N6-C30
    456    5     412     469  # N6-H63
    457    3     413     437  # N7-C31
    458    5     413     470  # N7-H64
    459    4     413     431  # N7-C25
    460    7     431     461  # C25-H55
    461    4     414     432  # N8-C26
    462    5     414     471  # N8-H65
    463    3     414     438  # N8-C32
    464    5     415     472  # N9-H66
    465    3     415     439  # N9-C33
    466    6     439     445  # C33-C39
    467    4     415     433  # N9-C27
    468    6     439     451  # C33-C45
    469    7     434     464  # C28-H58
    470    4     416     434  # N10-C28
    471    5     416     473  # N10-H67
    472    3     416     440  # N10-C34
    473    3     417     441  # N11-C35
    474    5     417     474  # N11-H68
    475    4     417     435  # N11-C29
    476    7     435     465  # C29-H59
    477    1     418     424  # C12-C18
    478    1     418     426  # C12-C20
    479    8     425     431  # C19-C25
    480    1     419     424  # C13-C18
    481    1     419     425  # C13-C19
    482    8     429     435  # C23-C29
    483    1     421     429  # C15-C23
    484    1     421     427  # C15-C21
    485    1     422     428  # C16-C22
    486    1     422     427  # C16-C21
    487    8     427     433  # C21-C27
    488    7     430     460  # C24-H54
    489    8     424     430  # C18-C24
    490    8     426     432  # C20-C26
    491    8     428     434  # C22-C28
    492    7     432     462  # C26-H56
    493    7     433     463  # C27-H57
    494    6     436     448  # C30-C42
    495    6     442     451  # C36-C45
    496    6     436     442  # C30-C36
    497    9     442     454  # C36-H48
    498    9     443     455  # C37-H49
    499    6     437     443  # C31-C37
    500    6     437     449  # C31-C43
    501    9     450     468  # C44-H62
    502    6     438     450  # C32-C44
    503    6     438     444  # C32-C38
    504    6     440     452  # C34-C46
    505    6     440     446  # C34-C40
    506    9     446     458  # C40-H52
    507    6     441     447  # C35-C41
    508    6     441     453  # C35-C47
    509   10     453     483  # C47-S77
    510    9     445     457  # C39-H51
    511    6     445     448  # C39-C42
    512    9     448     466  # C42-H60
    513   10     451     475  # C45-S69
    514   11     475     477  # S69-O71
    515   11     475     476  # S69-O70
    516   11     475     478  # S69-O72
    517   11     479     481  # S73-O75
    518   11     479     482  # S73-O76
    519   11     479     480  # S73-O74
    520   11     483     484  # S77-O78
    521   11     483     485  # S77-O79
    522   11     483     486  # S77-O80
    523    1     499     505  # C12-C18
    524    2     487     499  # O0-C12
    525    1     499     507  # C12-C20
    526    2     488     500  # O1-C13
    527    1     501     506  # C14-C19
    528    2     489     501  # O2-C14
    529    1     501     507  # C14-C20
    530    2     490     502  # O3-C15
    531    1     503     508  # C16-C21
    532    1     503     509  # C16-C22
    533    2     491     503  # O4-C16
    534    1     504     510  # C17-C23
    535    2     492     504  # O5-C17
    536    1     504     509  # C17-C22
    537    3     493     517  # N6-C30
    538    4     493     511  # N6-C24
    539    5     493     550  # N6-H63
    540    6     518     524  # C31-C37
    541    5     494     551  # N7-H64
    542    3     494     518  # N7-C31
    543    6     518     530  # C31-C43
    544    4     494     512  # N7-C25
    545    4     495     513  # N8-C26
    546    5     495     552  # N8-H65
    547    3     495     519  # N8-C32
    548    5     496     553  # N9-H66
    549    6     520     526  # C33-C39
    550    4     496     514  # N9-C27
    551    3     496     520  # N9-C33
    552    6     520     532  # C33-C45
    553    4     497     515  # N10-C28
    554    6     521     533  # C34-C46
    555    3     497     521  # N10-C34
    556    5     497     554  # N10-H67
    557    6     521     527  # C34-C40
    558    3     498     522  # N11-C35
    559    7     516     546  # C29-H59
    560    5     498     555  # N11-H68
    561    4     498     516  # N11-C29
    562    1     500     506  # C13-C19
    563    8     506     512  # C19-C25
    564    1     500     505  # C13-C18
    565    8     510     516  # C23-C29
    566    1     502     510  # C15-C23
    567    1     502     508  # C15-C21
    568    7     511     541  # C24-H54
    569    8     505     511  # C18-C24
    570    8     507     513  # C20-C26
    571    7     513     543  # C26-H56
    572    8     508     514  # C21-C27
    573    7     515     545  # C28-H58
    574    8     509     515  # C22-C28
    575    7     512     542  # C25-H55
    576    7     514     544  # C27-H57
    577    6     517     529  # C30-C42
    578    6     517     523  # C30-C36
    579    6     519     525  # C32-C38
    580    6     519     531  # C32-C44
    581    6     522     534  # C35-C47
    582    6     522     528  # C35-C41
    583    6     523     532  # C36-C45
    584    9     523     535  # C36-H48
    585   10     614     641  # C46-S73
    586    9     524     536  # C37-H49
    587    6     524     614  # C37-C46
    588    9     525     537  # C38-H50
    589    6     525     615  # C38-C47
    590    9     526     538  # C39-H51
    591    6     526     529  # C39-C42
    592    9     529     547  # C42-H60
    593    9     527     539  # C40-H52
    594    6     527     611  # C40-C43
    595    9     611     629  # C43-H61
    596    6     528     612  # C41-C44
    597    9     528     540  # C41-H53
    598    6     530     608  # C43-C40
    599    9     530     548  # C43-H61
    600    9     531     549  # C44-H62
    601    6     531     609  # C44-C41
    602    9     609     621  # C41-H53
    603   10     532     556  # C45-S69
    604   11     556     558  # S69-O71
    605   11     556     557  # S69-O70
    606   11     556     559  # S69-O72
    607   10     533     560  # C46-S73
    608    6     533     605  # C46-C37
    609    9     606     618  # C38-H50
    610    6     534     606  # C47-C38
    611   10     534     564  # C47-S77
    612   11     560     561  # S73-O74
    613   11     560     562  # S73-O75
    614   11     560     563  # S73-O76
    615   11     564     565  # S77-O78
    616   11     564     566  # S77-O79
    617   11     564     567  # S77-O80
    618    2     568     580  # O0-C12
    619    2     569     581  # O1-C13
    620    1     582     587  # C14-C19
    621    1     582     588  # C14-C20
    622    2     570     582  # O2-C14
    623    2     571     583  # O3-C15
    624    2     572     584  # O4-C16
    625    2     573     585  # O5-C17
    626    1     585     591  # C17-C23
    627    1     585     590  # C17-C22
    628    4     574     592  # N6-C24
    629    3     574     598  # N6-C30
    630    5     574     631  # N6-H63
    631    3     575     599  # N7-C31
    632    5     575     632  # N7-H64
    633    4     575     593  # N7-C25
    634    7     593     623  # C25-H55
    635    4     576     594  # N8-C26
    636    5     576     633  # N8-H65
    637    3     576     600  # N8-C32
    638    5     577     634  # N9-H66
    639    3     577     601  # N9-C33
    640    6     601     607  # C33-C39
    641    4     577     595  # N9-C27
    642    6     601     613  # C33-C45
    643    7     596     626  # C28-H58
    644    4     578     596  # N10-C28
    645    5     578     635  # N10-H67
    646    3     578     602  # N10-C34
    647    3     579     603  # N11-C35
    648    5     579     636  # N11-H68
    649    4     579     597  # N11-C29
    650    7     597     627  # C29-H59
    651    1     580     586  # C12-C18
    652    1     580     588  # C12-C20
    653    8     587     593  # C19-C25
    654    1     581     586  # C13-C18
    655    1     581     587  # C13-C19
    656    8     591     597  # C23-C29
    657    1     583     591  # C15-C23
    658    1     583     589  # C15-C21
    659    1     584     590  # C16-C22
    660    1     584     589  # C16-C21
    661    8     589     595  # C21-C27
    662    7     592     622  # C24-H54
    663    8     586     592  # C18-C24
    664    8     588     594  # C20-C26
    665    8     590     596  # C22-C28
    666    7     594     624  # C26-H56
    667    7     595     625  # C27-H57
    668    6     598     610  # C30-C42
    669    6     604     613  # C36-C45
    670    6     598     604  # C30-C36
    671    9     604     616  # C36-H48
    672    9     605     617  # C37-H49
    673    6     599     605  # C31-C37
    674    6     599     611  # C31-C43
    675    9     612     630  # C44-H62
    676    6     600     612  # C32-C44
    677    6     600     606  # C32-C38
    678    6     602     614  # C34-C46
    679    6     602     608  # C34-C40
    680    9     608     620  # C40-H52
    681    6     603     609  # C35-C41
    682    6     603     615  # C35-C47
    683   10     615     645  # C47-S77
    684    9     607     619  # C39-H51
    685    6     607     610  # C39-C42
    686    9     610     628  # C42-H60
    687   10     613     637  # C45-S69
    688   11     637     639  # S69-O71
    689   11     637     638  # S69-O70
    690   11     637     640  # S69-O72
    691   11     641     643  # S73-O75
    692   11     641     644  # S73-O76
    693   11     641     642  # S73-O74
    694   11     645     646  # S77-O78
    695   11     645     647  # S77-O79
    696   11     645     648  # S77-O80
    697    1     661     667  # C12-C18
    698    2     649     661  # O0-C12
    699    1     661     669  # C12-C20
    700    2     650     662  # O1-C13
    701    1     663     668  # C14-C19
    702    2     651     663  # O2-C14
    703    1     663     669  # C14-C20
    704    2     652     664  # O3-C15
    705    1     665     670  # C16-C21
    706    1     665     671  # C16-C22
    707    2     653     665  # O4-C16
    708    1     666     672  # C17-C23
    709    2     654     666  # O5-C17
    710    1     666     671  # C17-C22
    711    3     655     679  # N6-C30
    712    4     655     673  # N6-C24
    713    5     655     712  # N6-H63
    714    6     680     686  # C31-C37
    715    5     656     713  # N7-H64
    716    3     656     680  # N7-C31
    717    6     680     692  # C31-C43
    718    4     656     674  # N7-C25
    719    4     657     675  # N8-C26
    720    5     657     714  # N8-H65
    721    3     657     681  # N8-C32
    722    5     658     715  # N9-H66
    723    6     682     688  # C33-C39
    724    4     658     676  # N9-C27
    725    3     658     682  # N9-C33
    726    6     682     694  # C33-C45
    727    4     659     677  # N10-C28
    728    6     683     695  # C34-C46
    729    3     659     683  # N10-C34
    730    5     659     716  # N10-H67
    731    6     683     689  # C34-C40
    732    3     660     684  # N11-C35
    733    7     678     708  # C29-H59
    734    5     660     717  # N11-H68
    735    4     660     678  # N11-C29
    736    1     662     668  # C13-C19
    737    8     668     674  # C19-C25
    738    1     662     667  # C13-C18
    739    8     672     678  # C23-C29
    740    1     664     672  # C15-C23
    741    1     664     670  # C15-C21
    742    7     673     703  # C24-H54
    743    8     667     673  # C18-C24
    744    8     669     675  # C20-C26
    745    7     675     705  # C26-H56
    746    8     670     676  # C21-C27
    747    7     677     707  # C28-H58
    748    8     671     677  # C22-C28
    749    7     674     704  # C25-H55
    750    7     676     706  # C27-H57
    751    6     679     691  # C30-C42
    752    6     679     685  # C30-C36
    753    6     681     687  # C32-C38
    754    6     681     693  # C32-C44
    755    6     684     696  # C35-C47
    756    6     684     690  # C35-C41
    757    6     685     694  # C36-C45
    758    9     685     697  # C36-H48
    759   10     776     803  # C46-S73
    760    9     686     698  # C37-H49
    761    6     686     776  # C37-C46
    762    9     687     699  # C38-H50
    763    6     687     777  # C38-C47
    764    9     688     700  # C39-H51
    765    6     688     691  # C39-C42
    766    9     691     709  # C42-H60
    767    9     689     701  # C40-H52
    768    6     689     773  # C40-C43
    769    9     773     791  # C43-H61
    770    6     690     774  # C41-C44
    771    9     690     702  # C41-H53
    772    6     692     770  # C43-C40
    773    9     692     710  # C43-H61
    774    9     693     711  # C44-H62
    775    6     693     771  # C44-C41
    776    9     771     783  # C41-H53
    777   10     694     718  # C45-S69
    778   11     718     720  # S69-O71
    779   11     718     719  # S69-O70
    780   11     718     721  # S69-O72
    781   10     695     722  # C46-S73
    782    6     695     767  # C46-C37
    783    9     768     780  # C38-H50
    784    6     696     768  # C47-C38
    785   10     696     726  # C47-S77
    786   11     722     723  # S73-O74
    787   11     722     724  # S73-O75
    788   11     722     725  # S73-O76
    789   11     726     727  # S77-O78
    790   11     726     728  # S77-O79
    791   11     726     729  # S77-O80
    792    2     730     742  # O0-C12
    793    2     731     743  # O1-C13
    794    1     744     749  # C14-C19
    795    1     744     750  # C14-C20
    796    2     732     744  # O2-C14
    797    2     733     745  # O3-C15
    798    2     734     746  # O4-C16
    799    2     735     747  # O5-C17
    800    1     747     753  # C17-C23
    801    1     747     752  # C17-C22
    802    4     736     754  # N6-C24
    803    3     736     760  # N6-C30
    804    5     736     793  # N6-H63
    805    3     737     761  # N7-C31
    806    5     737     794  # N7-H64
    807    4     737     755  # N7-C25
    808    7     755     785  # C25-H55
    809    4     738     756  # N8-C26
    810    5     738     795  # N8-H65
    811    3     738     762  # N8-C32
    812    5     739     796  # N9-H66
    813    3     739     763  # N9-C33
    814    6     763     769  # C33-C39
    815    4     739     757  # N9-C27
    816    6     763     775  # C33-C45
    817    7     758     788  # C28-H58
    818    4     740     758  # N10-C28
    819    5     740     797  # N10-H67
    820    3     740     764  # N10-C34
    821    3     741     765  # N11-C35
    822    5     741     798  # N11-H68
    823    4     741     759  # N11-C29
    824    7     759     789  # C29-H59
    825    1     742     748  # C12-C18
    826    1     742     750  # C12-C20
    827    8     749     755  # C19-C25
    828    1     743     748  # C13-C18
    829    1     743     749  # C13-C19
    830    8     753     759  # C23-C29
    831    1     745     753  # C15-C23
    832    1     745     751  # C15-C21
    833    1     746     752  # C16-C22
    834    1     746     751  # C16-C21
    835    8     751     757  # C21-C27
    836    7     754     784  # C24-H54
    837    8     748     754  # C18-C24
    838    8     750     756  # C20-C26
    839    8     752     758  # C22-C28
    840    7     756     786  # C26-H56
    841    7     757     787  # C27-H57
    842    6     760     772  # C30-C42
    843    6     766     775  # C36-C45
    844    6     760     766  # C30-C36
    845    9     766     778  # C36-H48
    846    9     767     779  # C37-H49
    847    6     761     767  # C31-C37
    848    6     761     773  # C31-C43
    849    9     774     792  # C44-H62
    850    6     762     774  # C32-C44
    851    6     762     768  # C32-C38
    852    6     764     776  # C34-C46
    853    6     764     770  # C34-C40
    854    9     770     782  # C40-H52
    855    6     765     771  # C35-C41
    856    6     765     777  # C35-C47
    857   10     777     807  # C47-S77
    858    9     769     781  # C39-H51
    859    6     769     772  # C39-C42
    860    9     772     790  # C42-H60
    861   10     775     799  # C45-S69
    862   11     799     801  # S69-O71
    863   11     799     800  # S69-O70
    864   11     799     802  # S69-O72
    865   11     803     805  # S73-O75
    866   11     803     806  # S73-O76
    867   11     803     804  # S73-O74
    868   11     807     808  # S77-O78
    869   11     807     809  # S77-O79
    870   11     807     810  # S77-O80

Angles

      1    1      31       7      25  # C30-N6-C24
      2    2      31       7      64  # C30-N6-H63
      3    3      25       7      64  # C24-N6-H63
      4    2      65       8      32  # H64-N7-C31
      5    3      65       8      26  # H64-N7-C25
      6    1      32       8      26  # C31-N7-C25
      7    3      27       9      66  # C26-N8-H65
      8    1      27       9      33  # C26-N8-C32
      9    2      66       9      33  # H65-N8-C32
     10    3      67      10      28  # H66-N9-C27
     11    2      67      10      34  # H66-N9-C33
     12    1      28      10      34  # C27-N9-C33
     13    1      29      11      35  # C28-N10-C34
     14    3      29      11      68  # C28-N10-H67
     15    2      35      11      68  # C34-N10-H67
     16    2      36      12      69  # C35-N11-H68
     17    1      36      12      30  # C35-N11-C29
     18    3      69      12      30  # H68-N11-C29
     19    4      19      13       1  # C18-C12-O0
     20    5      19      13      21  # C18-C12-C20
     21    4       1      13      21  # O0-C12-C20
     22    4       2      14      20  # O1-C13-C19
     23    4       2      14      19  # O1-C13-C18
     24    5      20      14      19  # C19-C13-C18
     25    4      20      15       3  # C19-C14-O2
     26    5      20      15      21  # C19-C14-C20
     27    4       3      15      21  # O2-C14-C20
     28    4       4      16      24  # O3-C15-C23
     29    4       4      16      22  # O3-C15-C21
     30    5      24      16      22  # C23-C15-C21
     31    5      22      17      23  # C21-C16-C22
     32    4      22      17       5  # C21-C16-O4
     33    4      23      17       5  # C22-C16-O4
     34    4      24      18       6  # C23-C17-O5
     35    5      24      18      23  # C23-C17-C22
     36    4       6      18      23  # O5-C17-C22
     37    6      13      19      14  # C12-C18-C13
     38    7      13      19      25  # C12-C18-C24
     39    7      14      19      25  # C13-C18-C24
     40    6      15      20      14  # C14-C19-C13
     41    7      15      20      26  # C14-C19-C25
     42    7      14      20      26  # C13-C19-C25
     43    6      13      21      15  # C12-C20-C14
     44    7      13      21      27  # C12-C20-C26
     45    7      15      21      27  # C14-C20-C26
     46    6      17      22      16  # C16-C21-C15
     47    7      17      22      28  # C16-C21-C27
     48    7      16      22      28  # C15-C21-C27
     49    6      17      23      18  # C16-C22-C17
     50    7      17      23      29  # C16-C22-C28
     51    7      18      23      29  # C17-C22-C28
     52    7      18      24      30  # C17-C23-C29
     53    6      18      24      16  # C17-C23-C15
     54    7      30      24      16  # C29-C23-C15
     55    8       7      25      55  # N6-C24-H54
     56    9       7      25      19  # N6-C24-C18
     57   10      55      25      19  # H54-C24-C18
     58    9       8      26      20  # N7-C25-C19
     59    8       8      26      56  # N7-C25-H55
     60   10      20      26      56  # C19-C25-H55
     61    9       9      27      21  # N8-C26-C20
     62    8       9      27      57  # N8-C26-H56
     63   10      21      27      57  # C20-C26-H56
     64    9      10      28      22  # N9-C27-C21
     65    8      10      28      58  # N9-C27-H57
     66   10      22      28      58  # C21-C27-H57
     67    8      11      29      59  # N10-C28-H58
     68    9      11      29      23  # N10-C28-C22
     69   10      59      29      23  # H58-C28-C22
     70    8      60      30      12  # H59-C29-N11
     71   10      60      30      24  # H59-C29-C23
     72    9      12      30      24  # N11-C29-C23
     73   11       7      31      43  # N6-C30-C42
     74   11       7      31      37  # N6-C30-C36
     75   12      43      31      37  # C42-C30-C36
     76   11      38      32       8  # C37-C31-N7
     77   12      38      32      44  # C37-C31-C43
     78   11       8      32      44  # N7-C31-C43
     79   11       9      33      39  # N8-C32-C38
     80   11       9      33      45  # N8-C32-C44
     81   12      39      33      45  # C38-C32-C44
     82   11      40      34      10  # C39-C33-N9
     83   12      40      34      46  # C39-C33-C45
     84   11      10      34      46  # N9-C33-C45
     85   11      47      35      11  # C46-C34-N10
     86   12      47      35      41  # C46-C34-C40
     87   11      11      35      41  # N10-C34-C40
     88   11      12      36      48  # N11-C35-C47
     89   11      12      36      42  # N11-C35-C41
     90   12      48      36      42  # C47-C35-C41
     91   12      31      37      46  # C30-C36-C45
     92   13      31      37      49  # C30-C36-H48
     93   13      46      37      49  # C45-C36-H48
     94   13      32      38      50  # C31-C37-H49
     95   12      32      38     128  # C31-C37-C46
     96   13      50      38     128  # H49-C37-C46
     97   13      33      39      51  # C32-C38-H50
     98   12      33      39     129  # C32-C38-C47
     99   13      51      39     129  # H50-C38-C47
    100   13      34      40      52  # C33-C39-H51
    101   12      34      40      43  # C33-C39-C42
    102   13      52      40      43  # H51-C39-C42
    103   13      35      41      53  # C34-C40-H52
    104   12      35      41     125  # C34-C40-C43
    105   13      53      41     125  # H52-C40-C43
    106   12      36      42     126  # C35-C41-C44
    107   13      36      42      54  # C35-C41-H53
    108   13     126      42      54  # C44-C41-H53
    109   12      31      43      40  # C30-C42-C39
    110   13      31      43      61  # C30-C42-H60
    111   13      40      43      61  # C39-C42-H60
    112   12      32      44     122  # C31-C43-C40
    113   13      32      44      62  # C31-C43-H61
    114   13     122      44      62  # C40-C43-H61
    115   13      33      45      63  # C32-C44-H62
    116   12      33      45     123  # C32-C44-C41
    117   13      63      45     123  # H62-C44-C41
    118   12      34      46      37  # C33-C45-C36
    119   14      34      46      70  # C33-C45-S69
    120   14      37      46      70  # C36-C45-S69
    121   14      35      47      74  # C34-C46-S73
    122   12      35      47     119  # C34-C46-C37
    123   14      74      47     119  # S73-C46-C37
    124   12      36      48     120  # C35-C47-C38
    125   14      36      48      78  # C35-C47-S77
    126   14     120      48      78  # C38-C47-S77
    127   15      46      70      72  # C45-S69-O71
    128   15      46      70      71  # C45-S69-O70
    129   15      46      70      73  # C45-S69-O72
    130   16      72      70      71  # O71-S69-O70
    131   16      72      70      73  # O71-S69-O72
    132   16      71      70      73  # O70-S69-O72
    133   15      47      74      75  # C46-S73-O74
    134   15      47      74      76  # C46-S73-O75
    135   15      47      74      77  # C46-S73-O76
    136   16      75      74      76  # O74-S73-O75
    137   16      75      74      77  # O74-S73-O76
    138   16      76      74      77  # O75-S73-O76
    139   15      48      78      79  # C47-S77-O78
    140   15      48      78      80  # C47-S77-O79
    141   15      48      78      81  # C47-S77-O80
    142   16      79      78      80  # O78-S77-O79
    143   16      79      78      81  # O78-S77-O80
    144   16      80      78      81  # O79-S77-O80
    145    1     106      88     112  # C24-N6-C30
    146    3     106      88     145  # C24-N6-H63
    147    2     112      88     145  # C30-N6-H63
    148    2     113      89     146  # C31-N7-H64
    149    1     113      89     107  # C31-N7-C25
    150    3     146      89     107  # H64-N7-C25
    151    3     108      90     147  # C26-N8-H65
    152    1     108      90     114  # C26-N8-C32
    153    2     147      90     114  # H65-N8-C32
    154    2     148      91     115  # H66-N9-C33
    155    3     148      91     109  # H66-N9-C27
    156    1     115      91     109  # C33-N9-C27
    157    3     110      92     149  # C28-N10-H67
    158    1     110      92     116  # C28-N10-C34
    159    2     149      92     116  # H67-N10-C34
    160    2     117      93     150  # C35-N11-H68
    161    1     117      93     111  # C35-N11-C29
    162    3     150      93     111  # H68-N11-C29
    163    4      82      94     100  # O0-C12-C18
    164    4      82      94     102  # O0-C12-C20
    165    5     100      94     102  # C18-C12-C20
    166    4      83      95     100  # O1-C13-C18
    167    4      83      95     101  # O1-C13-C19
    168    5     100      95     101  # C18-C13-C19
    169    5     101      96     102  # C19-C14-C20
    170    4     101      96      84  # C19-C14-O2
    171    4     102      96      84  # C20-C14-O2
    172    4      85      97     105  # O3-C15-C23
    173    4      85      97     103  # O3-C15-C21
    174    5     105      97     103  # C23-C15-C21
    175    4      86      98     104  # O4-C16-C22
    176    4      86      98     103  # O4-C16-C21
    177    5     104      98     103  # C22-C16-C21
    178    4      87      99     105  # O5-C17-C23
    179    4      87      99     104  # O5-C17-C22
    180    5     105      99     104  # C23-C17-C22
    181    6      94     100      95  # C12-C18-C13
    182    7      94     100     106  # C12-C18-C24
    183    7      95     100     106  # C13-C18-C24
    184    7      96     101     107  # C14-C19-C25
    185    6      96     101      95  # C14-C19-C13
    186    7     107     101      95  # C25-C19-C13
    187    6      96     102      94  # C14-C20-C12
    188    7      96     102     108  # C14-C20-C26
    189    7      94     102     108  # C12-C20-C26
    190    6      97     103      98  # C15-C21-C16
    191    7      97     103     109  # C15-C21-C27
    192    7      98     103     109  # C16-C21-C27
    193    6      99     104      98  # C17-C22-C16
    194    7      99     104     110  # C17-C22-C28
    195    7      98     104     110  # C16-C22-C28
    196    7      99     105     111  # C17-C23-C29
    197    6      99     105      97  # C17-C23-C15
    198    7     111     105      97  # C29-C23-C15
    199    8      88     106     136  # N6-C24-H54
    200    9      88     106     100  # N6-C24-C18
    201   10     136     106     100  # H54-C24-C18
    202    8      89     107     137  # N7-C25-H55
    203    9      89     107     101  # N7-C25-C19
    204   10     137     107     101  # H55-C25-C19
    205    9      90     108     102  # N8-C26-C20
    206    8      90     108     138  # N8-C26-H56
    207   10     102     108     138  # C20-C26-H56
    208    9      91     109     103  # N9-C27-C21
    209    8      91     109     139  # N9-C27-H57
    210   10     103     109     139  # C21-C27-H57
    211    8     140     110      92  # H58-C28-N10
    212   10     140     110     104  # H58-C28-C22
    213    9      92     110     104  # N10-C28-C22
    214    8      93     111     141  # N11-C29-H59
    215    9      93     111     105  # N11-C29-C23
    216   10     141     111     105  # H59-C29-C23
    217   11      88     112     124  # N6-C30-C42
    218   11      88     112     118  # N6-C30-C36
    219   12     124     112     118  # C42-C30-C36
    220   11      89     113     119  # N7-C31-C37
    221   11      89     113     125  # N7-C31-C43
    222   12     119     113     125  # C37-C31-C43
    223   11      90     114     126  # N8-C32-C44
    224   11      90     114     120  # N8-C32-C38
    225   12     126     114     120  # C44-C32-C38
    226   11      91     115     121  # N9-C33-C39
    227   11      91     115     127  # N9-C33-C45
    228   12     121     115     127  # C39-C33-C45
    229   11      92     116     128  # N10-C34-C46
    230   11      92     116     122  # N10-C34-C40
    231   12     128     116     122  # C46-C34-C40
    232   11      93     117     123  # N11-C35-C41
    233   11      93     117     129  # N11-C35-C47
    234   12     123     117     129  # C41-C35-C47
    235   12     127     118     112  # C45-C36-C30
    236   13     127     118     130  # C45-C36-H48
    237   13     112     118     130  # C30-C36-H48
    238   13      47     119     131  # C46-C37-H49
    239   12      47     119     113  # C46-C37-C31
    240   13     131     119     113  # H49-C37-C31
    241   13     132     120      48  # H50-C38-C47
    242   13     132     120     114  # H50-C38-C32
    243   12      48     120     114  # C47-C38-C32
    244   13     115     121     133  # C33-C39-H51
    245   12     115     121     124  # C33-C39-C42
    246   13     133     121     124  # H51-C39-C42
    247   12      44     122     116  # C43-C40-C34
    248   13      44     122     134  # C43-C40-H52
    249   13     116     122     134  # C34-C40-H52
    250   13      45     123     135  # C44-C41-H53
    251   12      45     123     117  # C44-C41-C35
    252   13     135     123     117  # H53-C41-C35
    253   12     112     124     121  # C30-C42-C39
    254   13     112     124     142  # C30-C42-H60
    255   13     121     124     142  # C39-C42-H60
    256   13      41     125     143  # C40-C43-H61
    257   12      41     125     113  # C40-C43-C31
    258   13     143     125     113  # H61-C43-C31
    259   13      42     126     144  # C41-C44-H62
    260   12      42     126     114  # C41-C44-C32
    261   13     144     126     114  # H62-C44-C32
    262   12     115     127     118  # C33-C45-C36
    263   14     115     127     151  # C33-C45-S69
    264   14     118     127     151  # C36-C45-S69
    265   14     155     128      38  # S73-C46-C37
    266   14     155     128     116  # S73-C46-C34
    267   12      38     128     116  # C37-C46-C34
    268   12      39     129     117  # C38-C47-C35
    269   14      39     129     159  # C38-C47-S77
    270   14     117     129     159  # C35-C47-S77
    271   15     127     151     153  # C45-S69-O71
    272   15     127     151     152  # C45-S69-O70
    273   15     127     151     154  # C45-S69-O72
    274   16     153     151     152  # O71-S69-O70
    275   16     153     151     154  # O71-S69-O72
    276   16     152     151     154  # O70-S69-O72
    277   15     128     155     157  # C46-S73-O75
    278   15     128     155     158  # C46-S73-O76
    279   15     128     155     156  # C46-S73-O74
    280   16     157     155     158  # O75-S73-O76
    281   16     157     155     156  # O75-S73-O74
    282   16     158     155     156  # O76-S73-O74
    283   15     129     159     160  # C47-S77-O78
    284   15     129     159     161  # C47-S77-O79
    285   15     129     159     162  # C47-S77-O80
    286   16     160     159     161  # O78-S77-O79
    287   16     160     159     162  # O78-S77-O80
    288   16     161     159     162  # O79-S77-O80
    289    1     193     169     187  # C30-N6-C24
    290    2     193     169     226  # C30-N6-H63
    291    3     187     169     226  # C24-N6-H63
    292    2     227     170     194  # H64-N7-C31
    293    3     227     170     188  # H64-N7-C25
    294    1     194     170     188  # C31-N7-C25
    295    3     189     171     228  # C26-N8-H65
    296    1     189     171     195  # C26-N8-C32
    297    2     228     171     195  # H65-N8-C32
    298    3     229     172     190  # H66-N9-C27
    299    2     229     172     196  # H66-N9-C33
    300    1     190     172     196  # C27-N9-C33
    301    1     191     173     197  # C28-N10-C34
    302    3     191     173     230  # C28-N10-H67
    303    2     197     173     230  # C34-N10-H67
    304    2     198     174     231  # C35-N11-H68
    305    1     198     174     192  # C35-N11-C29
    306    3     231     174     192  # H68-N11-C29
    307    4     181     175     163  # C18-C12-O0
    308    5     181     175     183  # C18-C12-C20
    309    4     163     175     183  # O0-C12-C20
    310    4     164     176     182  # O1-C13-C19
    311    4     164     176     181  # O1-C13-C18
    312    5     182     176     181  # C19-C13-C18
    313    4     182     177     165  # C19-C14-O2
    314    5     182     177     183  # C19-C14-C20
    315    4     165     177     183  # O2-C14-C20
    316    4     166     178     186  # O3-C15-C23
    317    4     166     178     184  # O3-C15-C21
    318    5     186     178     184  # C23-C15-C21
    319    5     184     179     185  # C21-C16-C22
    320    4     184     179     167  # C21-C16-O4
    321    4     185     179     167  # C22-C16-O4
    322    4     186     180     168  # C23-C17-O5
    323    5     186     180     185  # C23-C17-C22
    324    4     168     180     185  # O5-C17-C22
    325    6     175     181     176  # C12-C18-C13
    326    7     175     181     187  # C12-C18-C24
    327    7     176     181     187  # C13-C18-C24
    328    6     177     182     176  # C14-C19-C13
    329    7     177     182     188  # C14-C19-C25
    330    7     176     182     188  # C13-C19-C25
    331    6     175     183     177  # C12-C20-C14
    332    7     175     183     189  # C12-C20-C26
    333    7     177     183     189  # C14-C20-C26
    334    6     179     184     178  # C16-C21-C15
    335    7     179     184     190  # C16-C21-C27
    336    7     178     184     190  # C15-C21-C27
    337    6     179     185     180  # C16-C22-C17
    338    7     179     185     191  # C16-C22-C28
    339    7     180     185     191  # C17-C22-C28
    340    7     180     186     192  # C17-C23-C29
    341    6     180     186     178  # C17-C23-C15
    342    7     192     186     178  # C29-C23-C15
    343    8     169     187     217  # N6-C24-H54
    344    9     169     187     181  # N6-C24-C18
    345   10     217     187     181  # H54-C24-C18
    346    9     170     188     182  # N7-C25-C19
    347    8     170     188     218  # N7-C25-H55
    348   10     182     188     218  # C19-C25-H55
    349    9     171     189     183  # N8-C26-C20
    350    8     171     189     219  # N8-C26-H56
    351   10     183     189     219  # C20-C26-H56
    352    9     172     190     184  # N9-C27-C21
    353    8     172     190     220  # N9-C27-H57
    354   10     184     190     220  # C21-C27-H57
    355    8     173     191     221  # N10-C28-H58
    356    9     173     191     185  # N10-C28-C22
    357   10     221     191     185  # H58-C28-C22
    358    8     222     192     174  # H59-C29-N11
    359   10     222     192     186  # H59-C29-C23
    360    9     174     192     186  # N11-C29-C23
    361   11     169     193     205  # N6-C30-C42
    362   11     169     193     199  # N6-C30-C36
    363   12     205     193     199  # C42-C30-C36
    364   11     200     194     170  # C37-C31-N7
    365   12     200     194     206  # C37-C31-C43
    366   11     170     194     206  # N7-C31-C43
    367   11     171     195     201  # N8-C32-C38
    368   11     171     195     207  # N8-C32-C44
    369   12     201     195     207  # C38-C32-C44
    370   11     202     196     172  # C39-C33-N9
    371   12     202     196     208  # C39-C33-C45
    372   11     172     196     208  # N9-C33-C45
    373   11     209     197     173  # C46-C34-N10
    374   12     209     197     203  # C46-C34-C40
    375   11     173     197     203  # N10-C34-C40
    376   11     174     198     210  # N11-C35-C47
    377   11     174     198     204  # N11-C35-C41
    378   12     210     198     204  # C47-C35-C41
    379   12     193     199     208  # C30-C36-C45
    380   13     193     199     211  # C30-C36-H48
    381   13     208     199     211  # C45-C36-H48
    382   13     194     200     212  # C31-C37-H49
    383   12     194     200     290  # C31-C37-C46
    384   13     212     200     290  # H49-C37-C46
    385   13     195     201     213  # C32-C38-H50
    386   12     195     201     291  # C32-C38-C47
    387   13     213     201     291  # H50-C38-C47
    388   13     196     202     214  # C33-C39-H51
    389   12     196     202     205  # C33-C39-C42
    390   13     214     202     205  # H51-C39-C42
    391   13     197     203     215  # C34-C40-H52
    392   12     197     203     287  # C34-C40-C43
    393   13     215     203     287  # H52-C40-C43
    394   12     198     204     288  # C35-C41-C44
    395   13     198     204     216  # C35-C41-H53
    396   13     288     204     216  # C44-C41-H53
    397   12     193     205     202  # C30-C42-C39
    398   13     193     205     223  # C30-C42-H60
    399   13     202     205     223  # C39-C42-H60
    400   12     194     206     284  # C31-C43-C40
    401   13     194     206     224  # C31-C43-H61
    402   13     284     206     224  # C40-C43-H61
    403   13     195     207     225  # C32-C44-H62
    404   12     195     207     285  # C32-C44-C41
    405   13     225     207     285  # H62-C44-C41
    406   12     196     208     199  # C33-C45-C36
    407   14     196     208     232  # C33-C45-S69
    408   14     199     208     232  # C36-C45-S69
    409   14     197     209     236  # C34-C46-S73
    410   12     197     209     281  # C34-C46-C37
    411   14     236     209     281  # S73-C46-C37
    412   12     198     210     282  # C35-C47-C38
    413   14     198     210     240  # C35-C47-S77
    414   14     282     210     240  # C38-C47-S77
    415   15     208     232     234  # C45-S69-O71
    416   15     208     232     233  # C45-S69-O70
    417   15     208     232     235  # C45-S69-O72
    418   16     234     232     233  # O71-S69-O70
    419   16     234     232     235  # O71-S69-O72
    420   16     233     232     235  # O70-S69-O72
    421   15     209     236     237  # C46-S73-O74
    422   15     209     236     238  # C46-S73-O75
    423   15     209     236     239  # C46-S73-O76
    424   16     237     236     238  # O74-S73-O75
    425   16     237     236     239  # O74-S73-O76
    426   16     238     236     239  # O75-S73-O76
    427   15     210     240     241  # C47-S77-O78
    428   15     210     240     242  # C47-S77-O79
    429   15     210     240     243  # C47-S77-O80
    430   16     241     240     242  # O78-S77-O79
    431   16     241     240     243  # O78-S77-O80
    432   16     242     240     243  # O79-S77-O80
    433    1     268     250     274  # C24-N6-C30
    434    3     268     250     307  # C24-N6-H63
    435    2     274     250     307  # C30-N6-H63
    436    2     275     251     308  # C31-N7-H64
    437    1     275     251     269  # C31-N7-C25
    438    3     308     251     269  # H64-N7-C25
    439    3     270     252     309  # C26-N8-H65
    440    1     270     252     276  # C26-N8-C32
    441    2     309     252     276  # H65-N8-C32
    442    2     310     253     277  # H66-N9-C33
    443    3     310     253     271  # H66-N9-C27
    444    1     277     253     271  # C33-N9-C27
    445    3     272     254     311  # C28-N10-H67
    446    1     272     254     278  # C28-N10-C34
    447    2     311     254     278  # H67-N10-C34
    448    2     279     255     312  # C35-N11-H68
    449    1     279     255     273  # C35-N11-C29
    450    3     312     255     273  # H68-N11-C29
    451    4     244     256     262  # O0-C12-C18
    452    4     244     256     264  # O0-C12-C20
    453    5     262     256     264  # C18-C12-C20
    454    4     245     257     262  # O1-C13-C18
    455    4     245     257     263  # O1-C13-C19
    456    5     262     257     263  # C18-C13-C19
    457    5     263     258     264  # C19-C14-C20
    458    4     263     258     246  # C19-C14-O2
    459    4     264     258     246  # C20-C14-O2
    460    4     247     259     267  # O3-C15-C23
    461    4     247     259     265  # O3-C15-C21
    462    5     267     259     265  # C23-C15-C21
    463    4     248     260     266  # O4-C16-C22
    464    4     248     260     265  # O4-C16-C21
    465    5     266     260     265  # C22-C16-C21
    466    4     249     261     267  # O5-C17-C23
    467    4     249     261     266  # O5-C17-C22
    468    5     267     261     266  # C23-C17-C22
    469    6     256     262     257  # C12-C18-C13
    470    7     256     262     268  # C12-C18-C24
    471    7     257     262     268  # C13-C18-C24
    472    7     258     263     269  # C14-C19-C25
    473    6     258     263     257  # C14-C19-C13
    474    7     269     263     257  # C25-C19-C13
    475    6     258     264     256  # C14-C20-C12
    476    7     258     264     270  # C14-C20-C26
    477    7     256     264     270  # C12-C20-C26
    478    6     259     265     260  # C15-C21-C16
    479    7     259     265     271  # C15-C21-C27
    480    7     260     265     271  # C16-C21-C27
    481    6     261     266     260  # C17-C22-C16
    482    7     261     266     272  # C17-C22-C28
    483    7     260     266     272  # C16-C22-C28
    484    7     261     267     273  # C17-C23-C29
    485    6     261     267     259  # C17-C23-C15
    486    7     273     267     259  # C29-C23-C15
    487    8     250     268     298  # N6-C24-H54
    488    9     250     268     262  # N6-C24-C18
    489   10     298     268     262  # H54-C24-C18
    490    8     251     269     299  # N7-C25-H55
    491    9     251     269     263  # N7-C25-C19
    492   10     299     269     263  # H55-C25-C19
    493    9     252     270     264  # N8-C26-C20
    494    8     252     270     300  # N8-C26-H56
    495   10     264     270     300  # C20-C26-H56
    496    9     253     271     265  # N9-C27-C21
    497    8     253     271     301  # N9-C27-H57
    498   10     265     271     301  # C21-C27-H57
    499    8     302     272     254  # H58-C28-N10
    500   10     302     272     266  # H58-C28-C22
    501    9     254     272     266  # N10-C28-C22
    502    8     255     273     303  # N11-C29-H59
    503    9     255     273     267  # N11-C29-C23
    504   10     303     273     267  # H59-C29-C23
    505   11     250     274     286  # N6-C30-C42
    506   11     250     274     280  # N6-C30-C36
    507   12     286     274     280  # C42-C30-C36
    508   11     251     275     281  # N7-C31-C37
    509   11     251     275     287  # N7-C31-C43
    510   12     281     275     287  # C37-C31-C43
    511   11     252     276     288  # N8-C32-C44
    512   11     252     276     282  # N8-C32-C38
    513   12     288     276     282  # C44-C32-C38
    514   11     253     277     283  # N9-C33-C39
    515   11     253     277     289  # N9-C33-C45
    516   12     283     277     289  # C39-C33-C45
    517   11     254     278     290  # N10-C34-C46
    518   11     254     278     284  # N10-C34-C40
    519   12     290     278     284  # C46-C34-C40
    520   11     255     279     285  # N11-C35-C41
    521   11     255     279     291  # N11-C35-C47
    522   12     285     279     291  # C41-C35-C47
    523   12     289     280     274  # C45-C36-C30
    524   13     289     280     292  # C45-C36-H48
    525   13     274     280     292  # C30-C36-H48
    526   13     209     281     293  # C46-C37-H49
    527   12     209     281     275  # C46-C37-C31
    528   13     293     281     275  # H49-C37-C31
    529   13     294     282     210  # H50-C38-C47
    530   13     294     282     276  # H50-C38-C32
    531   12     210     282     276  # C47-C38-C32
    532   13     277     283     295  # C33-C39-H51
    533   12     277     283     286  # C33-C39-C42
    534   13     295     283     286  # H51-C39-C42
    535   12     206     284     278  # C43-C40-C34
    536   13     206     284     296  # C43-C40-H52
    537   13     278     284     296  # C34-C40-H52
    538   13     207     285     297  # C44-C41-H53
    539   12     207     285     279  # C44-C41-C35
    540   13     297     285     279  # H53-C41-C35
    541   12     274     286     283  # C30-C42-C39
    542   13     274     286     304  # C30-C42-H60
    543   13     283     286     304  # C39-C42-H60
    544   13     203     287     305  # C40-C43-H61
    545   12     203     287     275  # C40-C43-C31
    546   13     305     287     275  # H61-C43-C31
    547   13     204     288     306  # C41-C44-H62
    548   12     204     288     276  # C41-C44-C32
    549   13     306     288     276  # H62-C44-C32
    550   12     277     289     280  # C33-C45-C36
    551   14     277     289     313  # C33-C45-S69
    552   14     280     289     313  # C36-C45-S69
    553   14     317     290     200  # S73-C46-C37
    554   14     317     290     278  # S73-C46-C34
    555   12     200     290     278  # C37-C46-C34
    556   12     201     291     279  # C38-C47-C35
    557   14     201     291     321  # C38-C47-S77
    558   14     279     291     321  # C35-C47-S77
    559   15     289     313     315  # C45-S69-O71
    560   15     289     313     314  # C45-S69-O70
    561   15     289     313     316  # C45-S69-O72
    562   16     315     313     314  # O71-S69-O70
    563   16     315     313     316  # O71-S69-O72
    564   16     314     313     316  # O70-S69-O72
    565   15     290     317     319  # C46-S73-O75
    566   15     290     317     320  # C46-S73-O76
    567   15     290     317     318  # C46-S73-O74
    568   16     319     317     320  # O75-S73-O76
    569   16     319     317     318  # O75-S73-O74
    570   16     320     317     318  # O76-S73-O74
    571   15     291     321     322  # C47-S77-O78
    572   15     291     321     323  # C47-S77-O79
    573   15     291     321     324  # C47-S77-O80
    574   16     322     321     323  # O78-S77-O79
    575   16     322     321     324  # O78-S77-O80
    576   16     323     321     324  # O79-S77-O80
    577    1     355     331     349  # C30-N6-C24
    578    2     355     331     388  # C30-N6-H63
    579    3     349     331     388  # C24-N6-H63
    580    2     389     332     356  # H64-N7-C31
    581    3     389     332     350  # H64-N7-C25
    582    1     356     332     350  # C31-N7-C25
    583    3     351     333     390  # C26-N8-H65
    584    1     351     333     357  # C26-N8-C32
    585    2     390     333     357  # H65-N8-C32
    586    3     391     334     352  # H66-N9-C27
    587    2     391     334     358  # H66-N9-C33
    588    1     352     334     358  # C27-N9-C33
    589    1     353     335     359  # C28-N10-C34
    590    3     353     335     392  # C28-N10-H67
    591    2     359     335     392  # C34-N10-H67
    592    2     360     336     393  # C35-N11-H68
    593    1     360     336     354  # C35-N11-C29
    594    3     393     336     354  # H68-N11-C29
    595    4     343     337     325  # C18-C12-O0
    596    5     343     337     345  # C18-C12-C20
    597    4     325     337     345  # O0-C12-C20
    598    4     326     338     344  # O1-C13-C19
    599    4     326     338     343  # O1-C13-C18
    600    5     344     338     343  # C19-C13-C18
    601    4     344     339     327  # C19-C14-O2
    602    5     344     339     345  # C19-C14-C20
    603    4     327     339     345  # O2-C14-C20
    604    4     328     340     348  # O3-C15-C23
    605    4     328     340     346  # O3-C15-C21
    606    5     348     340     346  # C23-C15-C21
    607    5     346     341     347  # C21-C16-C22
    608    4     346     341     329  # C21-C16-O4
    609    4     347     341     329  # C22-C16-O4
    610    4     348     342     330  # C23-C17-O5
    611    5     348     342     347  # C23-C17-C22
    612    4     330     342     347  # O5-C17-C22
    613    6     337     343     338  # C12-C18-C13
    614    7     337     343     349  # C12-C18-C24
    615    7     338     343     349  # C13-C18-C24
    616    6     339     344     338  # C14-C19-C13
    617    7     339     344     350  # C14-C19-C25
    618    7     338     344     350  # C13-C19-C25
    619    6     337     345     339  # C12-C20-C14
    620    7     337     345     351  # C12-C20-C26
    621    7     339     345     351  # C14-C20-C26
    622    6     341     346     340  # C16-C21-C15
    623    7     341     346     352  # C16-C21-C27
    624    7     340     346     352  # C15-C21-C27
    625    6     341     347     342  # C16-C22-C17
    626    7     341     347     353  # C16-C22-C28
    627    7     342     347     353  # C17-C22-C28
    628    7     342     348     354  # C17-C23-C29
    629    6     342     348     340  # C17-C23-C15
    630    7     354     348     340  # C29-C23-C15
    631    8     331     349     379  # N6-C24-H54
    632    9     331     349     343  # N6-C24-C18
    633   10     379     349     343  # H54-C24-C18
    634    9     332     350     344  # N7-C25-C19
    635    8     332     350     380  # N7-C25-H55
    636   10     344     350     380  # C19-C25-H55
    637    9     333     351     345  # N8-C26-C20
    638    8     333     351     381  # N8-C26-H56
    639   10     345     351     381  # C20-C26-H56
    640    9     334     352     346  # N9-C27-C21
    641    8     334     352     382  # N9-C27-H57
    642   10     346     352     382  # C21-C27-H57
    643    8     335     353     383  # N10-C28-H58
    644    9     335     353     347  # N10-C28-C22
    645   10     383     353     347  # H58-C28-C22
    646    8     384     354     336  # H59-C29-N11
    647   10     384     354     348  # H59-C29-C23
    648    9     336     354     348  # N11-C29-C23
    649   11     331     355     367  # N6-C30-C42
    650   11     331     355     361  # N6-C30-C36
    651   12     367     355     361  # C42-C30-C36
    652   11     362     356     332  # C37-C31-N7
    653   12     362     356     368  # C37-C31-C43
    654   11     332     356     368  # N7-C31-C43
    655   11     333     357     363  # N8-C32-C38
    656   11     333     357     369  # N8-C32-C44
    657   12     363     357     369  # C38-C32-C44
    658   11     364     358     334  # C39-C33-N9
    659   12     364     358     370  # C39-C33-C45
    660   11     334     358     370  # N9-C33-C45
    661   11     371     359     335  # C46-C34-N10
    662   12     371     359     365  # C46-C34-C40
    663   11     335     359     365  # N10-C34-C40
    664   11     336     360     372  # N11-C35-C47
    665   11     336     360     366  # N11-C35-C41
    666   12     372     360     366  # C47-C35-C41
    667   12     355     361     370  # C30-C36-C45
    668   13     355     361     373  # C30-C36-H48
    669   13     370     361     373  # C45-C36-H48
    670   13     356     362     374  # C31-C37-H49
    671   12     356     362     452  # C31-C37-C46
    672   13     374     362     452  # H49-C37-C46
    673   13     357     363     375  # C32-C38-H50
    674   12     357     363     453  # C32-C38-C47
    675   13     375     363     453  # H50-C38-C47
    676   13     358     364     376  # C33-C39-H51
    677   12     358     364     367  # C33-C39-C42
    678   13     376     364     367  # H51-C39-C42
    679   13     359     365     377  # C34-C40-H52
    680   12     359     365     449  # C34-C40-C43
    681   13     377     365     449  # H52-C40-C43
    682   12     360     366     450  # C35-C41-C44
    683   13     360     366     378  # C35-C41-H53
    684   13     450     366     378  # C44-C41-H53
    685   12     355     367     364  # C30-C42-C39
    686   13     355     367     385  # C30-C42-H60
    687   13     364     367     385  # C39-C42-H60
    688   12     356     368     446  # C31-C43-C40
    689   13     356     368     386  # C31-C43-H61
    690   13     446     368     386  # C40-C43-H61
    691   13     357     369     387  # C32-C44-H62
    692   12     357     369     447  # C32-C44-C41
    693   13     387     369     447  # H62-C44-C41
    694   12     358     370     361  # C33-C45-C36
    695   14     358     370     394  # C33-C45-S69
    696   14     361     370     394  # C36-C45-S69
    697   14     359     371     398  # C34-C46-S73
    698   12     359     371     443  # C34-C46-C37
    699   14     398     371     443  # S73-C46-C37
    700   12     360     372     444  # C35-C47-C38
    701   14     360     372     402  # C35-C47-S77
    702   14     444     372     402  # C38-C47-S77
    703   15     370     394     396  # C45-S69-O71
    704   15     370     394     395  # C45-S69-O70
    705   15     370     394     397  # C45-S69-O72
    706   16     396     394     395  # O71-S69-O70
    707   16     396     394     397  # O71-S69-O72
    708   16     395     394     397  # O70-S69-O72
    709   15     371     398     399  # C46-S73-O74
    710   15     371     398     400  # C46-S73-O75
    711   15     371     398     401  # C46-S73-O76
    712   16     399     398     400  # O74-S73-O75
    713   16     399     398     401  # O74-S73-O76
    714   16     400     398     401  # O75-S73-O76
    715   15     372     402     403  # C47-S77-O78
    716   15     372     402     404  # C47-S77-O79
    717   15     372     402     405  # C47-S77-O80
    718   16     403     402     404  # O78-S77-O79
    719   16     403     402     405  # O78-S77-O80
    720   16     404     402     405  # O79-S77-O80
    721    1     430     412     436  # C24-N6-C30
    722    3     430     412     469  # C24-N6-H63
    723    2     436     412     469  # C30-N6-H63
    724    2     437     413     470  # C31-N7-H64
    725    1     437     413     431  # C31-N7-C25
    726    3     470     413     431  # H64-N7-C25
    727    3     432     414     471  # C26-N8-H65
    728    1     432     414     438  # C26-N8-C32
    729    2     471     414     438  # H65-N8-C32
    730    2     472     415     439  # H66-N9-C33
    731    3     472     415     433  # H66-N9-C27
    732    1     439     415     433  # C33-N9-C27
    733    3     434     416     473  # C28-N10-H67
    734    1     434     416     440  # C28-N10-C34
    735    2     473     416     440  # H67-N10-C34
    736    2     441     417     474  # C35-N11-H68
    737    1     441     417     435  # C35-N11-C29
    738    3     474     417     435  # H68-N11-C29
    739    4     406     418     424  # O0-C12-C18
    740    4     406     418     426  # O0-C12-C20
    741    5     424     418     426  # C18-C12-C20
    742    4     407     419     424  # O1-C13-C18
    743    4     407     419     425  # O1-C13-C19
    744    5     424     419     425  # C18-C13-C19
    745    5     425     420     426  # C19-C14-C20
    746    4     425     420     408  # C19-C14-O2
    747    4     426     420     408  # C20-C14-O2
    748    4     409     421     429  # O3-C15-C23
    749    4     409     421     427  # O3-C15-C21
    750    5     429     421     427  # C23-C15-C21
    751    4     410     422     428  # O4-C16-C22
    752    4     410     422     427  # O4-C16-C21
    753    5     428     422     427  # C22-C16-C21
    754    4     411     423     429  # O5-C17-C23
    755    4     411     423     428  # O5-C17-C22
    756    5     429     423     428  # C23-C17-C22
    757    6     418     424     419  # C12-C18-C13
    758    7     418     424     430  # C12-C18-C24
    759    7     419     424     430  # C13-C18-C24
    760    7     420     425     431  # C14-C19-C25
    761    6     420     425     419  # C14-C19-C13
    762    7     431     425     419  # C25-C19-C13
    763    6     420     426     418  # C14-C20-C12
    764    7     420     426     432  # C14-C20-C26
    765    7     418     426     432  # C12-C20-C26
    766    6     421     427     422  # C15-C21-C16
    767    7     421     427     433  # C15-C21-C27
    768    7     422     427     433  # C16-C21-C27
    769    6     423     428     422  # C17-C22-C16
    770    7     423     428     434  # C17-C22-C28
    771    7     422     428     434  # C16-C22-C28
    772    7     423     429     435  # C17-C23-C29
    773    6     423     429     421  # C17-C23-C15
    774    7     435     429     421  # C29-C23-C15
    775    8     412     430     460  # N6-C24-H54
    776    9     412     430     424  # N6-C24-C18
    777   10     460     430     424  # H54-C24-C18
    778    8     413     431     461  # N7-C25-H55
    779    9     413     431     425  # N7-C25-C19
    780   10     461     431     425  # H55-C25-C19
    781    9     414     432     426  # N8-C26-C20
    782    8     414     432     462  # N8-C26-H56
    783   10     426     432     462  # C20-C26-H56
    784    9     415     433     427  # N9-C27-C21
    785    8     415     433     463  # N9-C27-H57
    786   10     427     433     463  # C21-C27-H57
    787    8     464     434     416  # H58-C28-N10
    788   10     464     434     428  # H58-C28-C22
    789    9     416     434     428  # N10-C28-C22
    790    8     417     435     465  # N11-C29-H59
    791    9     417     435     429  # N11-C29-C23
    792   10     465     435     429  # H59-C29-C23
    793   11     412     436     448  # N6-C30-C42
    794   11     412     436     442  # N6-C30-C36
    795   12     448     436     442  # C42-C30-C36
    796   11     413     437     443  # N7-C31-C37
    797   11     413     437     449  # N7-C31-C43
    798   12     443     437     449  # C37-C31-C43
    799   11     414     438     450  # N8-C32-C44
    800   11     414     438     444  # N8-C32-C38
    801   12     450     438     444  # C44-C32-C38
    802   11     415     439     445  # N9-C33-C39
    803   11     415     439     451  # N9-C33-C45
    804   12     445     439     451  # C39-C33-C45
    805   11     416     440     452  # N10-C34-C46
    806   11     416     440     446  # N10-C34-C40
    807   12     452     440     446  # C46-C34-C40
    808   11     417     441     447  # N11-C35-C41
    809   11     417     441     453  # N11-C35-C47
    810   12     447     441     453  # C41-C35-C47
    811   12     451     442     436  # C45-C36-C30
    812   13     451     442     454  # C45-C36-H48
    813   13     436     442     454  # C30-C36-H48
    814   13     371     443     455  # C46-C37-H49
    815   12     371     443     437  # C46-C37-C31
    816   13     455     443     437  # H49-C37-C31
    817   13     456     444     372  # H50-C38-C47
    818   13     456     444     438  # H50-C38-C32
    819   12     372     444     438  # C47-C38-C32
    820   13     439     445     457  # C33-C39-H51
    821   12     439     445     448  # C33-C39-C42
    822   13     457     445     448  # H51-C39-C42
    823   12     368     446     440  # C43-C40-C34
    824   13     368     446     458  # C43-C40-H52
    825   13     440     446     458  # C34-C40-H52
    826   13     369     447     459  # C44-C41-H53
    827   12     369     447     441  # C44-C41-C35
    828   13     459     447     441  # H53-C41-C35
    829   12     436     448     445  # C30-C42-C39
    830   13     436     448     466  # C30-C42-H60
    831   13     445     448     466  # C39-C42-H60
    832   13     365     449     467  # C40-C43-H61
    833   12     365     449     437  # C40-C43-C31
    834   13     467     449     437  # H61-C43-C31
    835   13     366     450     468  # C41-C44-H62
    836   12     366     450     438  # C41-C44-C32
    837   13     468     450     438  # H62-C44-C32
    838   12     439     451     442  # C33-C45-C36
    839   14     439     451     475  # C33-C45-S69
    840   14     442     451     475  # C36-C45-S69
    841   14     479     452     362  # S73-C46-C37
    842   14     479     452     440  # S73-C46-C34
    843   12     362     452     440  # C37-C46-C34
    844   12     363     453     441  # C38-C47-C35
    845   14     363     453     483  # C38-C47-S77
    846   14     441     453     483  # C35-C47-S77
    847   15     451     475     477  # C45-S69-O71
    848   15     451     475     476  # C45-S69-O70
    849   15     451     475     478  # C45-S69-O72
    850   16     477     475     476  # O71-S69-O70
    851   16     477     475     478  # O71-S69-O72
    852   16     476     475     478  # O70-S69-O72
    853   15     452     479     481  # C46-S73-O75
    854   15     452     479     482  # C46-S73-O76
    855   15     452     479     480  # C46-S73-O74
    856   16     481     479     482  # O75-S73-O76
    857   16     481     479     480  # O75-S73-O74
    858   16     482     479     480  # O76-S73-O74
    859   15     453     483     484  # C47-S77-O78
    860   15     453     483     485  # C47-S77-O79
    861   15     453     483     486  # C47-S77-O80
    862   16     484     483     485  # O78-S77-O79
    863   16     484     483     486  # O78-S77-O80
    864   16     485     483     486  # O79-S77-O80
    865    1     517     493     511  # C30-N6-C24
    866    2     517     493     550  # C30-N6-H63
    867    3     511     493     550  # C24-N6-H63
    868    2     551     494     518  # H64-N7-C31
    869    3     551     494     512  # H64-N7-C25
    870    1     518     494     512  # C31-N7-C25
    871    3     513     495     552  # C26-N8-H65
    872    1     513     495     519  # C26-N8-C32
    873    2     552     495     519  # H65-N8-C32
    874    3     553     496     514  # H66-N9-C27
    875    2     553     496     520  # H66-N9-C33
    876    1     514     496     520  # C27-N9-C33
    877    1     515     497     521  # C28-N10-C34
    878    3     515     497     554  # C28-N10-H67
    879    2     521     497     554  # C34-N10-H67
    880    2     522     498     555  # C35-N11-H68
    881    1     522     498     516  # C35-N11-C29
    882    3     555     498     516  # H68-N11-C29
    883    4     505     499     487  # C18-C12-O0
    884    5     505     499     507  # C18-C12-C20
    885    4     487     499     507  # O0-C12-C20
    886    4     488     500     506  # O1-C13-C19
    887    4     488     500     505  # O1-C13-C18
    888    5     506     500     505  # C19-C13-C18
    889    4     506     501     489  # C19-C14-O2
    890    5     506     501     507  # C19-C14-C20
    891    4     489     501     507  # O2-C14-C20
    892    4     490     502     510  # O3-C15-C23
    893    4     490     502     508  # O3-C15-C21
    894    5     510     502     508  # C23-C15-C21
    895    5     508     503     509  # C21-C16-C22
    896    4     508     503     491  # C21-C16-O4
    897    4     509     503     491  # C22-C16-O4
    898    4     510     504     492  # C23-C17-O5
    899    5     510     504     509  # C23-C17-C22
    900    4     492     504     509  # O5-C17-C22
    901    6     499     505     500  # C12-C18-C13
    902    7     499     505     511  # C12-C18-C24
    903    7     500     505     511  # C13-C18-C24
    904    6     501     506     500  # C14-C19-C13
    905    7     501     506     512  # C14-C19-C25
    906    7     500     506     512  # C13-C19-C25
    907    6     499     507     501  # C12-C20-C14
    908    7     499     507     513  # C12-C20-C26
    909    7     501     507     513  # C14-C20-C26
    910    6     503     508     502  # C16-C21-C15
    911    7     503     508     514  # C16-C21-C27
    912    7     502     508     514  # C15-C21-C27
    913    6     503     509     504  # C16-C22-C17
    914    7     503     509     515  # C16-C22-C28
    915    7     504     509     515  # C17-C22-C28
    916    7     504     510     516  # C17-C23-C29
    917    6     504     510     502  # C17-C23-C15
    918    7     516     510     502  # C29-C23-C15
    919    8     493     511     541  # N6-C24-H54
    920    9     493     511     505  # N6-C24-C18
    921   10     541     511     505  # H54-C24-C18
    922    9     494     512     506  # N7-C25-C19
    923    8     494     512     542  # N7-C25-H55
    924   10     506     512     542  # C19-C25-H55
    925    9     495     513     507  # N8-C26-C20
    926    8     495     513     543  # N8-C26-H56
    927   10     507     513     543  # C20-C26-H56
    928    9     496     514     508  # N9-C27-C21
    929    8     496     514     544  # N9-C27-H57
    930   10     508     514     544  # C21-C27-H57
    931    8     497     515     545  # N10-C28-H58
    932    9     497     515     509  # N10-C28-C22
    933   10     545     515     509  # H58-C28-C22
    934    8     546     516     498  # H59-C29-N11
    935   10     546     516     510  # H59-C29-C23
    936    9     498     516     510  # N11-C29-C23
    937   11     493     517     529  # N6-C30-C42
    938   11     493     517     523  # N6-C30-C36
    939   12     529     517     523  # C42-C30-C36
    940   11     524     518     494  # C37-C31-N7
    941   12     524     518     530  # C37-C31-C43
    942   11     494     518     530  # N7-C31-C43
    943   11     495     519     525  # N8-C32-C38
    944   11     495     519     531  # N8-C32-C44
    945   12     525     519     531  # C38-C32-C44
    946   11     526     520     496  # C39-C33-N9
    947   12     526     520     532  # C39-C33-C45
    948   11     496     520     532  # N9-C33-C45
    949   11     533     521     497  # C46-C34-N10
    950   12     533     521     527  # C46-C34-C40
    951   11     497     521     527  # N10-C34-C40
    952   11     498     522     534  # N11-C35-C47
    953   11     498     522     528  # N11-C35-C41
    954   12     534     522     528  # C47-C35-C41
    955   12     517     523     532  # C30-C36-C45
    956   13     517     523     535  # C30-C36-H48
    957   13     532     523     535  # C45-C36-H48
    958   13     518     524     536  # C31-C37-H49
    959   12     518     524     614  # C31-C37-C46
    960   13     536     524     614  # H49-C37-C46
    961   13     519     525     537  # C32-C38-H50
    962   12     519     525     615  # C32-C38-C47
    963   13     537     525     615  # H50-C38-C47
    964   13     520     526     538  # C33-C39-H51
    965   12     520     526     529  # C33-C39-C42
    966   13     538     526     529  # H51-C39-C42
    967   13     521     527     539  # C34-C40-H52
    968   12     521     527     611  # C34-C40-C43
    969   13     539     527     611  # H52-C40-C43
    970   12     522     528     612  # C35-C41-C44
    971   13     522     528     540  # C35-C41-H53
    972   13     612     528     540  # C44-C41-H53
    973   12     517     529     526  # C30-C42-C39
    974   13     517     529     547  # C30-C42-H60
    975   13     526     529     547  # C39-C42-H60
    976   12     518     530     608  # C31-C43-C40
    977   13     518     530     548  # C31-C43-H61
    978   13     608     530     548  # C40-C43-H61
    979   13     519     531     549  # C32-C44-H62
    980   12     519     531     609  # C32-C44-C41
    981   13     549     531     609  # H62-C44-C41
    982   12     520     532     523  # C33-C45-C36
    983   14     520     532     556  # C33-C45-S69
    984   14     523     532     556  # C36-C45-S69
    985   14     521     533     560  # C34-C46-S73
    986   12     521     533     605  # C34-C46-C37
    987   14     560     533     605  # S73-C46-C37
    988   12     522     534     606  # C35-C47-C38
    989   14     522     534     564  # C35-C47-S77
    990   14     606     534     564  # C38-C47-S77
    991   15     532     556     558  # C45-S69-O71
    992   15     532     556     557  # C45-S69-O70
    993   15     532     556     559  # C45-S69-O72
    994   16     558     556     557  # O71-S69-O70
    995   16     558     556     559  # O71-S69-O72
    996   16     557     556     559  # O70-S69-O72
    997   15     533     560     561  # C46-S73-O74
    998   15     533     560     562  # C46-S73-O75
    999   15     533     560     563  # C46-S73-O76
   1000   16     561     560     562  # O74-S73-O75
   1001   16     561     560     563  # O74-S73-O76
   1002   16     562     560     563  # O75-S73-O76
   1003   15     534     564     565  # C47-S77-O78
   1004   15     534     564     566  # C47-S77-O79
   1005   15     534     564     567  # C47-S77-O80
   1006   16     565     564     566  # O78-S77-O79
   1007   16     565     564     567  # O78-S77-O80
   1008   16     566     564     567  # O79-S77-O80
   1009    1     592     574     598  # C24-N6-C30
   1010    3     592     574     631  # C24-N6-H63
   1011    2     598     574     631  # C30-N6-H63
   1012    2     599     575     632  # C31-N7-H64
   1013    1     599     575     593  # C31-N7-C25
   1014    3     632     575     593  # H64-N7-C25
   1015    3     594     576     633  # C26-N8-H65
   1016    1     594     576     600  # C26-N8-C32
   1017    2     633     576     600  # H65-N8-C32
   1018    2     634     577     601  # H66-N9-C33
   1019    3     634     577     595  # H66-N9-C27
   1020    1     601     577     595  # C33-N9-C27
   1021    3     596     578     635  # C28-N10-H67
   1022    1     596     578     602  # C28-N10-C34
   1023    2     635     578     602  # H67-N10-C34
   1024    2     603     579     636  # C35-N11-H68
   1025    1     603     579     597  # C35-N11-C29
   1026    3     636     579     597  # H68-N11-C29
   1027    4     568     580     586  # O0-C12-C18
   1028    4     568     580     588  # O0-C12-C20
   1029    5     586     580     588  # C18-C12-C20
   1030    4     569     581     586  # O1-C13-C18
   1031    4     569     581     587  # O1-C13-C19
   1032    5     586     581     587  # C18-C13-C19
   1033    5     587     582     588  # C19-C14-C20
   1034    4     587     582     570  # C19-C14-O2
   1035    4     588     582     570  # C20-C14-O2
   1036    4     571     583     591  # O3-C15-C23
   1037    4     571     583     589  # O3-C15-C21
   1038    5     591     583     589  # C23-C15-C21
   1039    4     572     584     590  # O4-C16-C22
   1040    4     572     584     589  # O4-C16-C21
   1041    5     590     584     589  # C22-C16-C21
   1042    4     573     585     591  # O5-C17-C23
   1043    4     573     585     590  # O5-C17-C22
   1044    5     591     585     590  # C23-C17-C22
   1045    6     580     586     581  # C12-C18-C13
   1046    7     580     586     592  # C12-C18-C24
   1047    7     581     586     592  # C13-C18-C24
   1048    7     582     587     593  # C14-C19-C25
   1049    6     582     587     581  # C14-C19-C13
   1050    7     593     587     581  # C25-C19-C13
   1051    6     582     588     580  # C14-C20-C12
   1052    7     582     588     594  # C14-C20-C26
   1053    7     580     588     594  # C12-C20-C26
   1054    6     583     589     584  # C15-C21-C16
   1055    7     583     589     595  # C15-C21-C27
   1056    7     584     589     595  # C16-C21-C27
   1057    6     585     590     584  # C17-C22-C16
   1058    7     585     590     596  # C17-C22-C28
   1059    7     584     590     596  # C16-C22-C28
   1060    7     585     591     597  # C17-C23-C29
   1061    6     585     591     583  # C17-C23-C15
   1062    7     597     591     583  # C29-C23-C15
   1063    8     574     592     622  # N6-C24-H54
   1064    9     574     592     586  # N6-C24-C18
   1065   10     622     592     586  # H54-C24-C18
   1066    8     575     593     623  # N7-C25-H55
   1067    9     575     593     587  # N7-C25-C19
   1068   10     623     593     587  # H55-C25-C19
   1069    9     576     594     588  # N8-C26-C20
   1070    8     576     594     624  # N8-C26-H56
   1071   10     588     594     624  # C20-C26-H56
   1072    9     577     595     589  # N9-C27-C21
   1073    8     577     595     625  # N9-C27-H57
   1074   10     589     595     625  # C21-C27-H57
   1075    8     626     596     578  # H58-C28-N10
   1076   10     626     596     590  # H58-C28-C22
   1077    9     578     596     590  # N10-C28-C22
   1078    8     579     597     627  # N11-C29-H59
   1079    9     579     597     591  # N11-C29-C23
   1080   10     627     597     591  # H59-C29-C23
   1081   11     574     598     610  # N6-C30-C42
   1082   11     574     598     604  # N6-C30-C36
   1083   12     610     598     604  # C42-C30-C36
   1084   11     575     599     605  # N7-C31-C37
   1085   11     575     599     611  # N7-C31-C43
   1086   12     605     599     611  # C37-C31-C43
   1087   11     576     600     612  # N8-C32-C44
   1088   11     576     600     606  # N8-C32-C38
   1089   12     612     600     606  # C44-C32-C38
   1090   11     577     601     607  # N9-C33-C39
   1091   11     577     601     613  # N9-C33-C45
   1092   12     607     601     613  # C39-C33-C45
   1093   11     578     602     614  # N10-C34-C46
   1094   11     578     602     608  # N10-C34-C40
   1095   12     614     602     608  # C46-C34-C40
   1096   11     579     603     609  # N11-C35-C41
   1097   11     579     603     615  # N11-C35-C47
   1098   12     609     603     615  # C41-C35-C47
   1099   12     613     604     598  # C45-C36-C30
   1100   13     613     604     616  # C45-C36-H48
   1101   13     598     604     616  # C30-C36-H48
   1102   13     533     605     617  # C46-C37-H49
   1103   12     533     605     599  # C46-C37-C31
   1104   13     617     605     599  # H49-C37-C31
   1105   13     618     606     534  # H50-C38-C47
   1106   13     618     606     600  # H50-C38-C32
   1107   12     534     606     600  # C47-C38-C32
   1108   13     601     607     619  # C33-C39-H51
   1109   12     601     607     610  # C33-C39-C42
   1110   13     619     607     610  # H51-C39-C42
   1111   12     530     608     602  # C43-C40-C34
   1112   13     530     608     620  # C43-C40-H52
   1113   13     602     608     620  # C34-C40-H52
   1114   13     531     609     621  # C44-C41-H53
   1115   12     531     609     603  # C44-C41-C35
   1116   13     621     609     603  # H53-C41-C35
   1117   12     598     610     607  # C30-C42-C39
   1118   13     598     610     628  # C30-C42-H60
   1119   13     607     610     628  # C39-C42-H60
   1120   13     527     611     629  # C40-C43-H61
   1121   12     527     611     599  # C40-C43-C31
   1122   13     629     611     599  # H61-C43-C31
   1123   13     528     612     630  # C41-C44-H62
   1124   12     528     612     600  # C41-C44-C32
   1125   13     630     612     600  # H62-C44-C32
   1126   12     601     613     604  # C33-C45-C36
   1127   14     601     613     637  # C33-C45-S69
   1128   14     604     613     637  # C36-C45-S69
   1129   14     641     614     524  # S73-C46-C37
   1130   14     641     614     602  # S73-C46-C34
   1131   12     524     614     602  # C37-C46-C34
   1132   12     525     615     603  # C38-C47-C35
   1133   14     525     615     645  # C38-C47-S77
   1134   14     603     615     645  # C35-C47-S77
   1135   15     613     637     639  # C45-S69-O71
   1136   15     613     637     638  # C45-S69-O70
   1137   15     613     637     640  # C45-S69-O72
   1138   16     639     637     638  # O71-S69-O70
   1139   16     639     637     640  # O71-S69-O72
   1140   16     638     637     640  # O70-S69-O72
   1141   15     614     641     643  # C46-S73-O75
   1142   15     614     641     644  # C46-S73-O76
   1143   15     614     641     642  # C46-S73-O74
   1144   16     643     641     644  # O75-S73-O76
   1145   16     643     641     642  # O75-S73-O74
   1146   16     644     641     642  # O76-S73-O74
   1147   15     615     645     646  # C47-S77-O78
   1148   15     615     645     647  # C47-S77-O79
   1149   15     615     645     648  # C47-S77-O80
   1150   16     646     645     647  # O78-S77-O79
   1151   16     646     645     648  # O78-S77-O80
   1152   16     647     645     648  # O79-S77-O80
   1153    1     679     655     673  # C30-N6-C24
   1154    2     679     655     712  # C30-N6-H63
   1155    3     673     655     712  # C24-N6-H63
   1156    2     713     656     680  # H64-N7-C31
   1157    3     713     656     674  # H64-N7-C25
   1158    1     680     656     674  # C31-N7-C25
   1159    3     675     657     714  # C26-N8-H65
   1160    1     675     657     681  # C26-N8-C32
   1161    2     714     657     681  # H65-N8-C32
   1162    3     715     658     676  # H66-N9-C27
   1163    2     715     658     682  # H66-N9-C33
   1164    1     676     658     682  # C27-N9-C33
   1165    1     677     659     683  # C28-N10-C34
   1166    3     677     659     716  # C28-N10-H67
   1167    2     683     659     716  # C34-N10-H67
   1168    2     684     660     717  # C35-N11-H68
   1169    1     684     660     678  # C35-N11-C29
   1170    3     717     660     678  # H68-N11-C29
   1171    4     667     661     649  # C18-C12-O0
   1172    5     667     661     669  # C18-C12-C20
   1173    4     649     661     669  # O0-C12-C20
   1174    4     650     662     668  # O1-C13-C19
   1175    4     650     662     667  # O1-C13-C18
   1176    5     668     662     667  # C19-C13-C18
   1177    4     668     663     651  # C19-C14-O2
   1178    5     668     663     669  # C19-C14-C20
   1179    4     651     663     669  # O2-C14-C20
   1180    4     652     664     672  # O3-C15-C23
   1181    4     652     664     670  # O3-C15-C21
   1182    5     672     664     670  # C23-C15-C21
   1183    5     670     665     671  # C21-C16-C22
   1184    4     670     665     653  # C21-C16-O4
   1185    4     671     665     653  # C22-C16-O4
   1186    4     672     666     654  # C23-C17-O5
   1187    5     672     666     671  # C23-C17-C22
   1188    4     654     666     671  # O5-C17-C22
   1189    6     661     667     662  # C12-C18-C13
   1190    7     661     667     673  # C12-C18-C24
   1191    7     662     667     673  # C13-C18-C24
   1192    6     663     668     662  # C14-C19-C13
   1193    7     663     668     674  # C14-C19-C25
   1194    7     662     668     674  # C13-C19-C25
   1195    6     661     669     663  # C12-C20-C14
   1196    7     661     669     675  # C12-C20-C26
   1197    7     663     669     675  # C14-C20-C26
   1198    6     665     670     664  # C16-C21-C15
   1199    7     665     670     676  # C16-C21-C27
   1200    7     664     670     676  # C15-C21-C27
   1201    6     665     671     666  # C16-C22-C17
   1202    7     665     671     677  # C16-C22-C28
   1203    7     666     671     677  # C17-C22-C28
   1204    7     666     672     678  # C17-C23-C29
   1205    6     666     672     664  # C17-C23-C15
   1206    7     678     672     664  # C29-C23-C15
   1207    8     655     673     703  # N6-C24-H54
   1208    9     655     673     667  # N6-C24-C18
   1209   10     703     673     667  # H54-C24-C18
   1210    9     656     674     668  # N7-C25-C19
   1211    8     656     674     704  # N7-C25-H55
   1212   10     668     674     704  # C19-C25-H55
   1213    9     657     675     669  # N8-C26-C20
   1214    8     657     675     705  # N8-C26-H56
   1215   10     669     675     705  # C20-C26-H56
   1216    9     658     676     670  # N9-C27-C21
   1217    8     658     676     706  # N9-C27-H57
   1218   10     670     676     706  # C21-C27-H57
   1219    8     659     677     707  # N10-C28-H58
   1220    9     659     677     671  # N10-C28-C22
   1221   10     707     677     671  # H58-C28-C22
   1222    8     708     678     660  # H59-C29-N11
   1223   10     708     678     672  # H59-C29-C23
   1224    9     660     678     672  # N11-C29-C23
   1225   11     655     679     691  # N6-C30-C42
   1226   11     655     679     685  # N6-C30-C36
   1227   12     691     679     685  # C42-C30-C36
   1228   11     686     680     656  # C37-C31-N7
   1229   12     686     680     692  # C37-C31-C43
   1230   11     656     680     692  # N7-C31-C43
   1231   11     657     681     687  # N8-C32-C38
   1232   11     657     681     693  # N8-C32-C44
   1233   12     687     681     693  # C38-C32-C44
   1234   11     688     682     658  # C39-C33-N9
   1235   12     688     682     694  # C39-C33-C45
   1236   11     658     682     694  # N9-C33-C45
   1237   11     695     683     659  # C46-C34-N10
   1238   12     695     683     689  # C46-C34-C40
   1239   11     659     683     689  # N10-C34-C40
   1240   11     660     684     696  # N11-C35-C47
   1241   11     660     684     690  # N11-C35-C41
   1242   12     696     684     690  # C47-C35-C41
   1243   12     679     685     694  # C30-C36-C45
   1244   13     679     685     697  # C30-C36-H48
   1245   13     694     685     697  # C45-C36-H48
   1246   13     680     686     698  # C31-C37-H49
   1247   12     680     686     776  # C31-C37-C46
   1248   13     698     686     776  # H49-C37-C46
   1249   13     681     687     699  # C32-C38-H50
   1250   12     681     687     777  # C32-C38-C47
   1251   13     699     687     777  # H50-C38-C47
   1252   13     682     688     700  # C33-C39-H51
   1253   12     682     688     691  # C33-C39-C42
   1254   13     700     688     691  # H51-C39-C42
   1255   13     683     689     701  # C34-C40-H52
   1256   12     683     689     773  # C34-C40-C43
   1257   13     701     689     773  # H52-C40-C43
   1258   12     684     690     774  # C35-C41-C44
   1259   13     684     690     702  # C35-C41-H53
   1260   13     774     690     702  # C44-C41-H53
   1261   12     679     691     688  # C30-C42-C39
   1262   13     679     691     709  # C30-C42-H60
   1263   13     688     691     709  # C39-C42-H60
   1264   12     680     692     770  # C31-C43-C40
   1265   13     680     692     710  # C31-C43-H61
   1266   13     770     692     710  # C40-C43-H61
   1267   13     681     693     711  # C32-C44-H62
   1268   12     681     693     771  # C32-C44-C41
   1269   13     711     693     771  # H62-C44-C41
   1270   12     682     694     685  # C33-C45-C36
   1271   14     682     694     718  # C33-C45-S69
   1272   14     685     694     718  # C36-C45-S69
   1273   14     683     695     722  # C34-C46-S73
   1274   12     683     695     767  # C34-C46-C37
   1275   14     722     695     767  # S73-C46-C37
   1276   12     684     696     768  # C35-C47-C38
   1277   14     684     696     726  # C35-C47-S77
   1278   14     768     696     726  # C38-C47-S77
   1279   15     694     718     720  # C45-S69-O71
   1280   15     694     718     719  # C45-S69-O70
   1281   15     694     718     721  # C45-S69-O72
   1282   16     720     718     719  # O71-S69-O70
   1283   16     720     718     721  # O71-S69-O72
   1284   16     719     718     721  # O70-S69-O72
   1285   15     695     722     723  # C46-S73-O74
   1286   15     695     722     724  # C46-S73-O75
   1287   15     695     722     725  # C46-S73-O76
   1288   16     723     722     724  # O74-S73-O75
   1289   16     723     722     725  # O74-S73-O76
   1290   16     724     722     725  # O75-S73-O76
   1291   15     696     726     727  # C47-S77-O78
   1292   15     696     726     728  # C47-S77-O79
   1293   15     696     726     729  # C47-S77-O80
   1294   16     727     726     728  # O78-S77-O79
   1295   16     727     726     729  # O78-S77-O80
   1296   16     728     726     729  # O79-S77-O80
   1297    1     754     736     760  # C24-N6-C30
   1298    3     754     736     793  # C24-N6-H63
   1299    2     760     736     793  # C30-N6-H63
   1300    2     761     737     794  # C31-N7-H64
   1301    1     761     737     755  # C31-N7-C25
   1302    3     794     737     755  # H64-N7-C25
   1303    3     756     738     795  # C26-N8-H65
   1304    1     756     738     762  # C26-N8-C32
   1305    2     795     738     762  # H65-N8-C32
   1306    2     796     739     763  # H66-N9-C33
   1307    3     796     739     757  # H66-N9-C27
   1308    1     763     739     757  # C33-N9-C27
   1309    3     758     740     797  # C28-N10-H67
   1310    1     758     740     764  # C28-N10-C34
   1311    2     797     740     764  # H67-N10-C34
   1312    2     765     741     798  # C35-N11-H68
   1313    1     765     741     759  # C35-N11-C29
   1314    3     798     741     759  # H68-N11-C29
   1315    4     730     742     748  # O0-C12-C18
   1316    4     730     742     750  # O0-C12-C20
   1317    5     748     742     750  # C18-C12-C20
   1318    4     731     743     748  # O1-C13-C18
   1319    4     731     743     749  # O1-C13-C19
   1320    5     748     743     749  # C18-C13-C19
   1321    5     749     744     750  # C19-C14-C20
   1322    4     749     744     732  # C19-C14-O2
   1323    4     750     744     732  # C20-C14-O2
   1324    4     733     745     753  # O3-C15-C23
   1325    4     733     745     751  # O3-C15-C21
   1326    5     753     745     751  # C23-C15-C21
   1327    4     734     746     752  # O4-C16-C22
   1328    4     734     746     751  # O4-C16-C21
   1329    5     752     746     751  # C22-C16-C21
   1330    4     735     747     753  # O5-C17-C23
   1331    4     735     747     752  # O5-C17-C22
   1332    5     753     747     752  # C23-C17-C22
   1333    6     742     748     743  # C12-C18-C13
   1334    7     742     748     754  # C12-C18-C24
   1335    7     743     748     754  # C13-C18-C24
   1336    7     744     749     755  # C14-C19-C25
   1337    6     744     749     743  # C14-C19-C13
   1338    7     755     749     743  # C25-C19-C13
   1339    6     744     750     742  # C14-C20-C12
   1340    7     744     750     756  # C14-C20-C26
   1341    7     742     750     756  # C12-C20-C26
   1342    6     745     751     746  # C15-C21-C16
   1343    7     745     751     757  # C15-C21-C27
   1344    7     746     751     757  # C16-C21-C27
   1345    6     747     752     746  # C17-C22-C16
   1346    7     747     752     758  # C17-C22-C28
   1347    7     746     752     758  # C16-C22-C28
   1348    7     747     753     759  # C17-C23-C29
   1349    6     747     753     745  # C17-C23-C15
   1350    7     759     753     745  # C29-C23-C15
   1351    8     736     754     784  # N6-C24-H54
   1352    9     736     754     748  # N6-C24-C18
   1353   10     784     754     748  # H54-C24-C18
   1354    8     737     755     785  # N7-C25-H55
   1355    9     737     755     749  # N7-C25-C19
   1356   10     785     755     749  # H55-C25-C19
   1357    9     738     756     750  # N8-C26-C20
   1358    8     738     756     786  # N8-C26-H56
   1359   10     750     756     786  # C20-C26-H56
   1360    9     739     757     751  # N9-C27-C21
   1361    8     739     757     787  # N9-C27-H57
   1362   10     751     757     787  # C21-C27-H57
   1363    8     788     758     740  # H58-C28-N10
   1364   10     788     758     752  # H58-C28-C22
   1365    9     740     758     752  # N10-C28-C22
   1366    8     741     759     789  # N11-C29-H59
   1367    9     741     759     753  # N11-C29-C23
   1368   10     789     759     753  # H59-C29-C23
   1369   11     736     760     772  # N6-C30-C42
   1370   11     736     760     766  # N6-C30-C36
   1371   12     772     760     766  # C42-C30-C36
   1372   11     737     761     767  # N7-C31-C37
   1373   11     737     761     773  # N7-C31-C43
   1374   12     767     761     773  # C37-C31-C43
   1375   11     738     762     774  # N8-C32-C44
   1376   11     738     762     768  # N8-C32-C38
   1377   12     774     762     768  # C44-C32-C38
   1378   11     739     763     769  # N9-C33-C39
   1379   11     739     763     775  # N9-C33-C45
   1380   12     769     763     775  # C39-C33-C45
   1381   11     740     764     776  # N10-C34-C46
   1382   11     740     764     770  # N10-C34-C40
   1383   12     776     764     770  # C46-C34-C40
   1384   11     741     765     771  # N11-C35-C41
   1385   11     741     765     777  # N11-C35-C47
   1386   12     771     765     777  # C41-C35-C47
   1387   12     775     766     760  # C45-C36-C30
   1388   13     775     766     778  # C45-C36-H48
   1389   13     760     766     778  # C30-C36-H48
   1390   13     695     767     779  # C46-C37-H49
   1391   12     695     767     761  # C46-C37-C31
   1392   13     779     767     761  # H49-C37-C31
   1393   13     780     768     696  # H50-C38-C47
   1394   13     780     768     762  # H50-C38-C32
   1395   12     696     768     762  # C47-C38-C32
   1396   13     763     769     781  # C33-C39-H51
   1397   12     763     769     772  # C33-C39-C42
   1398   13     781     769     772  # H51-C39-C42
   1399   12     692     770     764  # C43-C40-C34
   1400   13     692     770     782  # C43-C40-H52
   1401   13     764     770     782  # C34-C40-H52
   1402   13     693     771     783  # C44-C41-H53
   1403   12     693     771     765  # C44-C41-C35
   1404   13     783     771     765  # H53-C41-C35
   1405   12     760     772     769  # C30-C42-C39
   1406   13     760     772     790  # C30-C42-H60
   1407   13     769     772     790  # C39-C42-H60
   1408   13     689     773     791  # C40-C43-H61
   1409   12     689     773     761  # C40-C43-C31
   1410   13     791     773     761  # H61-C43-C31
   1411   13     690     774     792  # C41-C44-H62
   1412   12     690     774     762  # C41-C44-C32
   1413   13     792     774     762  # H62-C44-C32
   1414   12     763     775     766  # C33-C45-C36
   1415   14     763     775     799  # C33-C45-S69
   1416   14     766     775     799  # C36-C45-S69
   1417   14     803     776     686  # S73-C46-C37
   1418   14     803     776     764  # S73-C46-C34
   1419   12     686     776     764  # C37-C46-C34
   1420   12     687     777     765  # C38-C47-C35
   1421   14     687     777     807  # C38-C47-S77
   1422   14     765     777     807  # C35-C47-S77
   1423   15     775     799     801  # C45-S69-O71
   1424   15     775     799     800  # C45-S69-O70
   1425   15     775     799     802  # C45-S69-O72
   1426   16     801     799     800  # O71-S69-O70
   1427   16     801     799     802  # O71-S69-O72
   1428   16     800     799     802  # O70-S69-O72
   1429   15     776     803     805  # C46-S73-O75
   1430   15     776     803     806  # C46-S73-O76
   1431   15     776     803     804  # C46-S73-O74
   1432   16     805     803     806  # O75-S73-O76
   1433   16     805     803     804  # O75-S73-O74
   1434   16     806     803     804  # O76-S73-O74
   1435   15     777     807     808  # C47-S77-O78
   1436   15     777     807     809  # C47-S77-O79
   1437   15     777     807     810  # C47-S77-O80
   1438   16     808     807     809  # O78-S77-O79
   1439   16     808     807     810  # O78-S77-O80
   1440   16     809     807     810  # O79-S77-O80

Dihedrals

      1    1       1      13      19      14  # O0-C12-C18-C13
      2    2       1      13      19      25  # O0-C12-C18-C24
      3    3      21      13      19      14  # C20-C12-C18-C13
      4    4      21      13      19      25  # C20-C12-C18-C24
      5    3      19      13      21      15  # C18-C12-C20-C14
      6    4      19      13      21      27  # C18-C12-C20-C26
      7    1       1      13      21      15  # O0-C12-C20-C14
      8    2       1      13      21      27  # O0-C12-C20-C26
      9    1       3      15      20      14  # O2-C14-C19-C13
     10    2       3      15      20      26  # O2-C14-C19-C25
     11    3      21      15      20      14  # C20-C14-C19-C13
     12    4      21      15      20      26  # C20-C14-C19-C25
     13    3      20      15      21      13  # C19-C14-C20-C12
     14    4      20      15      21      27  # C19-C14-C20-C26
     15    1       3      15      21      13  # O2-C14-C20-C12
     16    2       3      15      21      27  # O2-C14-C20-C26
     17    3      23      17      22      16  # C22-C16-C21-C15
     18    4      23      17      22      28  # C22-C16-C21-C27
     19    1       5      17      22      16  # O4-C16-C21-C15
     20    2       5      17      22      28  # O4-C16-C21-C27
     21    3      22      17      23      18  # C21-C16-C22-C17
     22    4      22      17      23      29  # C21-C16-C22-C28
     23    1       5      17      23      18  # O4-C16-C22-C17
     24    2       5      17      23      29  # O4-C16-C22-C28
     25    2       6      18      24      30  # O5-C17-C23-C29
     26    1       6      18      24      16  # O5-C17-C23-C15
     27    4      23      18      24      30  # C22-C17-C23-C29
     28    3      23      18      24      16  # C22-C17-C23-C15
     29    3      24      18      23      17  # C23-C17-C22-C16
     30    4      24      18      23      29  # C23-C17-C22-C28
     31    1       6      18      23      17  # O5-C17-C22-C16
     32    2       6      18      23      29  # O5-C17-C22-C28
     33    5      25       7      31      43  # C24-N6-C30-C42
     34    5      25       7      31      37  # C24-N6-C30-C36
     35    6      31       7      25      19  # C30-N6-C24-C18
     36    7       8      32      38      50  # N7-C31-C37-H49
     37    8       8      32      38     128  # N7-C31-C37-C46
     38    9      44      32      38      50  # C43-C31-C37-H49
     39   10      44      32      38     128  # C43-C31-C37-C46
     40    5      26       8      32      38  # C25-N7-C31-C37
     41    5      26       8      32      44  # C25-N7-C31-C43
     42   10      38      32      44     122  # C37-C31-C43-C40
     43    9      38      32      44      62  # C37-C31-C43-H61
     44    8       8      32      44     122  # N7-C31-C43-C40
     45    7       8      32      44      62  # N7-C31-C43-H61
     46    6      32       8      26      20  # C31-N7-C25-C19
     47    6      33       9      27      21  # C32-N8-C26-C20
     48    5      27       9      33      39  # C26-N8-C32-C38
     49    5      27       9      33      45  # C26-N8-C32-C44
     50    7      10      34      40      52  # N9-C33-C39-H51
     51    8      10      34      40      43  # N9-C33-C39-C42
     52    9      46      34      40      52  # C45-C33-C39-H51
     53   10      46      34      40      43  # C45-C33-C39-C42
     54    6      34      10      28      22  # C33-N9-C27-C21
     55    5      28      10      34      40  # C27-N9-C33-C39
     56    5      28      10      34      46  # C27-N9-C33-C45
     57   10      40      34      46      37  # C39-C33-C45-C36
     58   11      40      34      46      70  # C39-C33-C45-S69
     59    8      10      34      46      37  # N9-C33-C45-C36
     60   12      10      34      46      70  # N9-C33-C45-S69
     61    6      35      11      29      23  # C34-N10-C28-C22
     62   12      11      35      47      74  # N10-C34-C46-S73
     63    8      11      35      47     119  # N10-C34-C46-C37
     64   11      41      35      47      74  # C40-C34-C46-S73
     65   10      41      35      47     119  # C40-C34-C46-C37
     66    5      29      11      35      47  # C28-N10-C34-C46
     67    5      29      11      35      41  # C28-N10-C34-C40
     68    9      47      35      41      53  # C46-C34-C40-H52
     69   10      47      35      41     125  # C46-C34-C40-C43
     70    7      11      35      41      53  # N10-C34-C40-H52
     71    8      11      35      41     125  # N10-C34-C40-C43
     72    5      30      12      36      48  # C29-N11-C35-C47
     73    5      30      12      36      42  # C29-N11-C35-C41
     74    6      36      12      30      24  # C35-N11-C29-C23
     75    1       2      14      20      15  # O1-C13-C19-C14
     76    2       2      14      20      26  # O1-C13-C19-C25
     77    3      19      14      20      15  # C18-C13-C19-C14
     78    4      19      14      20      26  # C18-C13-C19-C25
     79   13      15      20      26       8  # C14-C19-C25-N7
     80   13      14      20      26       8  # C13-C19-C25-N7
     81    1       2      14      19      13  # O1-C13-C18-C12
     82    2       2      14      19      25  # O1-C13-C18-C24
     83    3      20      14      19      13  # C19-C13-C18-C12
     84    4      20      14      19      25  # C19-C13-C18-C24
     85   13      18      24      30      12  # C17-C23-C29-N11
     86   13      16      24      30      12  # C15-C23-C29-N11
     87    1       4      16      24      18  # O3-C15-C23-C17
     88    2       4      16      24      30  # O3-C15-C23-C29
     89    3      22      16      24      18  # C21-C15-C23-C17
     90    4      22      16      24      30  # C21-C15-C23-C29
     91    1       4      16      22      17  # O3-C15-C21-C16
     92    2       4      16      22      28  # O3-C15-C21-C27
     93    3      24      16      22      17  # C23-C15-C21-C16
     94    4      24      16      22      28  # C23-C15-C21-C27
     95   13      13      19      25       7  # C12-C18-C24-N6
     96   13      14      19      25       7  # C13-C18-C24-N6
     97   13      13      21      27       9  # C12-C20-C26-N8
     98   13      15      21      27       9  # C14-C20-C26-N8
     99   13      17      22      28      10  # C16-C21-C27-N9
    100   13      16      22      28      10  # C15-C21-C27-N9
    101   13      17      23      29      11  # C16-C22-C28-N10
    102   13      18      23      29      11  # C17-C22-C28-N10
    103    8       7      31      43      40  # N6-C30-C42-C39
    104    7       7      31      43      61  # N6-C30-C42-H60
    105   10      37      31      43      40  # C36-C30-C42-C39
    106    9      37      31      43      61  # C36-C30-C42-H60
    107    8       7      31      37      46  # N6-C30-C36-C45
    108    7       7      31      37      49  # N6-C30-C36-H48
    109   10      43      31      37      46  # C42-C30-C36-C45
    110    9      43      31      37      49  # C42-C30-C36-H48
    111    7       9      33      39      51  # N8-C32-C38-H50
    112    8       9      33      39     129  # N8-C32-C38-C47
    113    9      45      33      39      51  # C44-C32-C38-H50
    114   10      45      33      39     129  # C44-C32-C38-C47
    115    7       9      33      45      63  # N8-C32-C44-H62
    116    8       9      33      45     123  # N8-C32-C44-C41
    117    9      39      33      45      63  # C38-C32-C44-H62
    118   10      39      33      45     123  # C38-C32-C44-C41
    119    8      12      36      48     120  # N11-C35-C47-C38
    120   12      12      36      48      78  # N11-C35-C47-S77
    121   10      42      36      48     120  # C41-C35-C47-C38
    122   11      42      36      48      78  # C41-C35-C47-S77
    123    8      12      36      42     126  # N11-C35-C41-C44
    124    7      12      36      42      54  # N11-C35-C41-H53
    125   10      48      36      42     126  # C47-C35-C41-C44
    126    9      48      36      42      54  # C47-C35-C41-H53
    127   10      31      37      46      34  # C30-C36-C45-C33
    128   11      31      37      46      70  # C30-C36-C45-S69
    129    9      49      37      46      34  # H48-C36-C45-C33
    130   14      49      37      46      70  # H48-C36-C45-S69
    131   15      38     128     155     157  # C37-C46-S73-O75
    132   15      38     128     155     158  # C37-C46-S73-O76
    133   15      38     128     155     156  # C37-C46-S73-O74
    134   15     116     128     155     157  # C34-C46-S73-O75
    135   15     116     128     155     158  # C34-C46-S73-O76
    136   15     116     128     155     156  # C34-C46-S73-O74
    137   11      32      38     128     155  # C31-C37-C46-S73
    138   10      32      38     128     116  # C31-C37-C46-C34
    139   14      50      38     128     155  # H49-C37-C46-S73
    140    9      50      38     128     116  # H49-C37-C46-C34
    141   10      33      39     129     117  # C32-C38-C47-C35
    142   11      33      39     129     159  # C32-C38-C47-S77
    143    9      51      39     129     117  # H50-C38-C47-C35
    144   14      51      39     129     159  # H50-C38-C47-S77
    145   10      34      40      43      31  # C33-C39-C42-C30
    146    9      34      40      43      61  # C33-C39-C42-H60
    147    9      52      40      43      31  # H51-C39-C42-C30
    148   16      52      40      43      61  # H51-C39-C42-H60
    149    9      35      41     125     143  # C34-C40-C43-H61
    150   10      35      41     125     113  # C34-C40-C43-C31
    151   16      53      41     125     143  # H52-C40-C43-H61
    152    9      53      41     125     113  # H52-C40-C43-C31
    153    9      36      42     126     144  # C35-C41-C44-H62
    154   10      36      42     126     114  # C35-C41-C44-C32
    155   16      54      42     126     144  # H53-C41-C44-H62
    156    9      54      42     126     114  # H53-C41-C44-C32
    157   10      32      44     122     116  # C31-C43-C40-C34
    158    9      32      44     122     134  # C31-C43-C40-H52
    159    9      62      44     122     116  # H61-C43-C40-C34
    160   16      62      44     122     134  # H61-C43-C40-H52
    161    9      33      45     123     135  # C32-C44-C41-H53
    162   10      33      45     123     117  # C32-C44-C41-C35
    163   16      63      45     123     135  # H62-C44-C41-H53
    164    9      63      45     123     117  # H62-C44-C41-C35
    165   15      34      46      70      72  # C33-C45-S69-O71
    166   15      34      46      70      71  # C33-C45-S69-O70
    167   15      34      46      70      73  # C33-C45-S69-O72
    168   15      37      46      70      72  # C36-C45-S69-O71
    169   15      37      46      70      71  # C36-C45-S69-O70
    170   15      37      46      70      73  # C36-C45-S69-O72
    171   15      35      47      74      75  # C34-C46-S73-O74
    172   15      35      47      74      76  # C34-C46-S73-O75
    173   15      35      47      74      77  # C34-C46-S73-O76
    174   15     119      47      74      75  # C37-C46-S73-O74
    175   15     119      47      74      76  # C37-C46-S73-O75
    176   15     119      47      74      77  # C37-C46-S73-O76
    177    9      35      47     119     131  # C34-C46-C37-H49
    178   10      35      47     119     113  # C34-C46-C37-C31
    179   14      74      47     119     131  # S73-C46-C37-H49
    180   11      74      47     119     113  # S73-C46-C37-C31
    181    9      36      48     120     132  # C35-C47-C38-H50
    182   10      36      48     120     114  # C35-C47-C38-C32
    183   14      78      48     120     132  # S77-C47-C38-H50
    184   11      78      48     120     114  # S77-C47-C38-C32
    185   15      36      48      78      79  # C35-C47-S77-O78
    186   15      36      48      78      80  # C35-C47-S77-O79
    187   15      36      48      78      81  # C35-C47-S77-O80
    188   15     120      48      78      79  # C38-C47-S77-O78
    189   15     120      48      78      80  # C38-C47-S77-O79
    190   15     120      48      78      81  # C38-C47-S77-O80
    191    4     102      96     101     107  # C20-C14-C19-C25
    192    3     102      96     101      95  # C20-C14-C19-C13
    193    2      84      96     101     107  # O2-C14-C19-C25
    194    1      84      96     101      95  # O2-C14-C19-C13
    195    3     101      96     102      94  # C19-C14-C20-C12
    196    4     101      96     102     108  # C19-C14-C20-C26
    197    1      84      96     102      94  # O2-C14-C20-C12
    198    2      84      96     102     108  # O2-C14-C20-C26
    199    2      87      99     105     111  # O5-C17-C23-C29
    200    1      87      99     105      97  # O5-C17-C23-C15
    201    4     104      99     105     111  # C22-C17-C23-C29
    202    3     104      99     105      97  # C22-C17-C23-C15
    203    1      87      99     104      98  # O5-C17-C22-C16
    204    2      87      99     104     110  # O5-C17-C22-C28
    205    3     105      99     104      98  # C23-C17-C22-C16
    206    4     105      99     104     110  # C23-C17-C22-C28
    207    6     112      88     106     100  # C30-N6-C24-C18
    208    5     106      88     112     124  # C24-N6-C30-C42
    209    5     106      88     112     118  # C24-N6-C30-C36
    210    5     107      89     113     119  # C25-N7-C31-C37
    211    5     107      89     113     125  # C25-N7-C31-C43
    212    6     113      89     107     101  # C31-N7-C25-C19
    213    6     114      90     108     102  # C32-N8-C26-C20
    214    5     108      90     114     126  # C26-N8-C32-C44
    215    5     108      90     114     120  # C26-N8-C32-C38
    216    5     109      91     115     121  # C27-N9-C33-C39
    217    5     109      91     115     127  # C27-N9-C33-C45
    218    7      91     115     121     133  # N9-C33-C39-H51
    219    8      91     115     121     124  # N9-C33-C39-C42
    220    9     127     115     121     133  # C45-C33-C39-H51
    221   10     127     115     121     124  # C45-C33-C39-C42
    222    6     115      91     109     103  # C33-N9-C27-C21
    223    8      91     115     127     118  # N9-C33-C45-C36
    224   12      91     115     127     151  # N9-C33-C45-S69
    225   10     121     115     127     118  # C39-C33-C45-C36
    226   11     121     115     127     151  # C39-C33-C45-S69
    227    6     116      92     110     104  # C34-N10-C28-C22
    228    5     110      92     116     128  # C28-N10-C34-C46
    229    5     110      92     116     122  # C28-N10-C34-C40
    230    5     111      93     117     123  # C29-N11-C35-C41
    231    5     111      93     117     129  # C29-N11-C35-C47
    232    6     117      93     111     105  # C35-N11-C29-C23
    233    1      82      94     100      95  # O0-C12-C18-C13
    234    2      82      94     100     106  # O0-C12-C18-C24
    235    3     102      94     100      95  # C20-C12-C18-C13
    236    4     102      94     100     106  # C20-C12-C18-C24
    237    1      82      94     102      96  # O0-C12-C20-C14
    238    2      82      94     102     108  # O0-C12-C20-C26
    239    3     100      94     102      96  # C18-C12-C20-C14
    240    4     100      94     102     108  # C18-C12-C20-C26
    241   13      96     101     107      89  # C14-C19-C25-N7
    242   13      95     101     107      89  # C13-C19-C25-N7
    243    1      83      95     100      94  # O1-C13-C18-C12
    244    2      83      95     100     106  # O1-C13-C18-C24
    245    3     101      95     100      94  # C19-C13-C18-C12
    246    4     101      95     100     106  # C19-C13-C18-C24
    247    1      83      95     101      96  # O1-C13-C19-C14
    248    2      83      95     101     107  # O1-C13-C19-C25
    249    3     100      95     101      96  # C18-C13-C19-C14
    250    4     100      95     101     107  # C18-C13-C19-C25
    251   13      99     105     111      93  # C17-C23-C29-N11
    252   13      97     105     111      93  # C15-C23-C29-N11
    253    1      85      97     105      99  # O3-C15-C23-C17
    254    2      85      97     105     111  # O3-C15-C23-C29
    255    3     103      97     105      99  # C21-C15-C23-C17
    256    4     103      97     105     111  # C21-C15-C23-C29
    257    1      85      97     103      98  # O3-C15-C21-C16
    258    2      85      97     103     109  # O3-C15-C21-C27
    259    3     105      97     103      98  # C23-C15-C21-C16
    260    4     105      97     103     109  # C23-C15-C21-C27
    261    1      86      98     104      99  # O4-C16-C22-C17
    262    2      86      98     104     110  # O4-C16-C22-C28
    263    3     103      98     104      99  # C21-C16-C22-C17
    264    4     103      98     104     110  # C21-C16-C22-C28
    265    1      86      98     103      97  # O4-C16-C21-C15
    266    2      86      98     103     109  # O4-C16-C21-C27
    267    3     104      98     103      97  # C22-C16-C21-C15
    268    4     104      98     103     109  # C22-C16-C21-C27
    269   13      97     103     109      91  # C15-C21-C27-N9
    270   13      98     103     109      91  # C16-C21-C27-N9
    271   13      94     100     106      88  # C12-C18-C24-N6
    272   13      95     100     106      88  # C13-C18-C24-N6
    273   13      96     102     108      90  # C14-C20-C26-N8
    274   13      94     102     108      90  # C12-C20-C26-N8
    275   13      99     104     110      92  # C17-C22-C28-N10
    276   13      98     104     110      92  # C16-C22-C28-N10
    277    8      88     112     124     121  # N6-C30-C42-C39
    278    7      88     112     124     142  # N6-C30-C42-H60
    279   10     118     112     124     121  # C36-C30-C42-C39
    280    9     118     112     124     142  # C36-C30-C42-H60
    281   10     112     118     127     115  # C30-C36-C45-C33
    282   11     112     118     127     151  # C30-C36-C45-S69
    283    9     130     118     127     115  # H48-C36-C45-C33
    284   14     130     118     127     151  # H48-C36-C45-S69
    285    8      88     112     118     127  # N6-C30-C36-C45
    286    7      88     112     118     130  # N6-C30-C36-H48
    287   10     124     112     118     127  # C42-C30-C36-C45
    288    9     124     112     118     130  # C42-C30-C36-H48
    289    8      89     113     119      47  # N7-C31-C37-C46
    290    7      89     113     119     131  # N7-C31-C37-H49
    291   10     125     113     119      47  # C43-C31-C37-C46
    292    9     125     113     119     131  # C43-C31-C37-H49
    293    8      89     113     125      41  # N7-C31-C43-C40
    294    7      89     113     125     143  # N7-C31-C43-H61
    295   10     119     113     125      41  # C37-C31-C43-C40
    296    9     119     113     125     143  # C37-C31-C43-H61
    297    8      90     114     126      42  # N8-C32-C44-C41
    298    7      90     114     126     144  # N8-C32-C44-H62
    299   10     120     114     126      42  # C38-C32-C44-C41
    300    9     120     114     126     144  # C38-C32-C44-H62
    301    7      90     114     120     132  # N8-C32-C38-H50
    302    8      90     114     120      48  # N8-C32-C38-C47
    303    9     126     114     120     132  # C44-C32-C38-H50
    304   10     126     114     120      48  # C44-C32-C38-C47
    305   12      92     116     128     155  # N10-C34-C46-S73
    306    8      92     116     128      38  # N10-C34-C46-C37
    307   11     122     116     128     155  # C40-C34-C46-S73
    308   10     122     116     128      38  # C40-C34-C46-C37
    309    8      92     116     122      44  # N10-C34-C40-C43
    310    7      92     116     122     134  # N10-C34-C40-H52
    311   10     128     116     122      44  # C46-C34-C40-C43
    312    9     128     116     122     134  # C46-C34-C40-H52
    313    8      93     117     123      45  # N11-C35-C41-C44
    314    7      93     117     123     135  # N11-C35-C41-H53
    315   10     129     117     123      45  # C47-C35-C41-C44
    316    9     129     117     123     135  # C47-C35-C41-H53
    317    8      93     117     129      39  # N11-C35-C47-C38
    318   12      93     117     129     159  # N11-C35-C47-S77
    319   10     123     117     129      39  # C41-C35-C47-C38
    320   11     123     117     129     159  # C41-C35-C47-S77
    321   15      39     129     159     160  # C38-C47-S77-O78
    322   15      39     129     159     161  # C38-C47-S77-O79
    323   15      39     129     159     162  # C38-C47-S77-O80
    324   15     117     129     159     160  # C35-C47-S77-O78
    325   15     117     129     159     161  # C35-C47-S77-O79
    326   15     117     129     159     162  # C35-C47-S77-O80
    327   10     115     121     124     112  # C33-C39-C42-C30
    328    9     115     121     124     142  # C33-C39-C42-H60
    329    9     133     121     124     112  # H51-C39-C42-C30
    330   16     133     121     124     142  # H51-C39-C42-H60
    331   15     115     127     151     153  # C33-C45-S69-O71
    332   15     115     127     151     152  # C33-C45-S69-O70
    333   15     115     127     151     154  # C33-C45-S69-O72
    334   15     118     127     151     153  # C36-C45-S69-O71
    335   15     118     127     151     152  # C36-C45-S69-O70
    336   15     118     127     151     154  # C36-C45-S69-O72
    337   17       1      19      13      21  # O0-C18-C12-C20
    338   17       2      20      14      19  # O1-C19-C13-C18
    339   17       3      20      15      21  # O2-C19-C14-C20
    340   17       4      24      16      22  # O3-C23-C15-C21
    341   17       5      22      17      23  # O4-C21-C16-C22
    342   17       6      24      18      23  # O5-C23-C17-C22
    343   18      13      14      19      25  # C12-C13-C18-C24
    344   18      15      14      20      26  # C14-C13-C19-C25
    345   18      13      15      21      27  # C12-C14-C20-C26
    346   18      17      16      22      28  # C16-C15-C21-C27
    347   18      17      18      23      29  # C16-C17-C22-C28
    348   18      18      16      24      30  # C17-C15-C23-C29
    349    8       7      31      43      37  # N6-C30-C42-C36
    350    8       8      32      38      44  # N7-C31-C37-C43
    351    8       9      33      39      45  # N8-C32-C38-C44
    352    8      10      34      40      46  # N9-C33-C39-C45
    353    8      11      35      47      41  # N10-C34-C46-C40
    354    8      12      36      48      42  # N11-C35-C47-C41
    355   19      49      37      31      46  # H48-C36-C30-C45
    356   19      50      38      32     128  # H49-C37-C31-C46
    357   19      51      39      33     129  # H50-C38-C32-C47
    358   19      52      40      34      43  # H51-C39-C33-C42
    359   19      53      41      35     125  # H52-C40-C34-C43
    360   19      54      42      36     126  # H53-C41-C35-C44
    361   19      61      43      31      40  # H60-C42-C30-C39
    362   19      62      44      32     122  # H61-C43-C31-C40
    363   19      63      45      33     123  # H62-C44-C32-C41
    364   20      70      46      34      37  # S69-C45-C33-C36
    365   20      74      47      35     119  # S73-C46-C34-C37
    366   20      78      48      36     120  # S77-C47-C35-C38
    367   17      82     100      94     102  # O0-C18-C12-C20
    368   17      83     100      95     101  # O1-C18-C13-C19
    369   17      84     101      96     102  # O2-C19-C14-C20
    370   17      85     105      97     103  # O3-C23-C15-C21
    371   17      86     104      98     103  # O4-C22-C16-C21
    372   17      87     105      99     104  # O5-C23-C17-C22
    373   18      94      95     100     106  # C12-C13-C18-C24
    374   18      96      95     101     107  # C14-C13-C19-C25
    375   18      96      94     102     108  # C14-C12-C20-C26
    376   18      97      98     103     109  # C15-C16-C21-C27
    377   18      99      98     104     110  # C17-C16-C22-C28
    378   18      99      97     105     111  # C17-C15-C23-C29
    379    8      88     112     124     118  # N6-C30-C42-C36
    380    8      89     113     119     125  # N7-C31-C37-C43
    381    8      90     114     126     120  # N8-C32-C44-C38
    382    8      91     115     121     127  # N9-C33-C39-C45
    383    8      92     116     128     122  # N10-C34-C46-C40
    384    8      93     117     123     129  # N11-C35-C41-C47
    385   19     130     118     127     112  # H48-C36-C45-C30
    386   19     131     119      47     113  # H49-C37-C46-C31
    387   19     132     120      48     114  # H50-C38-C47-C32
    388   19     133     121     115     124  # H51-C39-C33-C42
    389   19     134     122      44     116  # H52-C40-C43-C34
    390   19     135     123      45     117  # H53-C41-C44-C35
    391   19     142     124     112     121  # H60-C42-C30-C39
    392   19     143     125      41     113  # H61-C43-C40-C31
    393   19     144     126      42     114  # H62-C44-C41-C32
    394   20     151     127     115     118  # S69-C45-C33-C36
    395   20     155     128      38     116  # S73-C46-C37-C34
    396   20     159     129      39     117  # S77-C47-C38-C35
    397    1     163     175     181     176  # O0-C12-C18-C13
    398    2     163     175     181     187  # O0-C12-C18-C24
    399    3     183     175     181     176  # C20-C12-C18-C13
    400    4     183     175     181     187  # C20-C12-C18-C24
    401    3     181     175     183     177  # C18-C12-C20-C14
    402    4     181     175     183     189  # C18-C12-C20-C26
    403    1     163     175     183     177  # O0-C12-C20-C14
    404    2     163     175     183     189  # O0-C12-C20-C26
    405    1     165     177     182     176  # O2-C14-C19-C13
    406    2     165     177     182     188  # O2-C14-C19-C25
    407    3     183     177     182     176  # C20-C14-C19-C13
    408    4     183     177     182     188  # C20-C14-C19-C25
    409    3     182     177     183     175  # C19-C14-C20-C12
    410    4     182     177     183     189  # C19-C14-C20-C26
    411    1     165     177     183     175  # O2-C14-C20-C12
    412    2     165     177     183     189  # O2-C14-C20-C26
    413    3     185     179     184     178  # C22-C16-C21-C15
    414    4     185     179     184     190  # C22-C16-C21-C27
    415    1     167     179     184     178  # O4-C16-C21-C15
    416    2     167     179     184     190  # O4-C16-C21-C27
    417    3     184     179     185     180  # C21-C16-C22-C17
    418    4     184     179     185     191  # C21-C16-C22-C28
    419    1     167     179     185     180  # O4-C16-C22-C17
    420    2     167     179     185     191  # O4-C16-C22-C28
    421    2     168     180     186     192  # O5-C17-C23-C29
    422    1     168     180     186     178  # O5-C17-C23-C15
    423    4     185     180     186     192  # C22-C17-C23-C29
    424    3     185     180     186     178  # C22-C17-C23-C15
    425    3     186     180     185     179  # C23-C17-C22-C16
    426    4     186     180     185     191  # C23-C17-C22-C28
    427    1     168     180     185     179  # O5-C17-C22-C16
    428    2     168     180     185     191  # O5-C17-C22-C28
    429    5     187     169     193     205  # C24-N6-C30-C42
    430    5     187     169     193     199  # C24-N6-C30-C36
    431    6     193     169     187     181  # C30-N6-C24-C18
    432    7     170     194     200     212  # N7-C31-C37-H49
    433    8     170     194     200     290  # N7-C31-C37-C46
    434    9     206     194     200     212  # C43-C31-C37-H49
    435   10     206     194     200     290  # C43-C31-C37-C46
    436    5     188     170     194     200  # C25-N7-C31-C37
    437    5     188     170     194     206  # C25-N7-C31-C43
    438   10     200     194     206     284  # C37-C31-C43-C40
    439    9     200     194     206     224  # C37-C31-C43-H61
    440    8     170     194     206     284  # N7-C31-C43-C40
    441    7     170     194     206     224  # N7-C31-C43-H61
    442    6     194     170     188     182  # C31-N7-C25-C19
    443    6     195     171     189     183  # C32-N8-C26-C20
    444    5     189     171     195     201  # C26-N8-C32-C38
    445    5     189     171     195     207  # C26-N8-C32-C44
    446    7     172     196     202     214  # N9-C33-C39-H51
    447    8     172     196     202     205  # N9-C33-C39-C42
    448    9     208     196     202     214  # C45-C33-C39-H51
    449   10     208     196     202     205  # C45-C33-C39-C42
    450    6     196     172     190     184  # C33-N9-C27-C21
    451    5     190     172     196     202  # C27-N9-C33-C39
    452    5     190     172     196     208  # C27-N9-C33-C45
    453   10     202     196     208     199  # C39-C33-C45-C36
    454   11     202     196     208     232  # C39-C33-C45-S69
    455    8     172     196     208     199  # N9-C33-C45-C36
    456   12     172     196     208     232  # N9-C33-C45-S69
    457    6     197     173     191     185  # C34-N10-C28-C22
    458   12     173     197     209     236  # N10-C34-C46-S73
    459    8     173     197     209     281  # N10-C34-C46-C37
    460   11     203     197     209     236  # C40-C34-C46-S73
    461   10     203     197     209     281  # C40-C34-C46-C37
    462    5     191     173     197     209  # C28-N10-C34-C46
    463    5     191     173     197     203  # C28-N10-C34-C40
    464    9     209     197     203     215  # C46-C34-C40-H52
    465   10     209     197     203     287  # C46-C34-C40-C43
    466    7     173     197     203     215  # N10-C34-C40-H52
    467    8     173     197     203     287  # N10-C34-C40-C43
    468    5     192     174     198     210  # C29-N11-C35-C47
    469    5     192     174     198     204  # C29-N11-C35-C41
    470    6     198     174     192     186  # C35-N11-C29-C23
    471    1     164     176     182     177  # O1-C13-C19-C14
    472    2     164     176     182     188  # O1-C13-C19-C25
    473    3     181     176     182     177  # C18-C13-C19-C14
    474    4     181     176     182     188  # C18-C13-C19-C25
    475   13     177     182     188     170  # C14-C19-C25-N7
    476   13     176     182     188     170  # C13-C19-C25-N7
    477    1     164     176     181     175  # O1-C13-C18-C12
    478    2     164     176     181     187  # O1-C13-C18-C24
    479    3     182     176     181     175  # C19-C13-C18-C12
    480    4     182     176     181     187  # C19-C13-C18-C24
    481   13     180     186     192     174  # C17-C23-C29-N11
    482   13     178     186     192     174  # C15-C23-C29-N11
    483    1     166     178     186     180  # O3-C15-C23-C17
    484    2     166     178     186     192  # O3-C15-C23-C29
    485    3     184     178     186     180  # C21-C15-C23-C17
    486    4     184     178     186     192  # C21-C15-C23-C29
    487    1     166     178     184     179  # O3-C15-C21-C16
    488    2     166     178     184     190  # O3-C15-C21-C27
    489    3     186     178     184     179  # C23-C15-C21-C16
    490    4     186     178     184     190  # C23-C15-C21-C27
    491   13     175     181     187     169  # C12-C18-C24-N6
    492   13     176     181     187     169  # C13-C18-C24-N6
    493   13     175     183     189     171  # C12-C20-C26-N8
    494   13     177     183     189     171  # C14-C20-C26-N8
    495   13     179     184     190     172  # C16-C21-C27-N9
    496   13     178     184     190     172  # C15-C21-C27-N9
    497   13     179     185     191     173  # C16-C22-C28-N10
    498   13     180     185     191     173  # C17-C22-C28-N10
    499    8     169     193     205     202  # N6-C30-C42-C39
    500    7     169     193     205     223  # N6-C30-C42-H60
    501   10     199     193     205     202  # C36-C30-C42-C39
    502    9     199     193     205     223  # C36-C30-C42-H60
    503    8     169     193     199     208  # N6-C30-C36-C45
    504    7     169     193     199     211  # N6-C30-C36-H48
    505   10     205     193     199     208  # C42-C30-C36-C45
    506    9     205     193     199     211  # C42-C30-C36-H48
    507    7     171     195     201     213  # N8-C32-C38-H50
    508    8     171     195     201     291  # N8-C32-C38-C47
    509    9     207     195     201     213  # C44-C32-C38-H50
    510   10     207     195     201     291  # C44-C32-C38-C47
    511    7     171     195     207     225  # N8-C32-C44-H62
    512    8     171     195     207     285  # N8-C32-C44-C41
    513    9     201     195     207     225  # C38-C32-C44-H62
    514   10     201     195     207     285  # C38-C32-C44-C41
    515    8     174     198     210     282  # N11-C35-C47-C38
    516   12     174     198     210     240  # N11-C35-C47-S77
    517   10     204     198     210     282  # C41-C35-C47-C38
    518   11     204     198     210     240  # C41-C35-C47-S77
    519    8     174     198     204     288  # N11-C35-C41-C44
    520    7     174     198     204     216  # N11-C35-C41-H53
    521   10     210     198     204     288  # C47-C35-C41-C44
    522    9     210     198     204     216  # C47-C35-C41-H53
    523   10     193     199     208     196  # C30-C36-C45-C33
    524   11     193     199     208     232  # C30-C36-C45-S69
    525    9     211     199     208     196  # H48-C36-C45-C33
    526   14     211     199     208     232  # H48-C36-C45-S69
    527   15     200     290     317     319  # C37-C46-S73-O75
    528   15     200     290     317     320  # C37-C46-S73-O76
    529   15     200     290     317     318  # C37-C46-S73-O74
    530   15     278     290     317     319  # C34-C46-S73-O75
    531   15     278     290     317     320  # C34-C46-S73-O76
    532   15     278     290     317     318  # C34-C46-S73-O74
    533   11     194     200     290     317  # C31-C37-C46-S73
    534   10     194     200     290     278  # C31-C37-C46-C34
    535   14     212     200     290     317  # H49-C37-C46-S73
    536    9     212     200     290     278  # H49-C37-C46-C34
    537   10     195     201     291     279  # C32-C38-C47-C35
    538   11     195     201     291     321  # C32-C38-C47-S77
    539    9     213     201     291     279  # H50-C38-C47-C35
    540   14     213     201     291     321  # H50-C38-C47-S77
    541   10     196     202     205     193  # C33-C39-C42-C30
    542    9     196     202     205     223  # C33-C39-C42-H60
    543    9     214     202     205     193  # H51-C39-C42-C30
    544   16     214     202     205     223  # H51-C39-C42-H60
    545    9     197     203     287     305  # C34-C40-C43-H61
    546   10     197     203     287     275  # C34-C40-C43-C31
    547   16     215     203     287     305  # H52-C40-C43-H61
    548    9     215     203     287     275  # H52-C40-C43-C31
    549    9     198     204     288     306  # C35-C41-C44-H62
    550   10     198     204     288     276  # C35-C41-C44-C32
    551   16     216     204     288     306  # H53-C41-C44-H62
    552    9     216     204     288     276  # H53-C41-C44-C32
    553   10     194     206     284     278  # C31-C43-C40-C34
    554    9     194     206     284     296  # C31-C43-C40-H52
    555    9     224     206     284     278  # H61-C43-C40-C34
    556   16     224     206     284     296  # H61-C43-C40-H52
    557    9     195     207     285     297  # C32-C44-C41-H53
    558   10     195     207     285     279  # C32-C44-C41-C35
    559   16     225     207     285     297  # H62-C44-C41-H53
    560    9     225     207     285     279  # H62-C44-C41-C35
    561   15     196     208     232     234  # C33-C45-S69-O71
    562   15     196     208     232     233  # C33-C45-S69-O70
    563   15     196     208     232     235  # C33-C45-S69-O72
    564   15     199     208     232     234  # C36-C45-S69-O71
    565   15     199     208     232     233  # C36-C45-S69-O70
    566   15     199     208     232     235  # C36-C45-S69-O72
    567   15     197     209     236     237  # C34-C46-S73-O74
    568   15     197     209     236     238  # C34-C46-S73-O75
    569   15     197     209     236     239  # C34-C46-S73-O76
    570   15     281     209     236     237  # C37-C46-S73-O74
    571   15     281     209     236     238  # C37-C46-S73-O75
    572   15     281     209     236     239  # C37-C46-S73-O76
    573    9     197     209     281     293  # C34-C46-C37-H49
    574   10     197     209     281     275  # C34-C46-C37-C31
    575   14     236     209     281     293  # S73-C46-C37-H49
    576   11     236     209     281     275  # S73-C46-C37-C31
    577    9     198     210     282     294  # C35-C47-C38-H50
    578   10     198     210     282     276  # C35-C47-C38-C32
    579   14     240     210     282     294  # S77-C47-C38-H50
    580   11     240     210     282     276  # S77-C47-C38-C32
    581   15     198     210     240     241  # C35-C47-S77-O78
    582   15     198     210     240     242  # C35-C47-S77-O79
    583   15     198     210     240     243  # C35-C47-S77-O80
    584   15     282     210     240     241  # C38-C47-S77-O78
    585   15     282     210     240     242  # C38-C47-S77-O79
    586   15     282     210     240     243  # C38-C47-S77-O80
    587    4     264     258     263     269  # C20-C14-C19-C25
    588    3     264     258     263     257  # C20-C14-C19-C13
    589    2     246     258     263     269  # O2-C14-C19-C25
    590    1     246     258     263     257  # O2-C14-C19-C13
    591    3     263     258     264     256  # C19-C14-C20-C12
    592    4     263     258     264     270  # C19-C14-C20-C26
    593    1     246     258     264     256  # O2-C14-C20-C12
    594    2     246     258     264     270  # O2-C14-C20-C26
    595    2     249     261     267     273  # O5-C17-C23-C29
    596    1     249     261     267     259  # O5-C17-C23-C15
    597    4     266     261     267     273  # C22-C17-C23-C29
    598    3     266     261     267     259  # C22-C17-C23-C15
    599    1     249     261     266     260  # O5-C17-C22-C16
    600    2     249     261     266     272  # O5-C17-C22-C28
    601    3     267     261     266     260  # C23-C17-C22-C16
    602    4     267     261     266     272  # C23-C17-C22-C28
    603    6     274     250     268     262  # C30-N6-C24-C18
    604    5     268     250     274     286  # C24-N6-C30-C42
    605    5     268     250     274     280  # C24-N6-C30-C36
    606    5     269     251     275     281  # C25-N7-C31-C37
    607    5     269     251     275     287  # C25-N7-C31-C43
    608    6     275     251     269     263  # C31-N7-C25-C19
    609    6     276     252     270     264  # C32-N8-C26-C20
    610    5     270     252     276     288  # C26-N8-C32-C44
    611    5     270     252     276     282  # C26-N8-C32-C38
    612    5     271     253     277     283  # C27-N9-C33-C39
    613    5     271     253     277     289  # C27-N9-C33-C45
    614    7     253     277     283     295  # N9-C33-C39-H51
    615    8     253     277     283     286  # N9-C33-C39-C42
    616    9     289     277     283     295  # C45-C33-C39-H51
    617   10     289     277     283     286  # C45-C33-C39-C42
    618    6     277     253     271     265  # C33-N9-C27-C21
    619    8     253     277     289     280  # N9-C33-C45-C36
    620   12     253     277     289     313  # N9-C33-C45-S69
    621   10     283     277     289     280  # C39-C33-C45-C36
    622   11     283     277     289     313  # C39-C33-C45-S69
    623    6     278     254     272     266  # C34-N10-C28-C22
    624    5     272     254     278     290  # C28-N10-C34-C46
    625    5     272     254     278     284  # C28-N10-C34-C40
    626    5     273     255     279     285  # C29-N11-C35-C41
    627    5     273     255     279     291  # C29-N11-C35-C47
    628    6     279     255     273     267  # C35-N11-C29-C23
    629    1     244     256     262     257  # O0-C12-C18-C13
    630    2     244     256     262     268  # O0-C12-C18-C24
    631    3     264     256     262     257  # C20-C12-C18-C13
    632    4     264     256     262     268  # C20-C12-C18-C24
    633    1     244     256     264     258  # O0-C12-C20-C14
    634    2     244     256     264     270  # O0-C12-C20-C26
    635    3     262     256     264     258  # C18-C12-C20-C14
    636    4     262     256     264     270  # C18-C12-C20-C26
    637   13     258     263     269     251  # C14-C19-C25-N7
    638   13     257     263     269     251  # C13-C19-C25-N7
    639    1     245     257     262     256  # O1-C13-C18-C12
    640    2     245     257     262     268  # O1-C13-C18-C24
    641    3     263     257     262     256  # C19-C13-C18-C12
    642    4     263     257     262     268  # C19-C13-C18-C24
    643    1     245     257     263     258  # O1-C13-C19-C14
    644    2     245     257     263     269  # O1-C13-C19-C25
    645    3     262     257     263     258  # C18-C13-C19-C14
    646    4     262     257     263     269  # C18-C13-C19-C25
    647   13     261     267     273     255  # C17-C23-C29-N11
    648   13     259     267     273     255  # C15-C23-C29-N11
    649    1     247     259     267     261  # O3-C15-C23-C17
    650    2     247     259     267     273  # O3-C15-C23-C29
    651    3     265     259     267     261  # C21-C15-C23-C17
    652    4     265     259     267     273  # C21-C15-C23-C29
    653    1     247     259     265     260  # O3-C15-C21-C16
    654    2     247     259     265     271  # O3-C15-C21-C27
    655    3     267     259     265     260  # C23-C15-C21-C16
    656    4     267     259     265     271  # C23-C15-C21-C27
    657    1     248     260     266     261  # O4-C16-C22-C17
    658    2     248     260     266     272  # O4-C16-C22-C28
    659    3     265     260     266     261  # C21-C16-C22-C17
    660    4     265     260     266     272  # C21-C16-C22-C28
    661    1     248     260     265     259  # O4-C16-C21-C15
    662    2     248     260     265     271  # O4-C16-C21-C27
    663    3     266     260     265     259  # C22-C16-C21-C15
    664    4     266     260     265     271  # C22-C16-C21-C27
    665   13     259     265     271     253  # C15-C21-C27-N9
    666   13     260     265     271     253  # C16-C21-C27-N9
    667   13     256     262     268     250  # C12-C18-C24-N6
    668   13     257     262     268     250  # C13-C18-C24-N6
    669   13     258     264     270     252  # C14-C20-C26-N8
    670   13     256     264     270     252  # C12-C20-C26-N8
    671   13     261     266     272     254  # C17-C22-C28-N10
    672   13     260     266     272     254  # C16-C22-C28-N10
    673    8     250     274     286     283  # N6-C30-C42-C39
    674    7     250     274     286     304  # N6-C30-C42-H60
    675   10     280     274     286     283  # C36-C30-C42-C39
    676    9     280     274     286     304  # C36-C30-C42-H60
    677   10     274     280     289     277  # C30-C36-C45-C33
    678   11     274     280     289     313  # C30-C36-C45-S69
    679    9     292     280     289     277  # H48-C36-C45-C33
    680   14     292     280     289     313  # H48-C36-C45-S69
    681    8     250     274     280     289  # N6-C30-C36-C45
    682    7     250     274     280     292  # N6-C30-C36-H48
    683   10     286     274     280     289  # C42-C30-C36-C45
    684    9     286     274     280     292  # C42-C30-C36-H48
    685    8     251     275     281     209  # N7-C31-C37-C46
    686    7     251     275     281     293  # N7-C31-C37-H49
    687   10     287     275     281     209  # C43-C31-C37-C46
    688    9     287     275     281     293  # C43-C31-C37-H49
    689    8     251     275     287     203  # N7-C31-C43-C40
    690    7     251     275     287     305  # N7-C31-C43-H61
    691   10     281     275     287     203  # C37-C31-C43-C40
    692    9     281     275     287     305  # C37-C31-C43-H61
    693    8     252     276     288     204  # N8-C32-C44-C41
    694    7     252     276     288     306  # N8-C32-C44-H62
    695   10     282     276     288     204  # C38-C32-C44-C41
    696    9     282     276     288     306  # C38-C32-C44-H62
    697    7     252     276     282     294  # N8-C32-C38-H50
    698    8     252     276     282     210  # N8-C32-C38-C47
    699    9     288     276     282     294  # C44-C32-C38-H50
    700   10     288     276     282     210  # C44-C32-C38-C47
    701   12     254     278     290     317  # N10-C34-C46-S73
    702    8     254     278     290     200  # N10-C34-C46-C37
    703   11     284     278     290     317  # C40-C34-C46-S73
    704   10     284     278     290     200  # C40-C34-C46-C37
    705    8     254     278     284     206  # N10-C34-C40-C43
    706    7     254     278     284     296  # N10-C34-C40-H52
    707   10     290     278     284     206  # C46-C34-C40-C43
    708    9     290     278     284     296  # C46-C34-C40-H52
    709    8     255     279     285     207  # N11-C35-C41-C44
    710    7     255     279     285     297  # N11-C35-C41-H53
    711   10     291     279     285     207  # C47-C35-C41-C44
    712    9     291     279     285     297  # C47-C35-C41-H53
    713    8     255     279     291     201  # N11-C35-C47-C38
    714   12     255     279     291     321  # N11-C35-C47-S77
    715   10     285     279     291     201  # C41-C35-C47-C38
    716   11     285     279     291     321  # C41-C35-C47-S77
    717   15     201     291     321     322  # C38-C47-S77-O78
    718   15     201     291     321     323  # C38-C47-S77-O79
    719   15     201     291     321     324  # C38-C47-S77-O80
    720   15     279     291     321     322  # C35-C47-S77-O78
    721   15     279     291     321     323  # C35-C47-S77-O79
    722   15     279     291     321     324  # C35-C47-S77-O80
    723   10     277     283     286     274  # C33-C39-C42-C30
    724    9     277     283     286     304  # C33-C39-C42-H60
    725    9     295     283     286     274  # H51-C39-C42-C30
    726   16     295     283     286     304  # H51-C39-C42-H60
    727   15     277     289     313     315  # C33-C45-S69-O71
    728   15     277     289     313     314  # C33-C45-S69-O70
    729   15     277     289     313     316  # C33-C45-S69-O72
    730   15     280     289     313     315  # C36-C45-S69-O71
    731   15     280     289     313     314  # C36-C45-S69-O70
    732   15     280     289     313     316  # C36-C45-S69-O72
    733   17     163     181     175     183  # O0-C18-C12-C20
    734   17     164     182     176     181  # O1-C19-C13-C18
    735   17     165     182     177     183  # O2-C19-C14-C20
    736   17     166     186     178     184  # O3-C23-C15-C21
    737   17     167     184     179     185  # O4-C21-C16-C22
    738   17     168     186     180     185  # O5-C23-C17-C22
    739   18     175     176     181     187  # C12-C13-C18-C24
    740   18     177     176     182     188  # C14-C13-C19-C25
    741   18     175     177     183     189  # C12-C14-C20-C26
    742   18     179     178     184     190  # C16-C15-C21-C27
    743   18     179     180     185     191  # C16-C17-C22-C28
    744   18     180     178     186     192  # C17-C15-C23-C29
    745    8     169     193     205     199  # N6-C30-C42-C36
    746    8     170     194     200     206  # N7-C31-C37-C43
    747    8     171     195     201     207  # N8-C32-C38-C44
    748    8     172     196     202     208  # N9-C33-C39-C45
    749    8     173     197     209     203  # N10-C34-C46-C40
    750    8     174     198     210     204  # N11-C35-C47-C41
    751   19     211     199     193     208  # H48-C36-C30-C45
    752   19     212     200     194     290  # H49-C37-C31-C46
    753   19     213     201     195     291  # H50-C38-C32-C47
    754   19     214     202     196     205  # H51-C39-C33-C42
    755   19     215     203     197     287  # H52-C40-C34-C43
    756   19     216     204     198     288  # H53-C41-C35-C44
    757   19     223     205     193     202  # H60-C42-C30-C39
    758   19     224     206     194     284  # H61-C43-C31-C40
    759   19     225     207     195     285  # H62-C44-C32-C41
    760   20     232     208     196     199  # S69-C45-C33-C36
    761   20     236     209     197     281  # S73-C46-C34-C37
    762   20     240     210     198     282  # S77-C47-C35-C38
    763   17     244     262     256     264  # O0-C18-C12-C20
    764   17     245     262     257     263  # O1-C18-C13-C19
    765   17     246     263     258     264  # O2-C19-C14-C20
    766   17     247     267     259     265  # O3-C23-C15-C21
    767   17     248     266     260     265  # O4-C22-C16-C21
    768   17     249     267     261     266  # O5-C23-C17-C22
    769   18     256     257     262     268  # C12-C13-C18-C24
    770   18     258     257     263     269  # C14-C13-C19-C25
    771   18     258     256     264     270  # C14-C12-C20-C26
    772   18     259     260     265     271  # C15-C16-C21-C27
    773   18     261     260     266     272  # C17-C16-C22-C28
    774   18     261     259     267     273  # C17-C15-C23-C29
    775    8     250     274     286     280  # N6-C30-C42-C36
    776    8     251     275     281     287  # N7-C31-C37-C43
    777    8     252     276     288     282  # N8-C32-C44-C38
    778    8     253     277     283     289  # N9-C33-C39-C45
    779    8     254     278     290     284  # N10-C34-C46-C40
    780    8     255     279     285     291  # N11-C35-C41-C47
    781   19     292     280     289     274  # H48-C36-C45-C30
    782   19     293     281     209     275  # H49-C37-C46-C31
    783   19     294     282     210     276  # H50-C38-C47-C32
    784   19     295     283     277     286  # H51-C39-C33-C42
    785   19     296     284     206     278  # H52-C40-C43-C34
    786   19     297     285     207     279  # H53-C41-C44-C35
    787   19     304     286     274     283  # H60-C42-C30-C39
    788   19     305     287     203     275  # H61-C43-C40-C31
    789   19     306     288     204     276  # H62-C44-C41-C32
    790   20     313     289     277     280  # S69-C45-C33-C36
    791   20     317     290     200     278  # S73-C46-C37-C34
    792   20     321     291     201     279  # S77-C47-C38-C35
    793    1     325     337     343     338  # O0-C12-C18-C13
    794    2     325     337     343     349  # O0-C12-C18-C24
    795    3     345     337     343     338  # C20-C12-C18-C13
    796    4     345     337     343     349  # C20-C12-C18-C24
    797    3     343     337     345     339  # C18-C12-C20-C14
    798    4     343     337     345     351  # C18-C12-C20-C26
    799    1     325     337     345     339  # O0-C12-C20-C14
    800    2     325     337     345     351  # O0-C12-C20-C26
    801    1     327     339     344     338  # O2-C14-C19-C13
    802    2     327     339     344     350  # O2-C14-C19-C25
    803    3     345     339     344     338  # C20-C14-C19-C13
    804    4     345     339     344     350  # C20-C14-C19-C25
    805    3     344     339     345     337  # C19-C14-C20-C12
    806    4     344     339     345     351  # C19-C14-C20-C26
    807    1     327     339     345     337  # O2-C14-C20-C12
    808    2     327     339     345     351  # O2-C14-C20-C26
    809    3     347     341     346     340  # C22-C16-C21-C15
    810    4     347     341     346     352  # C22-C16-C21-C27
    811    1     329     341     346     340  # O4-C16-C21-C15
    812    2     329     341     346     352  # O4-C16-C21-C27
    813    3     346     341     347     342  # C21-C16-C22-C17
    814    4     346     341     347     353  # C21-C16-C22-C28
    815    1     329     341     347     342  # O4-C16-C22-C17
    816    2     329     341     347     353  # O4-C16-C22-C28
    817    2     330     342     348     354  # O5-C17-C23-C29
    818    1     330     342     348     340  # O5-C17-C23-C15
    819    4     347     342     348     354  # C22-C17-C23-C29
    820    3     347     342     348     340  # C22-C17-C23-C15
    821    3     348     342     347     341  # C23-C17-C22-C16
    822    4     348     342     347     353  # C23-C17-C22-C28
    823    1     330     342     347     341  # O5-C17-C22-C16
    824    2     330     342     347     353  # O5-C17-C22-C28
    825    5     349     331     355     367  # C24-N6-C30-C42
    826    5     349     331     355     361  # C24-N6-C30-C36
    827    6     355     331     349     343  # C30-N6-C24-C18
    828    7     332     356     362     374  # N7-C31-C37-H49
    829    8     332     356     362     452  # N7-C31-C37-C46
    830    9     368     356     362     374  # C43-C31-C37-H49
    831   10     368     356     362     452  # C43-C31-C37-C46
    832    5     350     332     356     362  # C25-N7-C31-C37
    833    5     350     332     356     368  # C25-N7-C31-C43
    834   10     362     356     368     446  # C37-C31-C43-C40
    835    9     362     356     368     386  # C37-C31-C43-H61
    836    8     332     356     368     446  # N7-C31-C43-C40
    837    7     332     356     368     386  # N7-C31-C43-H61
    838    6     356     332     350     344  # C31-N7-C25-C19
    839    6     357     333     351     345  # C32-N8-C26-C20
    840    5     351     333     357     363  # C26-N8-C32-C38
    841    5     351     333     357     369  # C26-N8-C32-C44
    842    7     334     358     364     376  # N9-C33-C39-H51
    843    8     334     358     364     367  # N9-C33-C39-C42
    844    9     370     358     364     376  # C45-C33-C39-H51
    845   10     370     358     364     367  # C45-C33-C39-C42
    846    6     358     334     352     346  # C33-N9-C27-C21
    847    5     352     334     358     364  # C27-N9-C33-C39
    848    5     352     334     358     370  # C27-N9-C33-C45
    849   10     364     358     370     361  # C39-C33-C45-C36
    850   11     364     358     370     394  # C39-C33-C45-S69
    851    8     334     358     370     361  # N9-C33-C45-C36
    852   12     334     358     370     394  # N9-C33-C45-S69
    853    6     359     335     353     347  # C34-N10-C28-C22
    854   12     335     359     371     398  # N10-C34-C46-S73
    855    8     335     359     371     443  # N10-C34-C46-C37
    856   11     365     359     371     398  # C40-C34-C46-S73
    857   10     365     359     371     443  # C40-C34-C46-C37
    858    5     353     335     359     371  # C28-N10-C34-C46
    859    5     353     335     359     365  # C28-N10-C34-C40
    860    9     371     359     365     377  # C46-C34-C40-H52
    861   10     371     359     365     449  # C46-C34-C40-C43
    862    7     335     359     365     377  # N10-C34-C40-H52
    863    8     335     359     365     449  # N10-C34-C40-C43
    864    5     354     336     360     372  # C29-N11-C35-C47
    865    5     354     336     360     366  # C29-N11-C35-C41
    866    6     360     336     354     348  # C35-N11-C29-C23
    867    1     326     338     344     339  # O1-C13-C19-C14
    868    2     326     338     344     350  # O1-C13-C19-C25
    869    3     343     338     344     339  # C18-C13-C19-C14
    870    4     343     338     344     350  # C18-C13-C19-C25
    871   13     339     344     350     332  # C14-C19-C25-N7
    872   13     338     344     350     332  # C13-C19-C25-N7
    873    1     326     338     343     337  # O1-C13-C18-C12
    874    2     326     338     343     349  # O1-C13-C18-C24
    875    3     344     338     343     337  # C19-C13-C18-C12
    876    4     344     338     343     349  # C19-C13-C18-C24
    877   13     342     348     354     336  # C17-C23-C29-N11
    878   13     340     348     354     336  # C15-C23-C29-N11
    879    1     328     340     348     342  # O3-C15-C23-C17
    880    2     328     340     348     354  # O3-C15-C23-C29
    881    3     346     340     348     342  # C21-C15-C23-C17
    882    4     346     340     348     354  # C21-C15-C23-C29
    883    1     328     340     346     341  # O3-C15-C21-C16
    884    2     328     340     346     352  # O3-C15-C21-C27
    885    3     348     340     346     341  # C23-C15-C21-C16
    886    4     348     340     346     352  # C23-C15-C21-C27
    887   13     337     343     349     331  # C12-C18-C24-N6
    888   13     338     343     349     331  # C13-C18-C24-N6
    889   13     337     345     351     333  # C12-C20-C26-N8
    890   13     339     345     351     333  # C14-C20-C26-N8
    891   13     341     346     352     334  # C16-C21-C27-N9
    892   13     340     346     352     334  # C15-C21-C27-N9
    893   13     341     347     353     335  # C16-C22-C28-N10
    894   13     342     347     353     335  # C17-C22-C28-N10
    895    8     331     355     367     364  # N6-C30-C42-C39
    896    7     331     355     367     385  # N6-C30-C42-H60
    897   10     361     355     367     364  # C36-C30-C42-C39
    898    9     361     355     367     385  # C36-C30-C42-H60
    899    8     331     355     361     370  # N6-C30-C36-C45
    900    7     331     355     361     373  # N6-C30-C36-H48
    901   10     367     355     361     370  # C42-C30-C36-C45
    902    9     367     355     361     373  # C42-C30-C36-H48
    903    7     333     357     363     375  # N8-C32-C38-H50
    904    8     333     357     363     453  # N8-C32-C38-C47
    905    9     369     357     363     375  # C44-C32-C38-H50
    906   10     369     357     363     453  # C44-C32-C38-C47
    907    7     333     357     369     387  # N8-C32-C44-H62
    908    8     333     357     369     447  # N8-C32-C44-C41
    909    9     363     357     369     387  # C38-C32-C44-H62
    910   10     363     357     369     447  # C38-C32-C44-C41
    911    8     336     360     372     444  # N11-C35-C47-C38
    912   12     336     360     372     402  # N11-C35-C47-S77
    913   10     366     360     372     444  # C41-C35-C47-C38
    914   11     366     360     372     402  # C41-C35-C47-S77
    915    8     336     360     366     450  # N11-C35-C41-C44
    916    7     336     360     366     378  # N11-C35-C41-H53
    917   10     372     360     366     450  # C47-C35-C41-C44
    918    9     372     360     366     378  # C47-C35-C41-H53
    919   10     355     361     370     358  # C30-C36-C45-C33
    920   11     355     361     370     394  # C30-C36-C45-S69
    921    9     373     361     370     358  # H48-C36-C45-C33
    922   14     373     361     370     394  # H48-C36-C45-S69
    923   15     362     452     479     481  # C37-C46-S73-O75
    924   15     362     452     479     482  # C37-C46-S73-O76
    925   15     362     452     479     480  # C37-C46-S73-O74
    926   15     440     452     479     481  # C34-C46-S73-O75
    927   15     440     452     479     482  # C34-C46-S73-O76
    928   15     440     452     479     480  # C34-C46-S73-O74
    929   11     356     362     452     479  # C31-C37-C46-S73
    930   10     356     362     452     440  # C31-C37-C46-C34
    931   14     374     362     452     479  # H49-C37-C46-S73
    932    9     374     362     452     440  # H49-C37-C46-C34
    933   10     357     363     453     441  # C32-C38-C47-C35
    934   11     357     363     453     483  # C32-C38-C47-S77
    935    9     375     363     453     441  # H50-C38-C47-C35
    936   14     375     363     453     483  # H50-C38-C47-S77
    937   10     358     364     367     355  # C33-C39-C42-C30
    938    9     358     364     367     385  # C33-C39-C42-H60
    939    9     376     364     367     355  # H51-C39-C42-C30
    940   16     376     364     367     385  # H51-C39-C42-H60
    941    9     359     365     449     467  # C34-C40-C43-H61
    942   10     359     365     449     437  # C34-C40-C43-C31
    943   16     377     365     449     467  # H52-C40-C43-H61
    944    9     377     365     449     437  # H52-C40-C43-C31
    945    9     360     366     450     468  # C35-C41-C44-H62
    946   10     360     366     450     438  # C35-C41-C44-C32
    947   16     378     366     450     468  # H53-C41-C44-H62
    948    9     378     366     450     438  # H53-C41-C44-C32
    949   10     356     368     446     440  # C31-C43-C40-C34
    950    9     356     368     446     458  # C31-C43-C40-H52
    951    9     386     368     446     440  # H61-C43-C40-C34
    952   16     386     368     446     458  # H61-C43-C40-H52
    953    9     357     369     447     459  # C32-C44-C41-H53
    954   10     357     369     447     441  # C32-C44-C41-C35
    955   16     387     369     447     459  # H62-C44-C41-H53
    956    9     387     369     447     441  # H62-C44-C41-C35
    957   15     358     370     394     396  # C33-C45-S69-O71
    958   15     358     370     394     395  # C33-C45-S69-O70
    959   15     358     370     394     397  # C33-C45-S69-O72
    960   15     361     370     394     396  # C36-C45-S69-O71
    961   15     361     370     394     395  # C36-C45-S69-O70
    962   15     361     370     394     397  # C36-C45-S69-O72
    963   15     359     371     398     399  # C34-C46-S73-O74
    964   15     359     371     398     400  # C34-C46-S73-O75
    965   15     359     371     398     401  # C34-C46-S73-O76
    966   15     443     371     398     399  # C37-C46-S73-O74
    967   15     443     371     398     400  # C37-C46-S73-O75
    968   15     443     371     398     401  # C37-C46-S73-O76
    969    9     359     371     443     455  # C34-C46-C37-H49
    970   10     359     371     443     437  # C34-C46-C37-C31
    971   14     398     371     443     455  # S73-C46-C37-H49
    972   11     398     371     443     437  # S73-C46-C37-C31
    973    9     360     372     444     456  # C35-C47-C38-H50
    974   10     360     372     444     438  # C35-C47-C38-C32
    975   14     402     372     444     456  # S77-C47-C38-H50
    976   11     402     372     444     438  # S77-C47-C38-C32
    977   15     360     372     402     403  # C35-C47-S77-O78
    978   15     360     372     402     404  # C35-C47-S77-O79
    979   15     360     372     402     405  # C35-C47-S77-O80
    980   15     444     372     402     403  # C38-C47-S77-O78
    981   15     444     372     402     404  # C38-C47-S77-O79
    982   15     444     372     402     405  # C38-C47-S77-O80
    983    4     426     420     425     431  # C20-C14-C19-C25
    984    3     426     420     425     419  # C20-C14-C19-C13
    985    2     408     420     425     431  # O2-C14-C19-C25
    986    1     408     420     425     419  # O2-C14-C19-C13
    987    3     425     420     426     418  # C19-C14-C20-C12
    988    4     425     420     426     432  # C19-C14-C20-C26
    989    1     408     420     426     418  # O2-C14-C20-C12
    990    2     408     420     426     432  # O2-C14-C20-C26
    991    2     411     423     429     435  # O5-C17-C23-C29
    992    1     411     423     429     421  # O5-C17-C23-C15
    993    4     428     423     429     435  # C22-C17-C23-C29
    994    3     428     423     429     421  # C22-C17-C23-C15
    995    1     411     423     428     422  # O5-C17-C22-C16
    996    2     411     423     428     434  # O5-C17-C22-C28
    997    3     429     423     428     422  # C23-C17-C22-C16
    998    4     429     423     428     434  # C23-C17-C22-C28
    999    6     436     412     430     424  # C30-N6-C24-C18
   1000    5     430     412     436     448  # C24-N6-C30-C42
   1001    5     430     412     436     442  # C24-N6-C30-C36
   1002    5     431     413     437     443  # C25-N7-C31-C37
   1003    5     431     413     437     449  # C25-N7-C31-C43
   1004    6     437     413     431     425  # C31-N7-C25-C19
   1005    6     438     414     432     426  # C32-N8-C26-C20
   1006    5     432     414     438     450  # C26-N8-C32-C44
   1007    5     432     414     438     444  # C26-N8-C32-C38
   1008    5     433     415     439     445  # C27-N9-C33-C39
   1009    5     433     415     439     451  # C27-N9-C33-C45
   1010    7     415     439     445     457  # N9-C33-C39-H51
   1011    8     415     439     445     448  # N9-C33-C39-C42
   1012    9     451     439     445     457  # C45-C33-C39-H51
   1013   10     451     439     445     448  # C45-C33-C39-C42
   1014    6     439     415     433     427  # C33-N9-C27-C21
   1015    8     415     439     451     442  # N9-C33-C45-C36
   1016   12     415     439     451     475  # N9-C33-C45-S69
   1017   10     445     439     451     442  # C39-C33-C45-C36
   1018   11     445     439     451     475  # C39-C33-C45-S69
   1019    6     440     416     434     428  # C34-N10-C28-C22
   1020    5     434     416     440     452  # C28-N10-C34-C46
   1021    5     434     416     440     446  # C28-N10-C34-C40
   1022    5     435     417     441     447  # C29-N11-C35-C41
   1023    5     435     417     441     453  # C29-N11-C35-C47
   1024    6     441     417     435     429  # C35-N11-C29-C23
   1025    1     406     418     424     419  # O0-C12-C18-C13
   1026    2     406     418     424     430  # O0-C12-C18-C24
   1027    3     426     418     424     419  # C20-C12-C18-C13
   1028    4     426     418     424     430  # C20-C12-C18-C24
   1029    1     406     418     426     420  # O0-C12-C20-C14
   1030    2     406     418     426     432  # O0-C12-C20-C26
   1031    3     424     418     426     420  # C18-C12-C20-C14
   1032    4     424     418     426     432  # C18-C12-C20-C26
   1033   13     420     425     431     413  # C14-C19-C25-N7
   1034   13     419     425     431     413  # C13-C19-C25-N7
   1035    1     407     419     424     418  # O1-C13-C18-C12
   1036    2     407     419     424     430  # O1-C13-C18-C24
   1037    3     425     419     424     418  # C19-C13-C18-C12
   1038    4     425     419     424     430  # C19-C13-C18-C24
   1039    1     407     419     425     420  # O1-C13-C19-C14
   1040    2     407     419     425     431  # O1-C13-C19-C25
   1041    3     424     419     425     420  # C18-C13-C19-C14
   1042    4     424     419     425     431  # C18-C13-C19-C25
   1043   13     423     429     435     417  # C17-C23-C29-N11
   1044   13     421     429     435     417  # C15-C23-C29-N11
   1045    1     409     421     429     423  # O3-C15-C23-C17
   1046    2     409     421     429     435  # O3-C15-C23-C29
   1047    3     427     421     429     423  # C21-C15-C23-C17
   1048    4     427     421     429     435  # C21-C15-C23-C29
   1049    1     409     421     427     422  # O3-C15-C21-C16
   1050    2     409     421     427     433  # O3-C15-C21-C27
   1051    3     429     421     427     422  # C23-C15-C21-C16
   1052    4     429     421     427     433  # C23-C15-C21-C27
   1053    1     410     422     428     423  # O4-C16-C22-C17
   1054    2     410     422     428     434  # O4-C16-C22-C28
   1055    3     427     422     428     423  # C21-C16-C22-C17
   1056    4     427     422     428     434  # C21-C16-C22-C28
   1057    1     410     422     427     421  # O4-C16-C21-C15
   1058    2     410     422     427     433  # O4-C16-C21-C27
   1059    3     428     422     427     421  # C22-C16-C21-C15
   1060    4     428     422     427     433  # C22-C16-C21-C27
   1061   13     421     427     433     415  # C15-C21-C27-N9
   1062   13     422     427     433     415  # C16-C21-C27-N9
   1063   13     418     424     430     412  # C12-C18-C24-N6
   1064   13     419     424     430     412  # C13-C18-C24-N6
   1065   13     420     426     432     414  # C14-C20-C26-N8
   1066   13     418     426     432     414  # C12-C20-C26-N8
   1067   13     423     428     434     416  # C17-C22-C28-N10
   1068   13     422     428     434     416  # C16-C22-C28-N10
   1069    8     412     436     448     445  # N6-C30-C42-C39
   1070    7     412     436     448     466  # N6-C30-C42-H60
   1071   10     442     436     448     445  # C36-C30-C42-C39
   1072    9     442     436     448     466  # C36-C30-C42-H60
   1073   10     436     442     451     439  # C30-C36-C45-C33
   1074   11     436     442     451     475  # C30-C36-C45-S69
   1075    9     454     442     451     439  # H48-C36-C45-C33
   1076   14     454     442     451     475  # H48-C36-C45-S69
   1077    8     412     436     442     451  # N6-C30-C36-C45
   1078    7     412     436     442     454  # N6-C30-C36-H48
   1079   10     448     436     442     451  # C42-C30-C36-C45
   1080    9     448     436     442     454  # C42-C30-C36-H48
   1081    8     413     437     443     371  # N7-C31-C37-C46
   1082    7     413     437     443     455  # N7-C31-C37-H49
   1083   10     449     437     443     371  # C43-C31-C37-C46
   1084    9     449     437     443     455  # C43-C31-C37-H49
   1085    8     413     437     449     365  # N7-C31-C43-C40
   1086    7     413     437     449     467  # N7-C31-C43-H61
   1087   10     443     437     449     365  # C37-C31-C43-C40
   1088    9     443     437     449     467  # C37-C31-C43-H61
   1089    8     414     438     450     366  # N8-C32-C44-C41
   1090    7     414     438     450     468  # N8-C32-C44-H62
   1091   10     444     438     450     366  # C38-C32-C44-C41
   1092    9     444     438     450     468  # C38-C32-C44-H62
   1093    7     414     438     444     456  # N8-C32-C38-H50
   1094    8     414     438     444     372  # N8-C32-C38-C47
   1095    9     450     438     444     456  # C44-C32-C38-H50
   1096   10     450     438     444     372  # C44-C32-C38-C47
   1097   12     416     440     452     479  # N10-C34-C46-S73
   1098    8     416     440     452     362  # N10-C34-C46-C37
   1099   11     446     440     452     479  # C40-C34-C46-S73
   1100   10     446     440     452     362  # C40-C34-C46-C37
   1101    8     416     440     446     368  # N10-C34-C40-C43
   1102    7     416     440     446     458  # N10-C34-C40-H52
   1103   10     452     440     446     368  # C46-C34-C40-C43
   1104    9     452     440     446     458  # C46-C34-C40-H52
   1105    8     417     441     447     369  # N11-C35-C41-C44
   1106    7     417     441     447     459  # N11-C35-C41-H53
   1107   10     453     441     447     369  # C47-C35-C41-C44
   1108    9     453     441     447     459  # C47-C35-C41-H53
   1109    8     417     441     453     363  # N11-C35-C47-C38
   1110   12     417     441     453     483  # N11-C35-C47-S77
   1111   10     447     441     453     363  # C41-C35-C47-C38
   1112   11     447     441     453     483  # C41-C35-C47-S77
   1113   15     363     453     483     484  # C38-C47-S77-O78
   1114   15     363     453     483     485  # C38-C47-S77-O79
   1115   15     363     453     483     486  # C38-C47-S77-O80
   1116   15     441     453     483     484  # C35-C47-S77-O78
   1117   15     441     453     483     485  # C35-C47-S77-O79
   1118   15     441     453     483     486  # C35-C47-S77-O80
   1119   10     439     445     448     436  # C33-C39-C42-C30
   1120    9     439     445     448     466  # C33-C39-C42-H60
   1121    9     457     445     448     436  # H51-C39-C42-C30
   1122   16     457     445     448     466  # H51-C39-C42-H60
   1123   15     439     451     475     477  # C33-C45-S69-O71
   1124   15     439     451     475     476  # C33-C45-S69-O70
   1125   15     439     451     475     478  # C33-C45-S69-O72
   1126   15     442     451     475     477  # C36-C45-S69-O71
   1127   15     442     451     475     476  # C36-C45-S69-O70
   1128   15     442     451     475     478  # C36-C45-S69-O72
   1129   17     325     343     337     345  # O0-C18-C12-C20
   1130   17     326     344     338     343  # O1-C19-C13-C18
   1131   17     327     344     339     345  # O2-C19-C14-C20
   1132   17     328     348     340     346  # O3-C23-C15-C21
   1133   17     329     346     341     347  # O4-C21-C16-C22
   1134   17     330     348     342     347  # O5-C23-C17-C22
   1135   18     337     338     343     349  # C12-C13-C18-C24
   1136   18     339     338     344     350  # C14-C13-C19-C25
   1137   18     337     339     345     351  # C12-C14-C20-C26
   1138   18     341     340     346     352  # C16-C15-C21-C27
   1139   18     341     342     347     353  # C16-C17-C22-C28
   1140   18     342     340     348     354  # C17-C15-C23-C29
   1141    8     331     355     367     361  # N6-C30-C42-C36
   1142    8     332     356     362     368  # N7-C31-C37-C43
   1143    8     333     357     363     369  # N8-C32-C38-C44
   1144    8     334     358     364     370  # N9-C33-C39-C45
   1145    8     335     359     371     365  # N10-C34-C46-C40
   1146    8     336     360     372     366  # N11-C35-C47-C41
   1147   19     373     361     355     370  # H48-C36-C30-C45
   1148   19     374     362     356     452  # H49-C37-C31-C46
   1149   19     375     363     357     453  # H50-C38-C32-C47
   1150   19     376     364     358     367  # H51-C39-C33-C42
   1151   19     377     365     359     449  # H52-C40-C34-C43
   1152   19     378     366     360     450  # H53-C41-C35-C44
   1153   19     385     367     355     364  # H60-C42-C30-C39
   1154   19     386     368     356     446  # H61-C43-C31-C40
   1155   19     387     369     357     447  # H62-C44-C32-C41
   1156   20     394     370     358     361  # S69-C45-C33-C36
   1157   20     398     371     359     443  # S73-C46-C34-C37
   1158   20     402     372     360     444  # S77-C47-C35-C38
   1159   17     406     424     418     426  # O0-C18-C12-C20
   1160   17     407     424     419     425  # O1-C18-C13-C19
   1161   17     408     425     420     426  # O2-C19-C14-C20
   1162   17     409     429     421     427  # O3-C23-C15-C21
   1163   17     410     428     422     427  # O4-C22-C16-C21
   1164   17     411     429     423     428  # O5-C23-C17-C22
   1165   18     418     419     424     430  # C12-C13-C18-C24
   1166   18     420     419     425     431  # C14-C13-C19-C25
   1167   18     420     418     426     432  # C14-C12-C20-C26
   1168   18     421     422     427     433  # C15-C16-C21-C27
   1169   18     423     422     428     434  # C17-C16-C22-C28
   1170   18     423     421     429     435  # C17-C15-C23-C29
   1171    8     412     436     448     442  # N6-C30-C42-C36
   1172    8     413     437     443     449  # N7-C31-C37-C43
   1173    8     414     438     450     444  # N8-C32-C44-C38
   1174    8     415     439     445     451  # N9-C33-C39-C45
   1175    8     416     440     452     446  # N10-C34-C46-C40
   1176    8     417     441     447     453  # N11-C35-C41-C47
   1177   19     454     442     451     436  # H48-C36-C45-C30
   1178   19     455     443     371     437  # H49-C37-C46-C31
   1179   19     456     444     372     438  # H50-C38-C47-C32
   1180   19     457     445     439     448  # H51-C39-C33-C42
   1181   19     458     446     368     440  # H52-C40-C43-C34
   1182   19     459     447     369     441  # H53-C41-C44-C35
   1183   19     466     448     436     445  # H60-C42-C30-C39
   1184   19     467     449     365     437  # H61-C43-C40-C31
   1185   19     468     450     366     438  # H62-C44-C41-C32
   1186   20     475     451     439     442  # S69-C45-C33-C36
   1187   20     479     452     362     440  # S73-C46-C37-C34
   1188   20     483     453     363     441  # S77-C47-C38-C35
   1189    1     487     499     505     500  # O0-C12-C18-C13
   1190    2     487     499     505     511  # O0-C12-C18-C24
   1191    3     507     499     505     500  # C20-C12-C18-C13
   1192    4     507     499     505     511  # C20-C12-C18-C24
   1193    3     505     499     507     501  # C18-C12-C20-C14
   1194    4     505     499     507     513  # C18-C12-C20-C26
   1195    1     487     499     507     501  # O0-C12-C20-C14
   1196    2     487     499     507     513  # O0-C12-C20-C26
   1197    1     489     501     506     500  # O2-C14-C19-C13
   1198    2     489     501     506     512  # O2-C14-C19-C25
   1199    3     507     501     506     500  # C20-C14-C19-C13
   1200    4     507     501     506     512  # C20-C14-C19-C25
   1201    3     506     501     507     499  # C19-C14-C20-C12
   1202    4     506     501     507     513  # C19-C14-C20-C26
   1203    1     489     501     507     499  # O2-C14-C20-C12
   1204    2     489     501     507     513  # O2-C14-C20-C26
   1205    3     509     503     508     502  # C22-C16-C21-C15
   1206    4     509     503     508     514  # C22-C16-C21-C27
   1207    1     491     503     508     502  # O4-C16-C21-C15
   1208    2     491     503     508     514  # O4-C16-C21-C27
   1209    3     508     503     509     504  # C21-C16-C22-C17
   1210    4     508     503     509     515  # C21-C16-C22-C28
   1211    1     491     503     509     504  # O4-C16-C22-C17
   1212    2     491     503     509     515  # O4-C16-C22-C28
   1213    2     492     504     510     516  # O5-C17-C23-C29
   1214    1     492     504     510     502  # O5-C17-C23-C15
   1215    4     509     504     510     516  # C22-C17-C23-C29
   1216    3     509     504     510     502  # C22-C17-C23-C15
   1217    3     510     504     509     503  # C23-C17-C22-C16
   1218    4     510     504     509     515  # C23-C17-C22-C28
   1219    1     492     504     509     503  # O5-C17-C22-C16
   1220    2     492     504     509     515  # O5-C17-C22-C28
   1221    5     511     493     517     529  # C24-N6-C30-C42
   1222    5     511     493     517     523  # C24-N6-C30-C36
   1223    6     517     493     511     505  # C30-N6-C24-C18
   1224    7     494     518     524     536  # N7-C31-C37-H49
   1225    8     494     518     524     614  # N7-C31-C37-C46
   1226    9     530     518     524     536  # C43-C31-C37-H49
   1227   10     530     518     524     614  # C43-C31-C37-C46
   1228    5     512     494     518     524  # C25-N7-C31-C37
   1229    5     512     494     518     530  # C25-N7-C31-C43
   1230   10     524     518     530     608  # C37-C31-C43-C40
   1231    9     524     518     530     548  # C37-C31-C43-H61
   1232    8     494     518     530     608  # N7-C31-C43-C40
   1233    7     494     518     530     548  # N7-C31-C43-H61
   1234    6     518     494     512     506  # C31-N7-C25-C19
   1235    6     519     495     513     507  # C32-N8-C26-C20
   1236    5     513     495     519     525  # C26-N8-C32-C38
   1237    5     513     495     519     531  # C26-N8-C32-C44
   1238    7     496     520     526     538  # N9-C33-C39-H51
   1239    8     496     520     526     529  # N9-C33-C39-C42
   1240    9     532     520     526     538  # C45-C33-C39-H51
   1241   10     532     520     526     529  # C45-C33-C39-C42
   1242    6     520     496     514     508  # C33-N9-C27-C21
   1243    5     514     496     520     526  # C27-N9-C33-C39
   1244    5     514     496     520     532  # C27-N9-C33-C45
   1245   10     526     520     532     523  # C39-C33-C45-C36
   1246   11     526     520     532     556  # C39-C33-C45-S69
   1247    8     496     520     532     523  # N9-C33-C45-C36
   1248   12     496     520     532     556  # N9-C33-C45-S69
   1249    6     521     497     515     509  # C34-N10-C28-C22
   1250   12     497     521     533     560  # N10-C34-C46-S73
   1251    8     497     521     533     605  # N10-C34-C46-C37
   1252   11     527     521     533     560  # C40-C34-C46-S73
   1253   10     527     521     533     605  # C40-C34-C46-C37
   1254    5     515     497     521     533  # C28-N10-C34-C46
   1255    5     515     497     521     527  # C28-N10-C34-C40
   1256    9     533     521     527     539  # C46-C34-C40-H52
   1257   10     533     521     527     611  # C46-C34-C40-C43
   1258    7     497     521     527     539  # N10-C34-C40-H52
   1259    8     497     521     527     611  # N10-C34-C40-C43
   1260    5     516     498     522     534  # C29-N11-C35-C47
   1261    5     516     498     522     528  # C29-N11-C35-C41
   1262    6     522     498     516     510  # C35-N11-C29-C23
   1263    1     488     500     506     501  # O1-C13-C19-C14
   1264    2     488     500     506     512  # O1-C13-C19-C25
   1265    3     505     500     506     501  # C18-C13-C19-C14
   1266    4     505     500     506     512  # C18-C13-C19-C25
   1267   13     501     506     512     494  # C14-C19-C25-N7
   1268   13     500     506     512     494  # C13-C19-C25-N7
   1269    1     488     500     505     499  # O1-C13-C18-C12
   1270    2     488     500     505     511  # O1-C13-C18-C24
   1271    3     506     500     505     499  # C19-C13-C18-C12
   1272    4     506     500     505     511  # C19-C13-C18-C24
   1273   13     504     510     516     498  # C17-C23-C29-N11
   1274   13     502     510     516     498  # C15-C23-C29-N11
   1275    1     490     502     510     504  # O3-C15-C23-C17
   1276    2     490     502     510     516  # O3-C15-C23-C29
   1277    3     508     502     510     504  # C21-C15-C23-C17
   1278    4     508     502     510     516  # C21-C15-C23-C29
   1279    1     490     502     508     503  # O3-C15-C21-C16
   1280    2     490     502     508     514  # O3-C15-C21-C27
   1281    3     510     502     508     503  # C23-C15-C21-C16
   1282    4     510     502     508     514  # C23-C15-C21-C27
   1283   13     499     505     511     493  # C12-C18-C24-N6
   1284   13     500     505     511     493  # C13-C18-C24-N6
   1285   13     499     507     513     495  # C12-C20-C26-N8
   1286   13     501     507     513     495  # C14-C20-C26-N8
   1287   13     503     508     514     496  # C16-C21-C27-N9
   1288   13     502     508     514     496  # C15-C21-C27-N9
   1289   13     503     509     515     497  # C16-C22-C28-N10
   1290   13     504     509     515     497  # C17-C22-C28-N10
   1291    8     493     517     529     526  # N6-C30-C42-C39
   1292    7     493     517     529     547  # N6-C30-C42-H60
   1293   10     523     517     529     526  # C36-C30-C42-C39
   1294    9     523     517     529     547  # C36-C30-C42-H60
   1295    8     493     517     523     532  # N6-C30-C36-C45
   1296    7     493     517     523     535  # N6-C30-C36-H48
   1297   10     529     517     523     532  # C42-C30-C36-C45
   1298    9     529     517     523     535  # C42-C30-C36-H48
   1299    7     495     519     525     537  # N8-C32-C38-H50
   1300    8     495     519     525     615  # N8-C32-C38-C47
   1301    9     531     519     525     537  # C44-C32-C38-H50
   1302   10     531     519     525     615  # C44-C32-C38-C47
   1303    7     495     519     531     549  # N8-C32-C44-H62
   1304    8     495     519     531     609  # N8-C32-C44-C41
   1305    9     525     519     531     549  # C38-C32-C44-H62
   1306   10     525     519     531     609  # C38-C32-C44-C41
   1307    8     498     522     534     606  # N11-C35-C47-C38
   1308   12     498     522     534     564  # N11-C35-C47-S77
   1309   10     528     522     534     606  # C41-C35-C47-C38
   1310   11     528     522     534     564  # C41-C35-C47-S77
   1311    8     498     522     528     612  # N11-C35-C41-C44
   1312    7     498     522     528     540  # N11-C35-C41-H53
   1313   10     534     522     528     612  # C47-C35-C41-C44
   1314    9     534     522     528     540  # C47-C35-C41-H53
   1315   10     517     523     532     520  # C30-C36-C45-C33
   1316   11     517     523     532     556  # C30-C36-C45-S69
   1317    9     535     523     532     520  # H48-C36-C45-C33
   1318   14     535     523     532     556  # H48-C36-C45-S69
   1319   15     524     614     641     643  # C37-C46-S73-O75
   1320   15     524     614     641     644  # C37-C46-S73-O76
   1321   15     524     614     641     642  # C37-C46-S73-O74
   1322   15     602     614     641     643  # C34-C46-S73-O75
   1323   15     602     614     641     644  # C34-C46-S73-O76
   1324   15     602     614     641     642  # C34-C46-S73-O74
   1325   11     518     524     614     641  # C31-C37-C46-S73
   1326   10     518     524     614     602  # C31-C37-C46-C34
   1327   14     536     524     614     641  # H49-C37-C46-S73
   1328    9     536     524     614     602  # H49-C37-C46-C34
   1329   10     519     525     615     603  # C32-C38-C47-C35
   1330   11     519     525     615     645  # C32-C38-C47-S77
   1331    9     537     525     615     603  # H50-C38-C47-C35
   1332   14     537     525     615     645  # H50-C38-C47-S77
   1333   10     520     526     529     517  # C33-C39-C42-C30
   1334    9     520     526     529     547  # C33-C39-C42-H60
   1335    9     538     526     529     517  # H51-C39-C42-C30
   1336   16     538     526     529     547  # H51-C39-C42-H60
   1337    9     521     527     611     629  # C34-C40-C43-H61
   1338   10     521     527     611     599  # C34-C40-C43-C31
   1339   16     539     527     611     629  # H52-C40-C43-H61
   1340    9     539     527     611     599  # H52-C40-C43-C31
   1341    9     522     528     612     630  # C35-C41-C44-H62
   1342   10     522     528     612     600  # C35-C41-C44-C32
   1343   16     540     528     612     630  # H53-C41-C44-H62
   1344    9     540     528     612     600  # H53-C41-C44-C32
   1345   10     518     530     608     602  # C31-C43-C40-C34
   1346    9     518     530     608     620  # C31-C43-C40-H52
   1347    9     548     530     608     602  # H61-C43-C40-C34
   1348   16     548     530     608     620  # H61-C43-C40-H52
   1349    9     519     531     609     621  # C32-C44-C41-H53
   1350   10     519     531     609     603  # C32-C44-C41-C35
   1351   16     549     531     609     621  # H62-C44-C41-H53
   1352    9     549     531     609     603  # H62-C44-C41-C35
   1353   15     520     532     556     558  # C33-C45-S69-O71
   1354   15     520     532     556     557  # C33-C45-S69-O70
   1355   15     520     532     556     559  # C33-C45-S69-O72
   1356   15     523     532     556     558  # C36-C45-S69-O71
   1357   15     523     532     556     557  # C36-C45-S69-O70
   1358   15     523     532     556     559  # C36-C45-S69-O72
   1359   15     521     533     560     561  # C34-C46-S73-O74
   1360   15     521     533     560     562  # C34-C46-S73-O75
   1361   15     521     533     560     563  # C34-C46-S73-O76
   1362   15     605     533     560     561  # C37-C46-S73-O74
   1363   15     605     533     560     562  # C37-C46-S73-O75
   1364   15     605     533     560     563  # C37-C46-S73-O76
   1365    9     521     533     605     617  # C34-C46-C37-H49
   1366   10     521     533     605     599  # C34-C46-C37-C31
   1367   14     560     533     605     617  # S73-C46-C37-H49
   1368   11     560     533     605     599  # S73-C46-C37-C31
   1369    9     522     534     606     618  # C35-C47-C38-H50
   1370   10     522     534     606     600  # C35-C47-C38-C32
   1371   14     564     534     606     618  # S77-C47-C38-H50
   1372   11     564     534     606     600  # S77-C47-C38-C32
   1373   15     522     534     564     565  # C35-C47-S77-O78
   1374   15     522     534     564     566  # C35-C47-S77-O79
   1375   15     522     534     564     567  # C35-C47-S77-O80
   1376   15     606     534     564     565  # C38-C47-S77-O78
   1377   15     606     534     564     566  # C38-C47-S77-O79
   1378   15     606     534     564     567  # C38-C47-S77-O80
   1379    4     588     582     587     593  # C20-C14-C19-C25
   1380    3     588     582     587     581  # C20-C14-C19-C13
   1381    2     570     582     587     593  # O2-C14-C19-C25
   1382    1     570     582     587     581  # O2-C14-C19-C13
   1383    3     587     582     588     580  # C19-C14-C20-C12
   1384    4     587     582     588     594  # C19-C14-C20-C26
   1385    1     570     582     588     580  # O2-C14-C20-C12
   1386    2     570     582     588     594  # O2-C14-C20-C26
   1387    2     573     585     591     597  # O5-C17-C23-C29
   1388    1     573     585     591     583  # O5-C17-C23-C15
   1389    4     590     585     591     597  # C22-C17-C23-C29
   1390    3     590     585     591     583  # C22-C17-C23-C15
   1391    1     573     585     590     584  # O5-C17-C22-C16
   1392    2     573     585     590     596  # O5-C17-C22-C28
   1393    3     591     585     590     584  # C23-C17-C22-C16
   1394    4     591     585     590     596  # C23-C17-C22-C28
   1395    6     598     574     592     586  # C30-N6-C24-C18
   1396    5     592     574     598     610  # C24-N6-C30-C42
   1397    5     592     574     598     604  # C24-N6-C30-C36
   1398    5     593     575     599     605  # C25-N7-C31-C37
   1399    5     593     575     599     611  # C25-N7-C31-C43
   1400    6     599     575     593     587  # C31-N7-C25-C19
   1401    6     600     576     594     588  # C32-N8-C26-C20
   1402    5     594     576     600     612  # C26-N8-C32-C44
   1403    5     594     576     600     606  # C26-N8-C32-C38
   1404    5     595     577     601     607  # C27-N9-C33-C39
   1405    5     595     577     601     613  # C27-N9-C33-C45
   1406    7     577     601     607     619  # N9-C33-C39-H51
   1407    8     577     601     607     610  # N9-C33-C39-C42
   1408    9     613     601     607     619  # C45-C33-C39-H51
   1409   10     613     601     607     610  # C45-C33-C39-C42
   1410    6     601     577     595     589  # C33-N9-C27-C21
   1411    8     577     601     613     604  # N9-C33-C45-C36
   1412   12     577     601     613     637  # N9-C33-C45-S69
   1413   10     607     601     613     604  # C39-C33-C45-C36
   1414   11     607     601     613     637  # C39-C33-C45-S69
   1415    6     602     578     596     590  # C34-N10-C28-C22
   1416    5     596     578     602     614  # C28-N10-C34-C46
   1417    5     596     578     602     608  # C28-N10-C34-C40
   1418    5     597     579     603     609  # C29-N11-C35-C41
   1419    5     597     579     603     615  # C29-N11-C35-C47
   1420    6     603     579     597     591  # C35-N11-C29-C23
   1421    1     568     580     586     581  # O0-C12-C18-C13
   1422    2     568     580     586     592  # O0-C12-C18-C24
   1423    3     588     580     586     581  # C20-C12-C18-C13
   1424    4     588     580     586     592  # C20-C12-C18-C24
   1425    1     568     580     588     582  # O0-C12-C20-C14
   1426    2     568     580     588     594  # O0-C12-C20-C26
   1427    3     586     580     588     582  # C18-C12-C20-C14
   1428    4     586     580     588     594  # C18-C12-C20-C26
   1429   13     582     587     593     575  # C14-C19-C25-N7
   1430   13     581     587     593     575  # C13-C19-C25-N7
   1431    1     569     581     586     580  # O1-C13-C18-C12
   1432    2     569     581     586     592  # O1-C13-C18-C24
   1433    3     587     581     586     580  # C19-C13-C18-C12
   1434    4     587     581     586     592  # C19-C13-C18-C24
   1435    1     569     581     587     582  # O1-C13-C19-C14
   1436    2     569     581     587     593  # O1-C13-C19-C25
   1437    3     586     581     587     582  # C18-C13-C19-C14
   1438    4     586     581     587     593  # C18-C13-C19-C25
   1439   13     585     591     597     579  # C17-C23-C29-N11
   1440   13     583     591     597     579  # C15-C23-C29-N11
   1441    1     571     583     591     585  # O3-C15-C23-C17
   1442    2     571     583     591     597  # O3-C15-C23-C29
   1443    3     589     583     591     585  # C21-C15-C23-C17
   1444    4     589     583     591     597  # C21-C15-C23-C29
   1445    1     571     583     589     584  # O3-C15-C21-C16
   1446    2     571     583     589     595  # O3-C15-C21-C27
   1447    3     591     583     589     584  # C23-C15-C21-C16
   1448    4     591     583     589     595  # C23-C15-C21-C27
   1449    1     572     584     590     585  # O4-C16-C22-C17
   1450    2     572     584     590     596  # O4-C16-C22-C28
   1451    3     589     584     590     585  # C21-C16-C22-C17
   1452    4     589     584     590     596  # C21-C16-C22-C28
   1453    1     572     584     589     583  # O4-C16-C21-C15
   1454    2     572     584     589     595  # O4-C16-C21-C27
   1455    3     590     584     589     583  # C22-C16-C21-C15
   1456    4     590     584     589     595  # C22-C16-C21-C27
   1457   13     583     589     595     577  # C15-C21-C27-N9
   1458   13     584     589     595     577  # C16-C21-C27-N9
   1459   13     580     586     592     574  # C12-C18-C24-N6
   1460   13     581     586     592     574  # C13-C18-C24-N6
   1461   13     582     588     594     576  # C14-C20-C26-N8
   1462   13     580     588     594     576  # C12-C20-C26-N8
   1463   13     585     590     596     578  # C17-C22-C28-N10
   1464   13     584     590     596     578  # C16-C22-C28-N10
   1465    8     574     598     610     607  # N6-C30-C42-C39
   1466    7     574     598     610     628  # N6-C30-C42-H60
   1467   10     604     598     610     607  # C36-C30-C42-C39
   1468    9     604     598     610     628  # C36-C30-C42-H60
   1469   10     598     604     613     601  # C30-C36-C45-C33
   1470   11     598     604     613     637  # C30-C36-C45-S69
   1471    9     616     604     613     601  # H48-C36-C45-C33
   1472   14     616     604     613     637  # H48-C36-C45-S69
   1473    8     574     598     604     613  # N6-C30-C36-C45
   1474    7     574     598     604     616  # N6-C30-C36-H48
   1475   10     610     598     604     613  # C42-C30-C36-C45
   1476    9     610     598     604     616  # C42-C30-C36-H48
   1477    8     575     599     605     533  # N7-C31-C37-C46
   1478    7     575     599     605     617  # N7-C31-C37-H49
   1479   10     611     599     605     533  # C43-C31-C37-C46
   1480    9     611     599     605     617  # C43-C31-C37-H49
   1481    8     575     599     611     527  # N7-C31-C43-C40
   1482    7     575     599     611     629  # N7-C31-C43-H61
   1483   10     605     599     611     527  # C37-C31-C43-C40
   1484    9     605     599     611     629  # C37-C31-C43-H61
   1485    8     576     600     612     528  # N8-C32-C44-C41
   1486    7     576     600     612     630  # N8-C32-C44-H62
   1487   10     606     600     612     528  # C38-C32-C44-C41
   1488    9     606     600     612     630  # C38-C32-C44-H62
   1489    7     576     600     606     618  # N8-C32-C38-H50
   1490    8     576     600     606     534  # N8-C32-C38-C47
   1491    9     612     600     606     618  # C44-C32-C38-H50
   1492   10     612     600     606     534  # C44-C32-C38-C47
   1493   12     578     602     614     641  # N10-C34-C46-S73
   1494    8     578     602     614     524  # N10-C34-C46-C37
   1495   11     608     602     614     641  # C40-C34-C46-S73
   1496   10     608     602     614     524  # C40-C34-C46-C37
   1497    8     578     602     608     530  # N10-C34-C40-C43
   1498    7     578     602     608     620  # N10-C34-C40-H52
   1499   10     614     602     608     530  # C46-C34-C40-C43
   1500    9     614     602     608     620  # C46-C34-C40-H52
   1501    8     579     603     609     531  # N11-C35-C41-C44
   1502    7     579     603     609     621  # N11-C35-C41-H53
   1503   10     615     603     609     531  # C47-C35-C41-C44
   1504    9     615     603     609     621  # C47-C35-C41-H53
   1505    8     579     603     615     525  # N11-C35-C47-C38
   1506   12     579     603     615     645  # N11-C35-C47-S77
   1507   10     609     603     615     525  # C41-C35-C47-C38
   1508   11     609     603     615     645  # C41-C35-C47-S77
   1509   15     525     615     645     646  # C38-C47-S77-O78
   1510   15     525     615     645     647  # C38-C47-S77-O79
   1511   15     525     615     645     648  # C38-C47-S77-O80
   1512   15     603     615     645     646  # C35-C47-S77-O78
   1513   15     603     615     645     647  # C35-C47-S77-O79
   1514   15     603     615     645     648  # C35-C47-S77-O80
   1515   10     601     607     610     598  # C33-C39-C42-C30
   1516    9     601     607     610     628  # C33-C39-C42-H60
   1517    9     619     607     610     598  # H51-C39-C42-C30
   1518   16     619     607     610     628  # H51-C39-C42-H60
   1519   15     601     613     637     639  # C33-C45-S69-O71
   1520   15     601     613     637     638  # C33-C45-S69-O70
   1521   15     601     613     637     640  # C33-C45-S69-O72
   1522   15     604     613     637     639  # C36-C45-S69-O71
   1523   15     604     613     637     638  # C36-C45-S69-O70
   1524   15     604     613     637     640  # C36-C45-S69-O72
   1525   17     487     505     499     507  # O0-C18-C12-C20
   1526   17     488     506     500     505  # O1-C19-C13-C18
   1527   17     489     506     501     507  # O2-C19-C14-C20
   1528   17     490     510     502     508  # O3-C23-C15-C21
   1529   17     491     508     503     509  # O4-C21-C16-C22
   1530   17     492     510     504     509  # O5-C23-C17-C22
   1531   18     499     500     505     511  # C12-C13-C18-C24
   1532   18     501     500     506     512  # C14-C13-C19-C25
   1533   18     499     501     507     513  # C12-C14-C20-C26
   1534   18     503     502     508     514  # C16-C15-C21-C27
   1535   18     503     504     509     515  # C16-C17-C22-C28
   1536   18     504     502     510     516  # C17-C15-C23-C29
   1537    8     493     517     529     523  # N6-C30-C42-C36
   1538    8     494     518     524     530  # N7-C31-C37-C43
   1539    8     495     519     525     531  # N8-C32-C38-C44
   1540    8     496     520     526     532  # N9-C33-C39-C45
   1541    8     497     521     533     527  # N10-C34-C46-C40
   1542    8     498     522     534     528  # N11-C35-C47-C41
   1543   19     535     523     517     532  # H48-C36-C30-C45
   1544   19     536     524     518     614  # H49-C37-C31-C46
   1545   19     537     525     519     615  # H50-C38-C32-C47
   1546   19     538     526     520     529  # H51-C39-C33-C42
   1547   19     539     527     521     611  # H52-C40-C34-C43
   1548   19     540     528     522     612  # H53-C41-C35-C44
   1549   19     547     529     517     526  # H60-C42-C30-C39
   1550   19     548     530     518     608  # H61-C43-C31-C40
   1551   19     549     531     519     609  # H62-C44-C32-C41
   1552   20     556     532     520     523  # S69-C45-C33-C36
   1553   20     560     533     521     605  # S73-C46-C34-C37
   1554   20     564     534     522     606  # S77-C47-C35-C38
   1555   17     568     586     580     588  # O0-C18-C12-C20
   1556   17     569     586     581     587  # O1-C18-C13-C19
   1557   17     570     587     582     588  # O2-C19-C14-C20
   1558   17     571     591     583     589  # O3-C23-C15-C21
   1559   17     572     590     584     589  # O4-C22-C16-C21
   1560   17     573     591     585     590  # O5-C23-C17-C22
   1561   18     580     581     586     592  # C12-C13-C18-C24
   1562   18     582     581     587     593  # C14-C13-C19-C25
   1563   18     582     580     588     594  # C14-C12-C20-C26
   1564   18     583     584     589     595  # C15-C16-C21-C27
   1565   18     585     584     590     596  # C17-C16-C22-C28
   1566   18     585     583     591     597  # C17-C15-C23-C29
   1567    8     574     598     610     604  # N6-C30-C42-C36
   1568    8     575     599     605     611  # N7-C31-C37-C43
   1569    8     576     600     612     606  # N8-C32-C44-C38
   1570    8     577     601     607     613  # N9-C33-C39-C45
   1571    8     578     602     614     608  # N10-C34-C46-C40
   1572    8     579     603     609     615  # N11-C35-C41-C47
   1573   19     616     604     613     598  # H48-C36-C45-C30
   1574   19     617     605     533     599  # H49-C37-C46-C31
   1575   19     618     606     534     600  # H50-C38-C47-C32
   1576   19     619     607     601     610  # H51-C39-C33-C42
   1577   19     620     608     530     602  # H52-C40-C43-C34
   1578   19     621     609     531     603  # H53-C41-C44-C35
   1579   19     628     610     598     607  # H60-C42-C30-C39
   1580   19     629     611     527     599  # H61-C43-C40-C31
   1581   19     630     612     528     600  # H62-C44-C41-C32
   1582   20     637     613     601     604  # S69-C45-C33-C36
   1583   20     641     614     524     602  # S73-C46-C37-C34
   1584   20     645     615     525     603  # S77-C47-C38-C35
   1585    1     649     661     667     662  # O0-C12-C18-C13
   1586    2     649     661     667     673  # O0-C12-C18-C24
   1587    3     669     661     667     662  # C20-C12-C18-C13
   1588    4     669     661     667     673  # C20-C12-C18-C24
   1589    3     667     661     669     663  # C18-C12-C20-C14
   1590    4     667     661     669     675  # C18-C12-C20-C26
   1591    1     649     661     669     663  # O0-C12-C20-C14
   1592    2     649     661     669     675  # O0-C12-C20-C26
   1593    1     651     663     668     662  # O2-C14-C19-C13
   1594    2     651     663     668     674  # O2-C14-C19-C25
   1595    3     669     663     668     662  # C20-C14-C19-C13
   1596    4     669     663     668     674  # C20-C14-C19-C25
   1597    3     668     663     669     661  # C19-C14-C20-C12
   1598    4     668     663     669     675  # C19-C14-C20-C26
   1599    1     651     663     669     661  # O2-C14-C20-C12
   1600    2     651     663     669     675  # O2-C14-C20-C26
   1601    3     671     665     670     664  # C22-C16-C21-C15
   1602    4     671     665     670     676  # C22-C16-C21-C27
   1603    1     653     665     670     664  # O4-C16-C21-C15
   1604    2     653     665     670     676  # O4-C16-C21-C27
   1605    3     670     665     671     666  # C21-C16-C22-C17
   1606    4     670     665     671     677  # C21-C16-C22-C28
   1607    1     653     665     671     666  # O4-C16-C22-C17
   1608    2     653     665     671     677  # O4-C16-C22-C28
   1609    2     654     666     672     678  # O5-C17-C23-C29
   1610    1     654     666     672     664  # O5-C17-C23-C15
   1611    4     671     666     672     678  # C22-C17-C23-C29
   1612    3     671     666     672     664  # C22-C17-C23-C15
   1613    3     672     666     671     665  # C23-C17-C22-C16
   1614    4     672     666     671     677  # C23-C17-C22-C28
   1615    1     654     666     671     665  # O5-C17-C22-C16
   1616    2     654     666     671     677  # O5-C17-C22-C28
   1617    5     673     655     679     691  # C24-N6-C30-C42
   1618    5     673     655     679     685  # C24-N6-C30-C36
   1619    6     679     655     673     667  # C30-N6-C24-C18
   1620    7     656     680     686     698  # N7-C31-C37-H49
   1621    8     656     680     686     776  # N7-C31-C37-C46
   1622    9     692     680     686     698  # C43-C31-C37-H49
   1623   10     692     680     686     776  # C43-C31-C37-C46
   1624    5     674     656     680     686  # C25-N7-C31-C37
   1625    5     674     656     680     692  # C25-N7-C31-C43
   1626   10     686     680     692     770  # C37-C31-C43-C40
   1627    9     686     680     692     710  # C37-C31-C43-H61
   1628    8     656     680     692     770  # N7-C31-C43-C40
   1629    7     656     680     692     710  # N7-C31-C43-H61
   1630    6     680     656     674     668  # C31-N7-C25-C19
   1631    6     681     657     675     669  # C32-N8-C26-C20
   1632    5     675     657     681     687  # C26-N8-C32-C38
   1633    5     675     657     681     693  # C26-N8-C32-C44
   1634    7     658     682     688     700  # N9-C33-C39-H51
   1635    8     658     682     688     691  # N9-C33-C39-C42
   1636    9     694     682     688     700  # C45-C33-C39-H51
   1637   10     694     682     688     691  # C45-C33-C39-C42
   1638    6     682     658     676     670  # C33-N9-C27-C21
   1639    5     676     658     682     688  # C27-N9-C33-C39
   1640    5     676     658     682     694  # C27-N9-C33-C45
   1641   10     688     682     694     685  # C39-C33-C45-C36
   1642   11     688     682     694     718  # C39-C33-C45-S69
   1643    8     658     682     694     685  # N9-C33-C45-C36
   1644   12     658     682     694     718  # N9-C33-C45-S69
   1645    6     683     659     677     671  # C34-N10-C28-C22
   1646   12     659     683     695     722  # N10-C34-C46-S73
   1647    8     659     683     695     767  # N10-C34-C46-C37
   1648   11     689     683     695     722  # C40-C34-C46-S73
   1649   10     689     683     695     767  # C40-C34-C46-C37
   1650    5     677     659     683     695  # C28-N10-C34-C46
   1651    5     677     659     683     689  # C28-N10-C34-C40
   1652    9     695     683     689     701  # C46-C34-C40-H52
   1653   10     695     683     689     773  # C46-C34-C40-C43
   1654    7     659     683     689     701  # N10-C34-C40-H52
   1655    8     659     683     689     773  # N10-C34-C40-C43
   1656    5     678     660     684     696  # C29-N11-C35-C47
   1657    5     678     660     684     690  # C29-N11-C35-C41
   1658    6     684     660     678     672  # C35-N11-C29-C23
   1659    1     650     662     668     663  # O1-C13-C19-C14
   1660    2     650     662     668     674  # O1-C13-C19-C25
   1661    3     667     662     668     663  # C18-C13-C19-C14
   1662    4     667     662     668     674  # C18-C13-C19-C25
   1663   13     663     668     674     656  # C14-C19-C25-N7
   1664   13     662     668     674     656  # C13-C19-C25-N7
   1665    1     650     662     667     661  # O1-C13-C18-C12
   1666    2     650     662     667     673  # O1-C13-C18-C24
   1667    3     668     662     667     661  # C19-C13-C18-C12
   1668    4     668     662     667     673  # C19-C13-C18-C24
   1669   13     666     672     678     660  # C17-C23-C29-N11
   1670   13     664     672     678     660  # C15-C23-C29-N11
   1671    1     652     664     672     666  # O3-C15-C23-C17
   1672    2     652     664     672     678  # O3-C15-C23-C29
   1673    3     670     664     672     666  # C21-C15-C23-C17
   1674    4     670     664     672     678  # C21-C15-C23-C29
   1675    1     652     664     670     665  # O3-C15-C21-C16
   1676    2     652     664     670     676  # O3-C15-C21-C27
   1677    3     672     664     670     665  # C23-C15-C21-C16
   1678    4     672     664     670     676  # C23-C15-C21-C27
   1679   13     661     667     673     655  # C12-C18-C24-N6
   1680   13     662     667     673     655  # C13-C18-C24-N6
   1681   13     661     669     675     657  # C12-C20-C26-N8
   1682   13     663     669     675     657  # C14-C20-C26-N8
   1683   13     665     670     676     658  # C16-C21-C27-N9
   1684   13     664     670     676     658  # C15-C21-C27-N9
   1685   13     665     671     677     659  # C16-C22-C28-N10
   1686   13     666     671     677     659  # C17-C22-C28-N10
   1687    8     655     679     691     688  # N6-C30-C42-C39
   1688    7     655     679     691     709  # N6-C30-C42-H60
   1689   10     685     679     691     688  # C36-C30-C42-C39
   1690    9     685     679     691     709  # C36-C30-C42-H60
   1691    8     655     679     685     694  # N6-C30-C36-C45
   1692    7     655     679     685     697  # N6-C30-C36-H48
   1693   10     691     679     685     694  # C42-C30-C36-C45
   1694    9     691     679     685     697  # C42-C30-C36-H48
   1695    7     657     681     687     699  # N8-C32-C38-H50
   1696    8     657     681     687     777  # N8-C32-C38-C47
   1697    9     693     681     687     699  # C44-C32-C38-H50
   1698   10     693     681     687     777  # C44-C32-C38-C47
   1699    7     657     681     693     711  # N8-C32-C44-H62
   1700    8     657     681     693     771  # N8-C32-C44-C41
   1701    9     687     681     693     711  # C38-C32-C44-H62
   1702   10     687     681     693     771  # C38-C32-C44-C41
   1703    8     660     684     696     768  # N11-C35-C47-C38
   1704   12     660     684     696     726  # N11-C35-C47-S77
   1705   10     690     684     696     768  # C41-C35-C47-C38
   1706   11     690     684     696     726  # C41-C35-C47-S77
   1707    8     660     684     690     774  # N11-C35-C41-C44
   1708    7     660     684     690     702  # N11-C35-C41-H53
   1709   10     696     684     690     774  # C47-C35-C41-C44
   1710    9     696     684     690     702  # C47-C35-C41-H53
   1711   10     679     685     694     682  # C30-C36-C45-C33
   1712   11     679     685     694     718  # C30-C36-C45-S69
   1713    9     697     685     694     682  # H48-C36-C45-C33
   1714   14     697     685     694     718  # H48-C36-C45-S69
   1715   15     686     776     803     805  # C37-C46-S73-O75
   1716   15     686     776     803     806  # C37-C46-S73-O76
   1717   15     686     776     803     804  # C37-C46-S73-O74
   1718   15     764     776     803     805  # C34-C46-S73-O75
   1719   15     764     776     803     806  # C34-C46-S73-O76
   1720   15     764     776     803     804  # C34-C46-S73-O74
   1721   11     680     686     776     803  # C31-C37-C46-S73
   1722   10     680     686     776     764  # C31-C37-C46-C34
   1723   14     698     686     776     803  # H49-C37-C46-S73
   1724    9     698     686     776     764  # H49-C37-C46-C34
   1725   10     681     687     777     765  # C32-C38-C47-C35
   1726   11     681     687     777     807  # C32-C38-C47-S77
   1727    9     699     687     777     765  # H50-C38-C47-C35
   1728   14     699     687     777     807  # H50-C38-C47-S77
   1729   10     682     688     691     679  # C33-C39-C42-C30
   1730    9     682     688     691     709  # C33-C39-C42-H60
   1731    9     700     688     691     679  # H51-C39-C42-C30
   1732   16     700     688     691     709  # H51-C39-C42-H60
   1733    9     683     689     773     791  # C34-C40-C43-H61
   1734   10     683     689     773     761  # C34-C40-C43-C31
   1735   16     701     689     773     791  # H52-C40-C43-H61
   1736    9     701     689     773     761  # H52-C40-C43-C31
   1737    9     684     690     774     792  # C35-C41-C44-H62
   1738   10     684     690     774     762  # C35-C41-C44-C32
   1739   16     702     690     774     792  # H53-C41-C44-H62
   1740    9     702     690     774     762  # H53-C41-C44-C32
   1741   10     680     692     770     764  # C31-C43-C40-C34
   1742    9     680     692     770     782  # C31-C43-C40-H52
   1743    9     710     692     770     764  # H61-C43-C40-C34
   1744   16     710     692     770     782  # H61-C43-C40-H52
   1745    9     681     693     771     783  # C32-C44-C41-H53
   1746   10     681     693     771     765  # C32-C44-C41-C35
   1747   16     711     693     771     783  # H62-C44-C41-H53
   1748    9     711     693     771     765  # H62-C44-C41-C35
   1749   15     682     694     718     720  # C33-C45-S69-O71
   1750   15     682     694     718     719  # C33-C45-S69-O70
   1751   15     682     694     718     721  # C33-C45-S69-O72
   1752   15     685     694     718     720  # C36-C45-S69-O71
   1753   15     685     694     718     719  # C36-C45-S69-O70
   1754   15     685     694     718     721  # C36-C45-S69-O72
   1755   15     683     695     722     723  # C34-C46-S73-O74
   1756   15     683     695     722     724  # C34-C46-S73-O75
   1757   15     683     695     722     725  # C34-C46-S73-O76
   1758   15     767     695     722     723  # C37-C46-S73-O74
   1759   15     767     695     722     724  # C37-C46-S73-O75
   1760   15     767     695     722     725  # C37-C46-S73-O76
   1761    9     683     695     767     779  # C34-C46-C37-H49
   1762   10     683     695     767     761  # C34-C46-C37-C31
   1763   14     722     695     767     779  # S73-C46-C37-H49
   1764   11     722     695     767     761  # S73-C46-C37-C31
   1765    9     684     696     768     780  # C35-C47-C38-H50
   1766   10     684     696     768     762  # C35-C47-C38-C32
   1767   14     726     696     768     780  # S77-C47-C38-H50
   1768   11     726     696     768     762  # S77-C47-C38-C32
   1769   15     684     696     726     727  # C35-C47-S77-O78
   1770   15     684     696     726     728  # C35-C47-S77-O79
   1771   15     684     696     726     729  # C35-C47-S77-O80
   1772   15     768     696     726     727  # C38-C47-S77-O78
   1773   15     768     696     726     728  # C38-C47-S77-O79
   1774   15     768     696     726     729  # C38-C47-S77-O80
   1775    4     750     744     749     755  # C20-C14-C19-C25
   1776    3     750     744     749     743  # C20-C14-C19-C13
   1777    2     732     744     749     755  # O2-C14-C19-C25
   1778    1     732     744     749     743  # O2-C14-C19-C13
   1779    3     749     744     750     742  # C19-C14-C20-C12
   1780    4     749     744     750     756  # C19-C14-C20-C26
   1781    1     732     744     750     742  # O2-C14-C20-C12
   1782    2     732     744     750     756  # O2-C14-C20-C26
   1783    2     735     747     753     759  # O5-C17-C23-C29
   1784    1     735     747     753     745  # O5-C17-C23-C15
   1785    4     752     747     753     759  # C22-C17-C23-C29
   1786    3     752     747     753     745  # C22-C17-C23-C15
   1787    1     735     747     752     746  # O5-C17-C22-C16
   1788    2     735     747     752     758  # O5-C17-C22-C28
   1789    3     753     747     752     746  # C23-C17-C22-C16
   1790    4     753     747     752     758  # C23-C17-C22-C28
   1791    6     760     736     754     748  # C30-N6-C24-C18
   1792    5     754     736     760     772  # C24-N6-C30-C42
   1793    5     754     736     760     766  # C24-N6-C30-C36
   1794    5     755     737     761     767  # C25-N7-C31-C37
   1795    5     755     737     761     773  # C25-N7-C31-C43
   1796    6     761     737     755     749  # C31-N7-C25-C19
   1797    6     762     738     756     750  # C32-N8-C26-C20
   1798    5     756     738     762     774  # C26-N8-C32-C44
   1799    5     756     738     762     768  # C26-N8-C32-C38
   1800    5     757     739     763     769  # C27-N9-C33-C39
   1801    5     757     739     763     775  # C27-N9-C33-C45
   1802    7     739     763     769     781  # N9-C33-C39-H51
   1803    8     739     763     769     772  # N9-C33-C39-C42
   1804    9     775     763     769     781  # C45-C33-C39-H51
   1805   10     775     763     769     772  # C45-C33-C39-C42
   1806    6     763     739     757     751  # C33-N9-C27-C21
   1807    8     739     763     775     766  # N9-C33-C45-C36
   1808   12     739     763     775     799  # N9-C33-C45-S69
   1809   10     769     763     775     766  # C39-C33-C45-C36
   1810   11     769     763     775     799  # C39-C33-C45-S69
   1811    6     764     740     758     752  # C34-N10-C28-C22
   1812    5     758     740     764     776  # C28-N10-C34-C46
   1813    5     758     740     764     770  # C28-N10-C34-C40
   1814    5     759     741     765     771  # C29-N11-C35-C41
   1815    5     759     741     765     777  # C29-N11-C35-C47
   1816    6     765     741     759     753  # C35-N11-C29-C23
   1817    1     730     742     748     743  # O0-C12-C18-C13
   1818    2     730     742     748     754  # O0-C12-C18-C24
   1819    3     750     742     748     743  # C20-C12-C18-C13
   1820    4     750     742     748     754  # C20-C12-C18-C24
   1821    1     730     742     750     744  # O0-C12-C20-C14
   1822    2     730     742     750     756  # O0-C12-C20-C26
   1823    3     748     742     750     744  # C18-C12-C20-C14
   1824    4     748     742     750     756  # C18-C12-C20-C26
   1825   13     744     749     755     737  # C14-C19-C25-N7
   1826   13     743     749     755     737  # C13-C19-C25-N7
   1827    1     731     743     748     742  # O1-C13-C18-C12
   1828    2     731     743     748     754  # O1-C13-C18-C24
   1829    3     749     743     748     742  # C19-C13-C18-C12
   1830    4     749     743     748     754  # C19-C13-C18-C24
   1831    1     731     743     749     744  # O1-C13-C19-C14
   1832    2     731     743     749     755  # O1-C13-C19-C25
   1833    3     748     743     749     744  # C18-C13-C19-C14
   1834    4     748     743     749     755  # C18-C13-C19-C25
   1835   13     747     753     759     741  # C17-C23-C29-N11
   1836   13     745     753     759     741  # C15-C23-C29-N11
   1837    1     733     745     753     747  # O3-C15-C23-C17
   1838    2     733     745     753     759  # O3-C15-C23-C29
   1839    3     751     745     753     747  # C21-C15-C23-C17
   1840    4     751     745     753     759  # C21-C15-C23-C29
   1841    1     733     745     751     746  # O3-C15-C21-C16
   1842    2     733     745     751     757  # O3-C15-C21-C27
   1843    3     753     745     751     746  # C23-C15-C21-C16
   1844    4     753     745     751     757  # C23-C15-C21-C27
   1845    1     734     746     752     747  # O4-C16-C22-C17
   1846    2     734     746     752     758  # O4-C16-C22-C28
   1847    3     751     746     752     747  # C21-C16-C22-C17
   1848    4     751     746     752     758  # C21-C16-C22-C28
   1849    1     734     746     751     745  # O4-C16-C21-C15
   1850    2     734     746     751     757  # O4-C16-C21-C27
   1851    3     752     746     751     745  # C22-C16-C21-C15
   1852    4     752     746     751     757  # C22-C16-C21-C27
   1853   13     745     751     757     739  # C15-C21-C27-N9
   1854   13     746     751     757     739  # C16-C21-C27-N9
   1855   13     742     748     754     736  # C12-C18-C24-N6
   1856   13     743     748     754     736  # C13-C18-C24-N6
   1857   13     744     750     756     738  # C14-C20-C26-N8
   1858   13     742     750     756     738  # C12-C20-C26-N8
   1859   13     747     752     758     740  # C17-C22-C28-N10
   1860   13     746     752     758     740  # C16-C22-C28-N10
   1861    8     736     760     772     769  # N6-C30-C42-C39
   1862    7     736     760     772     790  # N6-C30-C42-H60
   1863   10     766     760     772     769  # C36-C30-C42-C39
   1864    9     766     760     772     790  # C36-C30-C42-H60
   1865   10     760     766     775     763  # C30-C36-C45-C33
   1866   11     760     766     775     799  # C30-C36-C45-S69
   1867    9     778     766     775     763  # H48-C36-C45-C33
   1868   14     778     766     775     799  # H48-C36-C45-S69
   1869    8     736     760     766     775  # N6-C30-C36-C45
   1870    7     736     760     766     778  # N6-C30-C36-H48
   1871   10     772     760     766     775  # C42-C30-C36-C45
   1872    9     772     760     766     778  # C42-C30-C36-H48
   1873    8     737     761     767     695  # N7-C31-C37-C46
   1874    7     737     761     767     779  # N7-C31-C37-H49
   1875   10     773     761     767     695  # C43-C31-C37-C46
   1876    9     773     761     767     779  # C43-C31-C37-H49
   1877    8     737     761     773     689  # N7-C31-C43-C40
   1878    7     737     761     773     791  # N7-C31-C43-H61
   1879   10     767     761     773     689  # C37-C31-C43-C40
   1880    9     767     761     773     791  # C37-C31-C43-H61
   1881    8     738     762     774     690  # N8-C32-C44-C41
   1882    7     738     762     774     792  # N8-C32-C44-H62
   1883   10     768     762     774     690  # C38-C32-C44-C41
   1884    9     768     762     774     792  # C38-C32-C44-H62
   1885    7     738     762     768     780  # N8-C32-C38-H50
   1886    8     738     762     768     696  # N8-C32-C38-C47
   1887    9     774     762     768     780  # C44-C32-C38-H50
   1888   10     774     762     768     696  # C44-C32-C38-C47
   1889   12     740     764     776     803  # N10-C34-C46-S73
   1890    8     740     764     776     686  # N10-C34-C46-C37
   1891   11     770     764     776     803  # C40-C34-C46-S73
   1892   10     770     764     776     686  # C40-C34-C46-C37
   1893    8     740     764     770     692  # N10-C34-C40-C43
   1894    7     740     764     770     782  # N10-C34-C40-H52
   1895   10     776     764     770     692  # C46-C34-C40-C43
   1896    9     776     764     770     782  # C46-C34-C40-H52
   1897    8     741     765     771     693  # N11-C35-C41-C44
   1898    7     741     765     771     783  # N11-C35-C41-H53
   1899   10     777     765     771     693  # C47-C35-C41-C44
   1900    9     777     765     771     783  # C47-C35-C41-H53
   1901    8     741     765     777     687  # N11-C35-C47-C38
   1902   12     741     765     777     807  # N11-C35-C47-S77
   1903   10     771     765     777     687  # C41-C35-C47-C38
   1904   11     771     765     777     807  # C41-C35-C47-S77
   1905   15     687     777     807     808  # C38-C47-S77-O78
   1906   15     687     777     807     809  # C38-C47-S77-O79
   1907   15     687     777     807     810  # C38-C47-S77-O80
   1908   15     765     777     807     808  # C35-C47-S77-O78
   1909   15     765     777     807     809  # C35-C47-S77-O79
   1910   15     765     777     807     810  # C35-C47-S77-O80
   1911   10     763     769     772     760  # C33-C39-C42-C30
   1912    9     763     769     772     790  # C33-C39-C42-H60
   1913    9     781     769     772     760  # H51-C39-C42-C30
   1914   16     781     769     772     790  # H51-C39-C42-H60
   1915   15     763     775     799     801  # C33-C45-S69-O71
   1916   15     763     775     799     800  # C33-C45-S69-O70
   1917   15     763     775     799     802  # C33-C45-S69-O72
   1918   15     766     775     799     801  # C36-C45-S69-O71
   1919   15     766     775     799     800  # C36-C45-S69-O70
   1920   15     766     775     799     802  # C36-C45-S69-O72
   1921   17     649     667     661     669  # O0-C18-C12-C20
   1922   17     650     668     662     667  # O1-C19-C13-C18
   1923   17     651     668     663     669  # O2-C19-C14-C20
   1924   17     652     672     664     670  # O3-C23-C15-C21
   1925   17     653     670     665     671  # O4-C21-C16-C22
   1926   17     654     672     666     671  # O5-C23-C17-C22
   1927   18     661     662     667     673  # C12-C13-C18-C24
   1928   18     663     662     668     674  # C14-C13-C19-C25
   1929   18     661     663     669     675  # C12-C14-C20-C26
   1930   18     665     664     670     676  # C16-C15-C21-C27
   1931   18     665     666     671     677  # C16-C17-C22-C28
   1932   18     666     664     672     678  # C17-C15-C23-C29
   1933    8     655     679     691     685  # N6-C30-C42-C36
   1934    8     656     680     686     692  # N7-C31-C37-C43
   1935    8     657     681     687     693  # N8-C32-C38-C44
   1936    8     658     682     688     694  # N9-C33-C39-C45
   1937    8     659     683     695     689  # N10-C34-C46-C40
   1938    8     660     684     696     690  # N11-C35-C47-C41
   1939   19     697     685     679     694  # H48-C36-C30-C45
   1940   19     698     686     680     776  # H49-C37-C31-C46
   1941   19     699     687     681     777  # H50-C38-C32-C47
   1942   19     700     688     682     691  # H51-C39-C33-C42
   1943   19     701     689     683     773  # H52-C40-C34-C43
   1944   19     702     690     684     774  # H53-C41-C35-C44
   1945   19     709     691     679     688  # H60-C42-C30-C39
   1946   19     710     692     680     770  # H61-C43-C31-C40
   1947   19     711     693     681     771  # H62-C44-C32-C41
   1948   20     718     694     682     685  # S69-C45-C33-C36
   1949   20     722     695     683     767  # S73-C46-C34-C37
   1950   20     726     696     684     768  # S77-C47-C35-C38
   1951   17     730     748     742     750  # O0-C18-C12-C20
   1952   17     731     748     743     749  # O1-C18-C13-C19
   1953   17     732     749     744     750  # O2-C19-C14-C20
   1954   17     733     753     745     751  # O3-C23-C15-C21
   1955   17     734     752     746     751  # O4-C22-C16-C21
   1956   17     735     753     747     752  # O5-C23-C17-C22
   1957   18     742     743     748     754  # C12-C13-C18-C24
   1958   18     744     743     749     755  # C14-C13-C19-C25
   1959   18     744     742     750     756  # C14-C12-C20-C26
   1960   18     745     746     751     757  # C15-C16-C21-C27
   1961   18     747     746     752     758  # C17-C16-C22-C28
   1962   18     747     745     753     759  # C17-C15-C23-C29
   1963    8     736     760     772     766  # N6-C30-C42-C36
   1964    8     737     761     767     773  # N7-C31-C37-C43
   1965    8     738     762     774     768  # N8-C32-C44-C38
   1966    8     739     763     769     775  # N9-C33-C39-C45
   1967    8     740     764     776     770  # N10-C34-C46-C40
   1968    8     741     765     771     777  # N11-C35-C41-C47
   1969   19     778     766     775     760  # H48-C36-C45-C30
   1970   19     779     767     695     761  # H49-C37-C46-C31
   1971   19     780     768     696     762  # H50-C38-C47-C32
   1972   19     781     769     763     772  # H51-C39-C33-C42
   1973   19     782     770     692     764  # H52-C40-C43-C34
   1974   19     783     771     693     765  # H53-C41-C44-C35
   1975   19     790     772     760     769  # H60-C42-C30-C39
   1976   19     791     773     689     761  # H61-C43-C40-C31
   1977   19     792     774     690     762  # H62-C44-C41-C32
   1978   20     799     775     763     766  # S69-C45-C33-C36
   1979   20     803     776     686     764  # S73-C46-C37-C34
   1980   20     807     777     687     765  # S77-C47-C38-C35
