22
Cl#1 frame=200 cutoff=3.975A n_water=7 n_atoms=22
Cl      44.282131    21.616882    34.537453
H       44.493671    19.112152    34.809109
O       44.860271    18.458664    35.471287
H       45.550121    18.909538    36.037739
H       45.620291    22.968536    35.667912
O       46.270176    23.407486    36.288437
H       46.002691    23.225220    37.234627
H       43.331409    23.437195    34.771229
O       42.660217    24.141380    35.002857
H       42.400074    24.050566    35.964165
H       46.042881    20.971302    33.700043
O       46.860615    20.592554    33.266644
H       46.591717    20.009357    32.500046
H       43.042572    24.050653    32.195541
O       43.895798    23.634260    31.881882
H       44.289402    23.084871    32.618797
H       42.007046    20.472408    33.567194
O       41.030003    20.360054    33.386118
H       40.706924    21.117378    32.818592
H       41.854237    21.136911    37.199680
O       42.831554    21.299150    37.337849
H       43.282429    21.392639    36.450294
