22
Cl#1 frame=250 cutoff=3.975A n_water=7 n_atoms=22
Cl      44.555592    25.592834    44.148922
H       43.585537    21.930756    43.877796
O       43.892929    22.591087    43.193027
H       44.024998    23.482986    43.625591
H       43.685232    27.670948    44.534069
O       43.193850    28.517546    44.738567
H       42.208990    28.352055    44.687080
H       46.344032    24.566141    43.926674
O       47.323189    24.369785    43.873150
H       47.458168    23.431351    43.555195
H       41.179901    25.980049    43.598949
O       41.558708    25.245533    43.035599
H       42.522480    25.112011    43.266365
H       43.569305    24.944454    46.392994
O       43.205391    24.220703    46.979321
H       43.621609    23.347137    46.727608
H       46.822269    27.278818    46.477261
O       46.029278    26.700310    46.667507
H       45.804707    26.164507    45.853577
H       45.946377    27.294264    43.278553
O       46.273342    28.239100    43.255283
H       45.780853    28.778801    43.938023
