25
Cl#1 frame=100 cutoff=3.975A n_water=8 n_atoms=25
Cl      67.629753    38.025612    27.747536
H       69.634445    36.602516    30.230217
O       68.745483    36.157253    30.123013
H       68.345772    36.418224    29.244305
H       68.603325    40.781563    30.163237
O       69.146873    40.252766    29.511271
H       68.601303    39.489975    29.164001
H       67.416302    37.767914    25.350023
O       67.124893    37.340286    24.494305
H       66.531219    36.561308    24.696201
H       70.037979    39.936512    28.028084
O       70.791882    39.955360    27.371340
H       70.500355    39.525333    26.516867
H       65.633942    40.161345    29.842146
O       65.231422    39.858498    28.978262
H       65.793213    39.129936    28.586140
H       66.929245    39.644119    26.584629
O       66.754921    40.487358    26.076122
H       66.764763    41.264305    26.705618
H       70.443569    35.900742    26.586107
O       69.544617    35.473722    26.488113
H       68.841164    36.183315    26.447832
H       65.336315    35.474911    26.754354
O       65.712566    35.401875    27.678007
H       66.109787    36.279484    27.946423
