19
Cl#1 frame=0 cutoff=3.975A n_water=6 n_atoms=19
Cl      60.422668    42.183037    32.442818
H       61.242939    41.558540    34.259869
O       61.433941    41.570110    35.241371
H       61.809433    42.460888    35.497379
H       61.709156    44.847527    34.534739
O       61.007790    44.976849    33.833776
H       60.549095    44.106319    33.656576
H       64.235504    42.358067    32.106468
O       63.794136    43.207821    31.818203
H       62.833870    43.195900    32.097065
H       58.510954    41.402000    31.729212
O       57.607824    41.055796    31.475315
H       57.705320    40.166740    31.028017
H       60.090717    40.147701    32.211342
O       60.027878    39.150692    32.166904
H       59.124691    38.859245    32.482077
H       59.830772    44.900444    30.156250
O       59.989342    43.973209    29.817007
H       60.159744    43.360529    30.588762
