22
Cl#1 frame=50 cutoff=3.975A n_water=7 n_atoms=22
Cl      66.032364    42.760731    31.686291
H       63.058676    42.207516    33.577209
O       63.863661    42.678791    33.937599
H       64.486040    42.897633    33.186069
H       67.273787    39.438324    33.371000
O       67.465216    40.287357    32.878553
H       66.637701    40.847919    32.846323
H       65.218491    40.759272    30.861387
O       64.707756    39.908411    30.984383
H       65.300377    39.130602    30.775703
H       64.952208    43.043102    29.650133
O       64.446318    42.785732    28.826828
H       63.527399    42.484020    29.080919
H       69.244410    41.938702    32.082947
O       69.147837    42.650017    31.386700
H       68.200605    42.969933    31.366173
H       65.911606    45.050022    31.382462
O       65.902893    45.985260    31.736437
H       66.307041    46.601398    31.060310
H       66.890661    43.726753    33.334877
O       67.209124    44.226406    34.140442
H       67.302126    45.196409    33.915825
