22
Cl#1 frame=150 cutoff=3.975A n_water=7 n_atoms=22
Cl      63.421818    27.441494    32.327751
H       63.898090    26.693785    34.838043
O       63.578442    26.674065    35.785362
H       62.818287    27.314695    35.894032
H       62.856251    31.174934    33.810871
O       63.511894    30.457798    34.047173
H       63.440586    29.710060    33.386913
H       62.496815    25.363935    33.220245
O       61.690529    24.834917    32.955505
H       61.243587    25.275621    32.177019
H       64.884819    25.706596    32.621880
O       65.436298    24.874008    32.673702
H       66.378506    25.081411    32.410664
H       65.894524    29.756712    31.015686
O       65.773819    28.840343    30.633934
H       65.181057    28.304279    31.234983
H       63.207775    26.757904    30.381638
O       62.941998    26.388800    29.491077
H       63.242332    27.011904    28.768890
H       60.384846    29.151939    31.837360
O       60.422981    28.172373    32.034805
H       61.376911    27.889387    32.134695
