25
Cl#2 frame=150 cutoff=3.975A n_water=8 n_atoms=25
Cl      21.514524    22.915913    25.245480
H       24.279858    24.728096    26.147472
O       23.395275    24.727837    26.614161
H       22.828842    23.986536    26.254293
H       21.581070    23.021635    22.627327
O       22.275688    22.519438    22.112282
H       23.158829    22.978937    22.208130
H       18.416489    22.864353    26.515482
O       19.182819    23.184811    27.072302
H       19.985008    23.317902    26.490278
H       20.414337    21.262054    27.904110
O       21.005022    20.594578    27.450964
H       21.280212    20.945927    26.556160
H       19.871086    20.038246    22.385105
O       20.557911    19.961449    23.107727
H       20.998756    20.848633    23.244282
H       21.771034    26.107515    24.359077
O       22.664570    26.556709    24.348686
H       23.259007    26.100962    23.686230
H       23.268822    21.755474    24.330093
O       24.178986    21.411514    24.099422
H       24.753849    22.169907    23.791950
H       19.362825    25.600960    24.097427
O       19.973316    25.095154    23.487862
H       20.539547    24.470978    24.026060
