25
Cl#2 frame=0 cutoff=3.975A n_water=8 n_atoms=25
Cl      32.444061    27.567905    40.651505
H       34.084377    30.125641    42.093756
O       34.581261    29.293102    41.848745
H       33.949875    28.638052    41.433702
H       30.946173    27.534952    42.480675
O       30.518578    27.600683    43.382275
H       31.189770    27.930319    44.046146
H       34.096699    26.822014    41.881813
O       34.814644    26.331059    42.375309
H       34.642391    25.347414    42.322773
H       29.694168    24.711662    41.456438
O       30.165855    24.593451    40.582630
H       29.889826    25.320393    39.953867
H       33.303825    24.097088    39.384686
O       33.999058    24.785002    39.593014
H       33.599556    25.698084    39.510994
H       33.675556    27.908621    38.785965
O       33.872398    27.807625    37.810738
H       34.437881    28.573160    37.503811
H       28.922644    28.705750    39.912815
O       29.352495    27.834734    39.674976
H       30.245993    27.771578    40.119614
H       31.912777    29.389614    39.949442
O       31.679596    30.349390    39.792955
H       32.358194    30.762491    39.185614
