25
Cl#2 frame=200 cutoff=3.975A n_water=8 n_atoms=25
Cl      26.729832    25.181435    27.576283
H       25.966492    24.595186    25.000710
O       25.144398    24.487833    24.441582
H       25.247307    25.008993    23.594318
H       28.878403    26.611835    25.420912
O       27.925495    26.908932    25.359486
H       27.363289    26.354572    25.973265
H       28.543518    24.017662    26.602592
O       29.384212    23.751671    26.130968
H       29.154274    23.295860    25.271088
H       25.576172    28.811832    27.115032
O       26.434017    28.960377    26.623177
H       26.672157    28.135090    26.111256
H       26.305326    26.355736    29.336538
O       26.122566    26.906315    30.151070
H       26.928377    26.903114    30.743279
H       24.507687    25.395271    26.790936
O       23.715858    25.994396    26.910006
H       23.945421    26.726955    27.550846
H       26.710238    22.650803    30.444326
O       26.079716    22.790047    29.680754
H       26.367971    23.588593    29.152004
H       28.980232    25.734077    27.845264
O       29.360842    26.547390    28.285351
H       28.653809    26.989395    28.837440
