22
Cl#2 frame=50 cutoff=3.975A n_water=7 n_atoms=22
Cl      26.413788    29.157719    28.464579
H       26.987185    27.067818    27.822657
O       27.724430    26.392447    27.803059
H       27.363430    25.513943    27.490025
H       24.594587    30.881653    28.660860
O       23.796947    31.479469    28.580837
H       24.099180    32.428993    28.496517
H       23.328718    29.235273    24.976463
O       23.534582    28.944626    25.910919
H       24.159140    29.600863    26.334171
H       26.087950    32.106842    30.872856
O       26.178133    31.252672    31.385017
H       26.139750    30.479103    30.752474
H       28.465971    28.729616    28.631941
O       29.414597    28.437836    28.754354
H       29.998709    29.241690    28.866722
H       26.888203    30.030153    25.013079
O       27.330938    30.579683    25.721636
H       27.144703    30.179338    26.618896
H       25.108316    27.873789    29.719675
O       25.007273    27.227398    30.475996
H       24.152460    27.412441    30.960630
