22
Cl#2 frame=250 cutoff=3.975A n_water=7 n_atoms=22
Cl      29.730532    18.584476    28.049433
H       29.576820    17.573112    24.394661
O       29.655451    18.473442    24.823151
H       29.805960    18.362900    25.805511
H       29.574610    22.331408    27.096832
O       30.097467    21.643030    26.594131
H       29.878742    20.733887    26.948503
H       31.387104    19.357479    29.360275
O       32.165253    19.180031    29.962727
H       31.868917    18.613655    30.731857
H       31.546894    16.324354    30.557987
O       30.985752    16.067856    29.771023
H       30.615469    16.892191    29.342852
H       26.818502    16.367924    27.188377
O       26.876884    17.365993    27.201584
H       27.835449    17.644676    27.142620
H       26.968342    19.991720    29.688412
O       27.318350    19.066784    29.836765
H       28.189123    18.959005    29.357075
H       33.197330    18.503925    27.015060
O       32.578094    17.727957    27.135201
H       31.788773    18.012426    27.679180
