19
Cl#2 frame=100 cutoff=3.975A n_water=6 n_atoms=19
Cl      23.606501    20.841043    20.505621
H       20.237785    20.620035    19.228300
O       21.050934    20.815508    18.679916
H       21.868427    20.705751    19.245182
H       23.101181    23.029942    19.909138
O       22.798855    23.888006    20.324312
H       23.596657    24.425035    20.598200
H       21.551941    20.093485    23.913517
O       21.797045    20.925022    23.415030
H       22.138084    20.681078    22.507158
H       24.760027    21.768057    23.947977
O       25.121628    22.247288    23.148237
H       24.670719    21.906448    22.323301
H       25.532230    20.007275    20.008728
O       26.195374    19.466915    19.490952
H       25.710613    18.826069    18.895569
H       22.639179    18.715275    20.910776
O       22.132845    17.920658    21.245737
H       21.186865    18.183804    21.435154
