22
Cl#3 frame=100 cutoff=3.975A n_water=7 n_atoms=22
Cl      60.749264    16.908041    44.093616
H       60.781815    17.078445    47.522917
O       61.383190    16.453379    47.025240
H       61.089497    16.397387    46.070969
H       60.016357    20.308300    44.775295
O       60.551220    19.697018    45.358803
H       60.704235    18.831137    44.882442
H       57.797314    18.078686    42.020004
O       58.086086    17.407228    41.337513
H       59.073622    17.478292    41.197094
H       61.134960    18.859777    41.106541
O       60.798233    17.918402    41.127392
H       61.150768    17.456255    41.941120
H       62.828842    18.147575    43.970676
O       63.608459    18.771626    43.920008
H       64.429573    18.259647    43.667841
H       60.739273    14.564102    41.687458
O       60.444363    14.273744    42.597807
H       60.280458    15.078972    43.167683
H       58.728558    15.752144    44.327023
O       57.851700    15.483704    44.726067
H       57.133244    16.095303    44.395073
