22
Cl#3 frame=0 cutoff=3.975A n_water=7 n_atoms=22
Cl      45.728756    16.970833    43.542171
H       46.398849    19.131071    43.817883
O       46.679710    20.088100    43.745556
H       46.848751    20.455896    44.660057
H       45.431351    17.746216    41.689625
O       45.376961    18.146038    40.774605
H       46.102829    18.824898    40.663883
H       44.576876    16.411238    47.206539
O       45.117882    17.146078    46.797749
H       45.414091    16.872393    45.882668
H       47.778845    16.624443    43.073437
O       48.752132    16.828150    42.967667
H       48.860651    17.737768    42.566658
H       45.221233    14.920439    42.569263
O       45.391268    13.936853    42.508392
H       44.657406    13.503439    41.985294
H       43.241310    20.600780    43.246532
O       43.370367    20.040653    44.064953
H       43.738993    19.148603    43.803421
H       42.175575    15.306376    43.391569
O       42.835567    15.441191    42.652514
H       43.615368    15.965994    42.993746
