25
Cl#3 frame=50 cutoff=3.975A n_water=8 n_atoms=25
Cl      50.785442    14.885394    48.633316
H       47.929052    14.561101    46.578751
O       48.409420    13.706700    46.776772
H       49.154039    13.884339    47.420204
H       51.350475    12.804154    49.362984
O       51.743034    12.033315    49.864719
H       52.643723    11.814794    49.488705
H       49.690939    16.251271    45.317411
O       50.603182    15.915620    45.552427
H       50.620428    15.642972    46.514378
H       52.970490    15.029327    48.758863
O       53.952099    15.121208    48.926197
H       54.227852    14.487161    49.648663
H       47.388147    14.872538    49.299686
O       47.965057    15.574457    49.717506
H       48.879711    15.537127    49.315071
H       50.199411    17.015489    50.149179
O       49.987597    17.992833    50.148861
H       50.624901    18.471631    49.545179
H       50.197205    14.952098    51.059681
O       50.422956    15.370648    51.939404
H       51.326460    15.795671    51.884209
H       51.621666    17.317196    48.158581
O       51.868120    18.286352    48.157711
H       52.783035    18.397268    47.769794
