25
Cl#3 frame=150 cutoff=3.975A n_water=8 n_atoms=25
Cl      62.474876    17.246876    31.180796
H       61.566330    18.834616    32.382919
O       61.126060    19.688656    32.660046
H       61.380119    19.903940    33.602978
H       64.552895    17.093857    30.761137
O       65.543636    16.963991    30.721180
H       65.990170    17.615108    31.334875
H       59.991432    18.984943    29.446962
O       59.957680    17.989008    29.530485
H       60.667656    17.683474    30.164967
H       62.854317    18.569704    29.413849
O       63.062988    18.747919    28.452183
H       62.669170    19.626844    28.183113
H       65.401394    13.994610    29.151564
O       64.840847    14.354679    29.897310
H       65.189369    15.250114    30.173859
H       63.261154    17.021057    35.072529
O       63.426353    17.690315    34.348087
H       63.346382    17.243557    33.457008
H       62.766117    14.111578    29.918530
O       61.806789    14.329552    30.097843
H       61.727108    15.290744    30.361977
H       59.231598    17.734692    33.164120
O       59.694386    16.891102    32.891064
H       60.425381    17.106762    32.243736
