22
Cl#3 frame=250 cutoff=3.975A n_water=7 n_atoms=22
Cl      55.822342    13.989535    27.525003
H       58.049509    13.872142    26.528913
O       58.919991    13.555820    26.151852
H       58.918798    12.556994    26.103069
H       55.648033    12.565082    29.190334
O       55.850994    12.111949    30.058342
H       56.001881    12.801288    30.766882
H       53.708796    12.142932    25.375275
O       54.688509    11.970138    25.476215
H       55.109409    12.722400    25.982670
H       55.908243    16.367923    27.188377
O       55.966625    17.365993    27.201584
H       56.925190    17.644675    27.142620
H       55.681690    14.771341    25.758965
O       55.782837    15.337214    24.940674
H       56.725662    15.664163    24.876095
H       58.933781    14.543998    29.942944
O       58.464561    13.662086    29.899483
H       57.652088    13.744990    29.322285
H       54.904442    14.680430    29.201157
O       54.388157    15.085647    29.955746
H       54.563278    14.569888    30.794401
