25
Cl#3 frame=200 cutoff=3.975A n_water=8 n_atoms=25
Cl      63.096317    19.356976    24.757076
H       60.203510    19.943256    27.135033
O       60.159847    19.313023    26.359804
H       60.956995    19.451683    25.772160
H       63.490505    17.095875    25.765619
O       63.931202    16.310703    26.201025
H       63.439053    16.074661    27.038870
H       61.438301    20.724472    23.486149
O       60.756500    21.373802    23.149143
H       61.141209    22.296793    23.160162
H       63.453297    18.901424    20.911041
O       64.158234    19.346830    21.462929
H       63.852421    19.401831    22.413391
H       62.521992    17.186283    23.750797
O       62.304028    16.382797    23.197021
H       61.373970    16.466808    22.839176
H       62.413006    21.836357    27.603405
O       62.455158    20.842640    27.499626
H       62.785332    20.617088    26.583057
H       66.424797    18.640175    24.920128
O       66.153896    19.516161    24.521030
H       65.157593    19.599184    24.544403
H       65.448318    21.311680    25.088064
O       65.321835    22.221619    25.483091
H       64.347275    22.386560    25.634922
