22
Cl#4 frame=100 cutoff=3.975A n_water=7 n_atoms=22
Cl      15.211661    21.038944    20.372818
H       13.130088    21.554520    18.839361
O       12.523643    21.409439    18.057573
H       12.024695    22.253574    17.861643
H       15.924735    20.923574    22.244015
O       16.308143    20.879007    23.166626
H       16.846770    20.042086    23.263924
H       12.168768    20.690403    21.993757
O       12.437087    19.754761    21.764929
H       13.393429    19.744049    21.472857
H       14.025218    24.077103    21.582611
O       14.917571    24.212107    21.151997
H       15.287944    23.327633    20.867920
H       18.778289    21.230156    20.562523
O       18.459456    21.004282    19.641968
H       17.460685    20.952127    19.638523
H       15.124907    18.739454    20.319477
O       15.001544    17.857471    20.774382
H       15.047011    17.123602    20.096613
H       15.296712    20.691853    17.866711
O       15.448688    20.969852    16.918161
H       14.722852    21.596218    16.633904
