25
Cl#4 frame=150 cutoff=3.975A n_water=8 n_atoms=25
Cl      16.835983    19.482754    25.871733
H       15.268307    17.696007    26.426590
O       14.604290    17.107918    26.888397
H       14.723812    17.183556    27.878359
H       15.748785    22.363943    28.230719
O       15.272192    21.956469    27.451714
H       15.942189    21.609882    26.795233
H       17.484846    19.442654    23.456739
O       16.969242    19.456512    22.600016
H       17.604773    19.437744    21.828169
H       16.471039    19.757021    27.916784
O       16.532242    19.520718    28.886536
H       16.098038    18.633333    29.041395
H       14.833233    20.094225    24.855589
O       14.002232    19.945715    24.319498
H       13.980896    19.000879    23.992599
H       15.588373    18.343563    22.900843
O       14.795710    17.790699    23.157873
H       15.050891    16.823833    23.162060
H       18.266884    17.893679    25.669670
O       18.975128    17.187761    25.678329
H       19.871433    17.616264    25.792370
H       17.076212    21.414780    25.212858
O       17.248827    22.363739    24.949532
H       17.744852    22.383949    24.081463
