25
Cl#4 frame=50 cutoff=3.975A n_water=8 n_atoms=25
Cl      22.197691    20.794250    30.361189
H       24.511633    22.597164    28.501019
O       23.851942    22.071327    27.963945
H       23.139406    21.714045    28.568033
H       19.286951    19.494848    32.263519
O       20.155989    19.026503    32.103851
H       20.691408    19.537531    31.431501
H       20.271555    19.386486    27.348068
O       20.410631    19.026560    28.270649
H       21.059000    19.608753    28.761438
H       25.564117    19.277082    30.568184
O       24.783958    19.133936    31.177179
H       24.043810    19.756170    30.922565
H       24.237825    19.692057    32.938662
O       24.040384    20.535370    33.438364
H       23.072336    20.764868    33.335863
H       21.009579    20.499773    34.879692
O       21.383152    20.855169    34.022850
H       20.910713    20.429216    33.251198
H       19.962553    22.230791    29.346798
O       18.994764    21.995806    29.437332
H       18.808065    21.708147    30.376694
H       22.896435    22.539005    31.365213
O       23.528164    23.264811    31.637569
H       24.127983    22.929390    32.364010
