22
Cl#4 frame=0 cutoff=3.975A n_water=7 n_atoms=22
Cl      27.874136    16.878986    31.703348
H       29.164707    17.619097    33.435516
O       29.828897    17.966265    34.097450
H       30.693840    17.476175    33.990467
H       25.903406    17.985937    30.766022
O       25.072515    18.053057    30.213560
H       25.305696    18.387209    29.300304
H       29.983706    17.224768    31.290825
O       30.975943    17.247335    31.413200
H       31.256918    16.487326    31.999222
H       27.955605    18.101080    29.670732
O       28.176058    18.437548    28.755222
H       28.901350    19.123205    28.817741
H       27.492048    13.523314    30.388649
O       27.184196    14.286680    29.820797
H       27.105043    15.109644    30.383211
H       28.901236    20.683580    31.015520
O       28.482666    20.285147    31.831627
H       28.505898    19.287645    31.764971
H       26.055349    15.803256    32.942337
O       25.179008    15.356918    33.123528
H       24.999495    14.674839    32.414612
