25
Cl#4 frame=250 cutoff=3.975A n_water=8 n_atoms=25
Cl      15.843375    11.461329    34.010708
H       16.701758    10.936288    32.096718
O       17.447417    10.815799    31.441383
H       17.385192     9.906919    31.029068
H       14.839645    14.586180    32.114407
O       15.670634    14.535559    32.668392
H       15.773557    13.609344    33.031082
H       18.913276     9.211267    33.926376
O       18.210757     9.377665    34.618305
H       17.515807     9.992914    34.246540
H       12.583144    12.017235    34.838253
O       13.061934    12.670765    34.252007
H       14.045081    12.491165    34.286186
H       14.796496    11.976831    37.806511
O       14.594615    11.217585    37.187918
H       15.083320    11.351114    36.325668
H       14.772720     9.483082    34.199238
O       14.732211     8.485363    34.145569
H       15.367159     8.089798    34.809162
H       14.170600     9.261856    30.841496
O       13.573649     9.844784    31.392689
H       14.083537    10.196247    32.177879
H       19.058146    12.545071    35.183868
O       18.284648    13.090473    35.506939
H       17.439010    12.741714    35.102940
