22
Cl#4 frame=200 cutoff=3.975A n_water=7 n_atoms=22
Cl      25.372511    15.896481    25.716753
H       22.797546    15.377453    28.531307
O       22.808449    16.224195    27.999332
H       23.535103    16.177858    27.313869
H       24.037720    12.694246    24.687424
O       24.448471    13.290032    23.997339
H       24.614750    14.193244    24.393064
H       28.776075    16.758707    24.720850
O       28.124043    16.410807    24.047312
H       27.273174    16.156668    24.507479
H       24.050217    17.539917    22.724524
O       23.643246    16.750185    23.183563
H       24.170277    16.534058    24.005335
H       26.075502    15.812450    27.635090
O       26.450676    15.672626    28.551365
H       25.727072    15.796753    29.230433
H       25.335445    19.533255    25.435591
O       26.119631    19.213255    25.967247
H       26.022015    18.234798    26.149252
H       27.942356    13.198956    24.297222
O       27.268524    13.165727    25.035330
H       26.796722    14.045468    25.095970
