19
Mg#1 frame=50 cutoff=2.375A n_water=6 n_atoms=19
Mg      29.673246    26.394014    28.613096
H       26.987185    27.067818    27.822657
O       27.724430    26.392447    27.803059
H       27.363430    25.513943    27.490025
H       29.087801    25.378986    30.947971
O       29.014223    26.292652    30.548180
H       28.342804    26.827721    31.060921
H       28.465971    28.729616    28.631941
O       29.414597    28.437836    28.754354
H       29.998709    29.241690    28.866722
H       32.476177    26.699238    28.976130
O       31.638905    26.223227    29.245232
H       31.869738    25.453142    29.839941
H       30.036919    23.812975    27.975763
O       29.460213    24.321129    28.615448
H       28.719801    23.731211    28.937628
H       30.944052    25.464235    26.178368
O       30.447773    26.247036    26.553799
H       30.290604    26.919910    25.830927
