19
Mg#1 frame=100 cutoff=2.375A n_water=6 n_atoms=19
Mg      28.370342    24.332022    28.537085
H       29.149464    27.105618    28.763277
O       29.260897    26.168093    28.433674
H       30.128168    26.088428    27.942223
H       25.991014    25.748228    28.971458
O       26.650974    25.057978    29.268164
H       26.418524    24.749340    30.190516
H       29.380812    24.885126    31.052921
O       29.184677    24.094305    30.473177
H       29.327471    23.253992    30.996164
H       28.291750    21.297369    28.526600
O       27.752865    22.125257    28.682310
H       26.780502    21.913485    28.583794
H       27.317333    25.266623    26.205507
O       27.477211    24.384003    26.647556
H       27.372265    23.650837    25.975637
H       30.716572    23.490234    26.902561
O       30.211887    23.546211    27.764042
H       30.840019    23.400753    28.528425
