19
Mg#1 frame=150 cutoff=2.375A n_water=6 n_atoms=19
Mg      27.841549    19.642202    26.607058
H       25.150642    19.017393    26.221497
O       26.080061    18.648722    26.205387
H       26.102636    17.826324    25.636902
H       30.028294    18.532663    25.040731
O       29.062181    18.434071    25.279259
H       28.643995    17.738327    24.695242
H       28.814878    17.837322    28.409426
O       28.292646    18.686483    28.330351
H       28.114458    19.054405    29.242968
H       30.017179    21.524773    26.591612
O       29.435965    20.876694    27.083735
H       29.850685    20.661928    27.967972
H       27.836699    21.844973    24.938128
O       27.527353    20.896269    25.003403
H       26.862473    20.711931    24.279570
H       26.694101    21.879587    27.751675
O       26.472378    20.904467    27.749336
H       25.509615    20.780989    27.989740
