19
Mg#1 frame=250 cutoff=2.375A n_water=6 n_atoms=19
Mg      32.181664     8.115747    28.426088
H       33.395313     9.199718    26.220301
O       32.497402     8.879992    26.522804
H       31.957932     8.600905    25.728394
H       31.378666     5.632327    27.188698
O       32.115337     6.282104    27.376093
H       32.990211     5.881829    27.103436
H       29.505754     8.988789    28.286951
O       30.075214     8.258956    27.908756
H       29.505928     7.636202    27.371992
H       31.937510     6.214150    30.071259
O       32.083717     7.182403    30.273926
H       31.966192     7.339138    31.254541
H       34.599804     9.055840    29.210377
O       34.230598     8.400245    28.551697
H       34.977100     8.020158    28.005537
H       30.974377    10.047160    29.998999
O       31.778826     9.869219    29.432274
H       32.461533    10.582848    29.589153
