19
Mg#1 frame=200 cutoff=2.375A n_water=6 n_atoms=19
Mg      28.632732    12.015268    28.679070
H       29.920229     9.510494    28.478228
O       29.061771     9.969039    28.248432
H       28.468313     9.335873    27.751455
H       26.824802    12.468119    26.518263
O       26.877913    12.093623    27.443987
H       25.988119    11.717897    27.703114
H       28.756947    12.992422    26.215647
O       29.470985    12.533938    26.744743
H       30.353483    12.965454    26.557652
H       28.999243    14.493721    29.881622
O       28.535349    14.124884    29.076160
H       27.832298    14.768056    28.772732
H       27.562387    12.254401    31.154964
O       27.422880    11.649604    30.370867
H       26.586983    11.117350    30.505053
H       31.016592    12.320122    30.310314
O       30.574995    12.067902    29.449270
H       31.260632    11.709985    28.815378
