19
Mg#1 frame=0 cutoff=2.375A n_water=6 n_atoms=19
Mg      30.473244    24.972097    32.945866
H       30.105909    23.456068    35.340778
O       30.746897    24.109035    34.937313
H       31.509657    24.259388    35.566265
H       33.185760    24.898670    32.443859
O       32.549831    25.387136    33.041367
H       33.049320    26.073980    33.569351
H       29.964235    27.139730    34.586643
O       30.347712    26.927929    33.687706
H       30.296507    27.738365    33.104115
H       31.030594    26.495443    30.645554
O       30.524738    25.720650    31.024807
H       30.081867    25.216648    30.283283
H       31.483301    22.739397    31.709858
O       31.024229    22.957794    32.571011
H       30.943251    22.129250    33.125034
H       27.864908    24.905815    33.901619
O       28.420406    24.718634    33.091473
H       27.839680    24.737324    32.277565
