19
Mg#2 frame=100 cutoff=2.375A n_water=6 n_atoms=19
Mg      11.365894    18.002205    22.092997
H       10.653028    17.426228    24.380095
O       11.215079    18.202015    24.092972
H       11.811052    18.478859    24.846756
H       12.168768    20.690403    21.993757
O       12.437087    19.754761    21.764929
H       13.393429    19.744049    21.472857
H       13.921822    17.353828    21.951448
O       13.249685    17.184425    22.672192
H       13.516684    16.373302    23.192804
H        9.225905    19.426956    20.962437
O        9.595124    19.155903    21.851370
H        9.170625    19.706112    22.570461
H        9.295175    16.049965    21.954491
O       10.253751    16.241936    22.164930
H       10.665741    15.442222    22.601679
H       11.830626    16.687790    19.846588
O       11.552472    17.637619    19.988136
H       11.384225    18.071125    19.102823
