19
Mg#2 frame=200 cutoff=2.375A n_water=6 n_atoms=19
Mg      11.607232    18.550234    16.376522
H       12.117620    16.091228    15.432252
O       11.501912    16.834831    15.171392
H       10.816827    16.490646    14.529376
H       10.820142    20.457497    14.420387
O       11.575808    19.905170    14.772370
H       12.166271    19.626686    14.014820
H        9.014798    18.660118    15.643970
O        9.530116    18.680176    16.500744
H        8.921020    18.939770    17.250111
H       14.144122    17.779594    16.513342
O       13.679342    18.646458    16.333239
H       14.322770    19.289768    15.918126
H       11.449965    17.545673    18.881571
O       11.511418    17.194439    17.947271
H       11.231274    16.234581    17.932940
H       12.204910    21.090054    17.402063
O       11.690119    20.279881    17.683231
H       11.160111    20.490345    18.504683
