19
Mg#2 frame=150 cutoff=2.375A n_water=6 n_atoms=19
Mg      14.682738    18.023247    18.592567
H       14.591291    20.576962    17.409756
O       14.624824    20.059322    18.264660
H       14.850817    20.675701    19.018953
H       14.273438    18.120975    21.546715
O       14.059100    18.226349    20.575665
H       13.243323    18.795670    20.474215
H       12.224822    18.465107    17.542097
O       12.692996    17.719387    18.016291
H       12.049588    16.971069    18.177790
H       17.211027    17.954391    19.995459
O       16.809183    18.203255    19.114166
H       17.422892    18.828869    18.632727
H       15.467372    18.477549    15.926911
O       15.092703    17.756197    16.509394
H       14.547950    17.128262    15.953573
H       14.676821    15.222401    18.745176
O       15.080179    16.082447    19.058014
H       15.999938    15.910381    19.410751
