19
Mg#2 frame=0 cutoff=2.375A n_water=6 n_atoms=19
Mg      20.037096    20.032265    26.821781
H       18.660484    17.572805    26.410299
O       19.310240    18.247183    26.059401
H       19.691721    17.923445    25.193590
H       17.228790    20.749399    27.197447
O       18.095932    20.430582    27.580084
H       17.935741    20.034811    28.484257
H       20.047684    18.230692    29.036863
O       20.539824    18.934286    28.524094
H       21.312420    19.263231    29.067036
H       19.313046    22.007017    25.234701
O       19.360493    21.010645    25.165499
H       18.885624    20.710924    24.338022
H       22.747295    20.581079    26.409460
O       21.983555    20.069672    26.015570
H       22.263025    19.674448    25.140560
H       20.766409    22.629896    27.382460
O       20.477999    21.799875    27.859787
H       19.976398    22.049257    28.688217
