19
Mg#2 frame=50 cutoff=2.375A n_water=6 n_atoms=19
Mg      13.476906    16.620434    29.262770
H       15.629518    15.207438    30.371641
O       14.871504    15.137754    29.723158
H       14.776948    14.188780    29.421942
H       13.267680    16.396738    32.164043
O       13.282151    17.010263    31.374477
H       13.682371    17.887140    31.640936
H       15.754720    18.168207    28.773111
O       14.931681    18.001249    29.316050
H       14.978454    18.530283    30.163456
H       11.490551    14.709478    28.538794
O       12.082142    14.987638    29.295609
H       11.901142    14.408346    30.090374
H       14.166256    17.112530    26.704697
O       13.568275    16.490383    27.210062
H       12.770252    16.267014    26.650341
H       12.040220    19.023890    28.708565
O       11.919643    18.097071    29.064165
H       10.953188    17.941729    29.268635
