19
Mg#2 frame=250 cutoff=2.375A n_water=6 n_atoms=19
Mg      10.898791    16.450415    26.615194
H        9.433018    16.431633    24.113678
O        9.964633    15.833546    24.713596
H       10.298001    15.048706    24.191465
H       12.119722    17.294140    24.512644
O       12.432912    16.976192    25.407475
H       13.432648    16.961647    25.424870
H        9.315437    18.586018    26.947632
O       10.028775    18.276505    26.318827
H        9.958902    18.783829    25.459866
H       11.418974    13.808350    27.335106
O       11.828442    14.547779    26.800611
H       12.649368    14.210632    26.339685
H        9.814443    15.363383    28.823483
O        9.512316    15.541221    27.886938
H        8.563671    15.243356    27.780500
H       12.528393    16.883102    28.959827
O       11.875916    17.258068    28.301264
H       11.663907    18.204655    28.544106
