162
COF cell 22.556000 39.068138 10.000000 90.000000 90.000000 90.000000
O        -9.120212     5.480728    -0.002017
O         8.713361     6.262244    -0.002017
O       -10.804640     9.961213    -0.002017
O         9.164502    -4.033956    -0.002017
O        -8.668984    -4.815522    -0.002017
O        10.848930    -8.514441    -0.002017
N       -10.843199     3.474428    -0.002017
N         7.837218     8.757520    -0.002017
N        -8.205597     9.472288    -0.002017
N        10.887489    -2.027656    -0.002017
N        -7.792927    -7.310748    -0.002017
N         8.249887    -8.025516    -0.002017
C       -10.110103     6.280987    -0.002017
C         9.901391     6.719373    -0.002017
C       -11.002780     8.703825    -0.002017
C        10.154479    -4.834265    -0.002017
C        -9.857014    -5.272651    -0.002017
C        11.047070    -7.257053    -0.002017
C        11.054780     5.792501    -0.002017
C        10.173801     8.168401    -0.002017
C        -9.884073     7.743283    -0.002017
C       -11.010490    -4.345729    -0.002017
C       -10.129511    -6.721629    -0.002017
C         9.928449    -6.296561    -0.002017
C        10.783535     4.432290    -0.002017
C         9.131520     9.083317    -0.002017
C        -8.570596     8.188491    -0.002017
C       -10.739158    -2.985568    -0.002017
C        -9.087143    -7.636595    -0.002017
C         8.614886    -6.741719    -0.002017
C       -11.051096     2.134338    -0.002017
C         6.780744     9.607653    -0.002017
C        -6.941139     9.962193    -0.002017
C        11.095473    -0.687616    -0.002017
C        -6.736367    -8.160931    -0.002017
C         6.985429    -8.515421    -0.002017
C        -9.961817     1.241825    -0.002017
C         5.463166     9.110541    -0.002017
C        -6.712840    11.351819    -0.002017
C        10.006108     0.204947    -0.002017
C        -5.418789    -7.663819    -0.002017
C         6.757217    -9.905097    -0.002017
C        10.201787     1.581073    -0.002017
C         6.953208    11.012771    -0.002017
C        -5.810486     9.110341    -0.002017
C       -10.157496    -0.134302    -0.002017
C        -6.908831    -9.566049    -0.002017
C         5.854777    -7.663569    -0.002017
H        -8.932098     1.639550    -0.002017
H         5.292734     8.019945    -0.002017
H        -7.572077    12.044776    -0.002017
H         8.976389    -0.192778    -0.002017
H        -5.248357    -6.573223    -0.002017
H         7.616368   -10.598004    -0.002017
H         9.724932     4.088537    -0.002017
H         9.363080    10.171991    -0.002017
H        -7.743504     7.443656    -0.002017
H        -9.680642    -2.641765    -0.002017
H        -9.318704    -8.725269    -0.002017
H         7.787881    -5.996934    -0.002017
H         9.317714     2.245415    -0.002017
H         7.970509    11.446187    -0.002017
H        -5.943764     8.012496    -0.002017
H        -9.846216     3.846251    -0.002017
H         7.660842     7.708229    -0.002017
H        -9.026204    10.149754    -0.002017
H         9.890507    -2.399479    -0.002017
H        -7.616552    -6.261457    -0.002017
H         9.070494    -8.702983    -0.002017
S        -8.711845    -1.223560    -0.002017
O        -7.582710    -0.165240     0.053983
O        -8.208971    -1.795757    -1.365617
O        -8.067906    -2.116224     1.360983
S        -8.573911   -10.275451    -0.002017
O        -8.222456   -11.782713     0.053383
O        -9.321550   -10.422999    -1.365517
O        -9.669624   -10.385082     1.360783
S         6.072882    -5.866800    -0.002017
O         4.591431    -5.418747     0.049683
O         6.319402    -5.137214    -1.360917
O         6.516006    -4.857086     1.358483
O         2.157788   -14.053341    -0.002017
O        -2.564639   -13.271825    -0.002017
O         0.473360    -9.572856    -0.002017
O        -2.113498    15.500113    -0.002017
O         2.609016    14.718547    -0.002017
O        -0.429070    11.019628    -0.002017
N         0.434801   -16.059641    -0.002017
N        -3.440782   -10.776549    -0.002017
N         3.072403   -10.061781    -0.002017
N        -0.390511    17.506413    -0.002017
N         3.485073    12.223321    -0.002017
N        -3.028113    11.508553    -0.002017
C         1.167897   -13.253082    -0.002017
C        -1.376609   -12.814696    -0.002017
C         0.275220   -10.830244    -0.002017
C        -1.123521    14.699804    -0.002017
C         1.420986    14.261418    -0.002017
C        -0.230930    12.277016    -0.002017
C        -0.223220   -13.741568    -0.002017
C        -1.104199   -11.365668    -0.002017
C         1.393927   -11.790786    -0.002017
C         0.267510    15.188340    -0.002017
C         1.148489    12.812440    -0.002017
C        -1.349551    13.237508    -0.002017
C        -0.494465   -15.101779    -0.002017
C        -2.146480   -10.450752    -0.002017
C         2.707404   -11.345578    -0.002017
C         0.538842    16.548501    -0.002017
C         2.190857    11.897474    -0.002017
C        -2.663114    12.792350    -0.002017
C         0.226904   -17.399731    -0.002017
C        -4.497256    -9.926416    -0.002017
C         4.336861    -9.571876    -0.002017
C        -0.182527    18.846453    -0.002017
C         4.541633    11.373138    -0.002017
C        -4.292571    11.018648    -0.002017
C         1.316183   -18.292244    -0.002017
C        -5.814834   -10.423528    -0.002017
C         4.565160    -8.182250    -0.002017
C        -1.271892   -19.329122    -0.002017
C         5.859211    11.870250    -0.002017
C        -4.520783     9.628972    -0.002017
C        -1.076213   -17.952996    -0.002017
C        -4.324792    -8.521298    -0.002017
C         5.467514   -10.423728    -0.002017
C         1.120504    19.399767    -0.002017
C         4.369169     9.968020    -0.002017
C        -5.423223    11.870500    -0.002017
H         2.345902   -17.894519    -0.002017
H        -5.985266   -11.514124    -0.002017
H         3.705923    -7.489293    -0.002017
H        -2.301611    19.341291    -0.002017
H         6.029643    12.960846    -0.002017
H        -3.661632     8.936065    -0.002017
H        -1.553068   -15.445532    -0.002017
H        -1.914920    -9.362078    -0.002017
H         3.534496   -12.090413    -0.002017
H         1.597358    16.892304    -0.002017
H         1.959296    10.808800    -0.002017
H        -3.490119    13.537135    -0.002017
H        -1.960286   -17.288654    -0.002017
H        -3.307491    -8.087882    -0.002017
H         5.334236   -11.521573    -0.002017
H         1.431784   -15.687818    -0.002017
H        -3.617158   -11.825840    -0.002017
H         2.251796    -9.384315    -0.002017
H        -1.387493    17.134590    -0.002017
H         3.661448    13.272612    -0.002017
H        -2.207506    10.831086    -0.002017
S         2.566155    18.310509    -0.002017
O         3.695290    19.368829     0.053983
O         3.069029    17.738312    -1.365617
O         3.210094    17.417845     1.360983
S         2.704089     9.258618    -0.002017
O         3.055544     7.751356     0.053383
O         1.956450     9.111070    -1.365517
O         1.608376     9.148987     1.360783
S        -5.205118    13.667269    -0.002017
O        -6.686569    14.115322     0.049683
O        -4.958598    14.396855    -1.360917
O        -4.761994    14.676983     1.358483
