81
COF cell 22.556 22.556 10.0 90.0 90.0 120.0
O         0.451200    10.296200     5.000000
O         2.135600    14.776700     5.000000
O        -2.586800    13.995200     5.000000
O        10.826800     9.237900     5.000000
O         9.142400     4.757300     5.000000
O        13.864800     5.538900     5.000000
N         3.050200    10.785200     5.000000
N         0.412700    16.783100     5.000000
N        -3.462900    11.499900     5.000000
N         8.227800     8.748900     5.000000
N        10.865300     2.751000     5.000000
N        14.740900     8.034200     5.000000
C         0.253100    11.553600     5.000000
C         1.145700    13.976400     5.000000
C        -1.398800    13.538100     5.000000
C        11.024900     7.980400     5.000000
C        10.132300     5.557600     5.000000
C        12.676800     5.996000     5.000000
C         1.371700    12.514100     5.000000
C        -0.245400    14.465000     5.000000
C        -1.126300    12.089000     5.000000
C         9.906300     7.020000     5.000000
C        11.523400     5.069100     5.000000
C        12.404300     7.445000     5.000000
C         2.685300    12.068900     5.000000
C        -0.516600    15.825100     5.000000
C        -2.168600    11.174100     5.000000
C         8.592700     7.465100     5.000000
C        11.794600     3.708900     5.000000
C        13.446600     8.360000     5.000000
C         4.314700    10.295200     5.000000
C         0.204700    18.123100     5.000000
C        -4.519400    10.649800     5.000000
C         6.963300     9.238800     5.000000
C        11.073300     1.410900     5.000000
C        15.797400     8.884300     5.000000
C         4.543000     8.905600     5.000000
C         1.294000    19.015600     5.000000
C        -5.837000    11.146900     5.000000
C         6.735000    10.628500     5.000000
C         9.984000     0.518400     5.000000
C        17.115000     8.387100     5.000000
C         5.445400    11.147100     5.000000
C        -1.098400    18.676300     5.000000
C        -4.347000     9.244700     5.000000
C         5.832600     8.387000     5.000000
C        12.376400     0.857700     5.000000
C        15.625000    10.289400     5.000000
H         3.683700     8.212700     5.000000
H         2.323700    18.617900     5.000000
H        -6.007500    12.237500     5.000000
H         7.594300    11.321400     5.000000
H         8.954300     0.916100     5.000000
H        17.285500     7.296600     5.000000
H         3.512300    12.813800     5.000000
H        -1.575200    16.168900     5.000000
H        -1.937100    10.085400     5.000000
H         7.765700     6.720300     5.000000
H        12.853200     3.365100     5.000000
H        13.215100     9.448600     5.000000
H         5.312100    12.244900     5.000000
H        -1.982400    18.012000     5.000000
H        -3.329600     8.811200     5.000000
H         2.229700    10.107700     5.000000
H         1.409600    16.411200     5.000000
H        -3.639300    12.549300     5.000000
H         9.048300     9.426400     5.000000
H         9.868400     3.122900     5.000000
H        14.917300     6.984800     5.000000
S         6.053100     6.590400     5.000000
O         4.572000     6.141700     4.944000
O         6.297200     5.868800     6.363600
O         6.504200     5.586400     3.637000
S        13.823300     1.945000     5.000000
O        14.952900     0.887000     4.944600
O        14.324900     2.518700     6.363500
O        14.466100     2.839100     3.637200
S        13.959900    10.998900     5.000000
O        14.312600    12.505900     4.948300
O        13.204800    11.150200     6.358900
O        12.863900    11.120000     3.639500
