162
COF cell 22.556000 39.068138 10.000000 90.000000 90.000000 90.000000
O        -9.141921     4.757975     0.000000
O         8.691652     5.539491     0.000000
O       -10.826349     9.238460     0.000000
O         9.142793    -4.756709     0.000000
O        -8.690693    -5.538275     0.000000
O        10.827221    -9.237194     0.000000
N       -10.864908     2.751675     0.000000
N         7.815509     8.034767     0.000000
N        -8.227306     8.749535     0.000000
N        10.865780    -2.750409     0.000000
N        -7.814636    -8.033501     0.000000
N         8.228178    -8.748269     0.000000
C       -10.131812     5.558234     0.000000
C         9.879682     5.996620     0.000000
C       -11.024489     7.981072     0.000000
C        10.132770    -5.557018     0.000000
C        -9.878723    -5.995404     0.000000
C        11.025361    -7.979806     0.000000
C        11.033071     5.069748     0.000000
C        10.152092     7.445648     0.000000
C        -9.905782     7.020530     0.000000
C       -11.032199    -5.068482     0.000000
C       -10.151220    -7.444382     0.000000
C         9.906740    -7.019314     0.000000
C        10.761826     3.709537     0.000000
C         9.109811     8.360564     0.000000
C        -8.592305     7.465738     0.000000
C       -10.760867    -3.708321     0.000000
C        -9.108852    -8.359348     0.000000
C         8.593177    -7.464472     0.000000
C       -11.072805     1.411585     0.000000
C         6.759035     8.884900     0.000000
C        -6.962848     9.239440     0.000000
C        11.073764    -1.410369     0.000000
C        -6.758076    -8.883684     0.000000
C         6.963720    -9.238174     0.000000
C        -9.983526     0.519072     0.000000
C         5.441457     8.387788     0.000000
C        -6.734549    10.629066     0.000000
C         9.984399    -0.517806     0.000000
C        -5.440498    -8.386572     0.000000
C         6.735508   -10.627850     0.000000
C        10.180078     0.858320     0.000000
C         6.931499    10.290018     0.000000
C        -5.832195     8.387588     0.000000
C       -10.179205    -0.857055     0.000000
C        -6.930540   -10.288802     0.000000
C         5.833068    -8.386322     0.000000
H        -8.953807     0.916797     0.000000
H         5.271025     7.297192     0.000000
H        -7.593786    11.322023     0.000000
H         8.954680    -0.915531     0.000000
H        -5.270066    -7.295976     0.000000
H         7.594659   -11.320757     0.000000
H         9.703223     3.365784     0.000000
H         9.341371     9.449238     0.000000
H        -7.765213     6.720903     0.000000
H        -9.702351    -3.364518     0.000000
H        -9.340413    -9.448022     0.000000
H         7.766172    -6.719687     0.000000
H         9.296005     1.522662     0.000000
H         7.948800    10.723434     0.000000
H        -5.965473     7.289743     0.000000
H        -9.867925     3.123498     0.000000
H         7.639133     6.985476     0.000000
H        -9.047913     9.427001     0.000000
H         9.868798    -3.122232     0.000000
H        -7.638261    -6.984210     0.000000
H         9.048785    -9.425736     0.000000
S        -8.733554    -1.946313     0.000000
O        -7.604419    -0.887993     0.056000
O        -8.230680    -2.518510    -1.363600
O        -8.089615    -2.838977     1.363000
S        -8.595620   -10.998204     0.000000
O        -8.244165   -12.505466     0.055400
O        -9.343259   -11.145752    -1.363500
O        -9.691333   -11.107835     1.362800
S         6.051173    -6.589553     0.000000
O         4.569722    -6.141500     0.051700
O         6.297693    -5.859967    -1.358900
O         6.494297    -5.579839     1.360500
O         2.136079   -14.776094     0.000000
O        -2.586348   -13.994578     0.000000
O         0.451651   -10.295609     0.000000
O        -2.135207    14.777360     0.000000
O         2.587307    13.995794     0.000000
O        -0.450779    10.296875     0.000000
N         0.413092   -16.782394     0.000000
N        -3.462491   -11.499302     0.000000
N         3.050694   -10.784534     0.000000
N        -0.412220    16.783660     0.000000
N         3.463364    11.500568     0.000000
N        -3.049822    10.785800     0.000000
C         1.146188   -13.975835     0.000000
C        -1.398318   -13.537449     0.000000
C         0.253511   -11.552997     0.000000
C        -1.145230    13.977051     0.000000
C         1.399277    13.538665     0.000000
C        -0.252639    11.554263     0.000000
C        -0.244929   -14.464321     0.000000
C        -1.125908   -12.088421     0.000000
C         1.372218   -12.513539     0.000000
C         0.245801    14.465587     0.000000
C         1.126780    12.089687     0.000000
C        -1.371260    12.514755     0.000000
C        -0.516174   -15.824532     0.000000
C        -2.168189   -11.173505     0.000000
C         2.685695   -12.068331     0.000000
C         0.517133    15.825748     0.000000
C         2.169148    11.174721     0.000000
C        -2.684823    12.069597     0.000000
C         0.205195   -18.122484     0.000000
C        -4.518965   -10.649169     0.000000
C         4.315152   -10.294629     0.000000
C        -0.204236    18.123700     0.000000
C         4.519924    10.650385     0.000000
C        -4.314280    10.295895     0.000000
C         1.294474   -19.014997     0.000000
C        -5.836543   -11.146281     0.000000
C         4.543451    -8.905003     0.000000
C        -1.293601    19.016263     0.000000
C         5.837502    11.147497     0.000000
C        -4.542492     8.906219     0.000000
C        -1.097922   -18.675749     0.000000
C        -4.346501    -9.244051     0.000000
C         5.445805   -11.146481     0.000000
C         1.098795    18.677014     0.000000
C         4.347460     9.245267     0.000000
C        -5.444932    11.147747     0.000000
H         2.324193   -18.617272     0.000000
H        -6.006975   -12.236877     0.000000
H         3.684214    -8.212046     0.000000
H        -2.323320    18.618538     0.000000
H         6.007934    12.238093     0.000000
H        -3.683341     8.213312     0.000000
H        -1.574777   -16.168285     0.000000
H        -1.936629   -10.084831     0.000000
H         3.512787   -12.813166     0.000000
H         1.575649    16.169551     0.000000
H         1.937587    10.086047     0.000000
H        -3.511828    12.814382     0.000000
H        -1.981995   -18.011407     0.000000
H        -3.329200    -8.810635     0.000000
H         5.312527   -12.244326     0.000000
H         1.410075   -16.410571     0.000000
H        -3.638867   -12.548593     0.000000
H         2.230087   -10.107068     0.000000
H        -1.409202    16.411837     0.000000
H         3.639739    12.549859     0.000000
H        -2.229215    10.108333     0.000000
S         2.544446    17.587756     0.000000
O         3.673581    18.646076     0.056000
O         3.047320    17.015559    -1.363600
O         3.188385    16.695092     1.363000
S         2.682380     8.535865     0.000000
O         3.033835     7.028603     0.055400
O         1.934741     8.388317    -1.363500
O         1.586667     8.426234     1.362800
S        -5.226827    12.944516     0.000000
O        -6.708278    13.392569     0.051700
O        -4.980307    13.674102    -1.358900
O        -4.783703    13.954230     1.360500
