created by msxbox

3840 atoms
2870 bonds
2440 angles
1980 dihedrals

12 atom types
12 bond types
17 angle types
20 dihedral types
-11.2780 11.2780 xlo xhi
-19.5341 19.5341 ylo yhi
-25.0000 25.0000 zlo zhi

Masses

   1   16.000  # O
   2   14.010  # N
   3   12.010  # C
   4   12.010  # C
   5   12.010  # C
   6    1.008  # H
   7    1.008  # H
   8    1.008  # H
   9   32.060  # S
  10    1.008  # H
  11   15.999  # O
  12   22.990  # Na

Bond Coeffs

   1   262.840583     1.490700  # c-ca
   2   590.599904     1.219000  # o-c
   3   352.410373     1.091400  # ce-h4
   4   319.919933     1.394400  # nu-ca
   5   313.239723     1.400700  # nu-ce
   6   472.490440     1.013700  # nu-hn
   7   271.849904     1.480000  # ca-ce
   8   354.249522     1.398600  # ca-ca
   9   360.689532     1.086000  # ca-ha
  10   190.139818     1.829400  # ca-s6
  11   614.489723     1.465700  # s6-o
  12   517.630258     1.000000  # Ow-Hw

Angle Coeffs

   1    76.300191   127.860000  # ce-nu-ca
   2    57.460564   114.730000  # ca-nu-hn
   3    57.170172   115.000000  # ce-nu-hn
   4    77.960086   122.600000  # o-c-ca
   5    60.270076   117.930000  # ca-c-ca
   6    64.500478   120.000000  # c-ca-c
   7    64.500478   120.000000  # c-ca-ce
   8    48.550430   115.060000  # nu-ce-h4
   9    43.280354   117.150000  # ca-ce-h4
  10    66.359943   117.040000  # nu-ce-ca
  11    67.490440   120.740000  # nu-ca-ca
  12    63.669933   120.020000  # ca-ca-ca
  13    44.899618   119.880000  # ca-ca-ha
  14    61.760277   120.360000  # ca-ca-s6
  15   120.899857   104.110000  # ca-s6-o
  16   158.500239   120.210000  # o-s6-o
  17    37.950526   109.470000  # Hw-Ow-Hw

Dihedral Coeffs

   1    1     1.000000    2   180.000000  # o-c-ca-c
   2    1     1.000000    2   180.000000  # o-c-ca-ce
   3    1     1.000000    2   180.000000  # c-ca-c-ca
   4    1     1.000000    2   180.000000  # ca-c-ca-ce
   5    1     0.120005    2   180.000000  # ce-nu-ca-ca
   6    1     0.800000    2   180.000000  # ca-ce-nu-ca
   7    1     1.097490    2   180.000000  # nu-ce-ca-c
   8    1     3.625000    2   180.000000  # nu-ca-ca-ca
   9    1     3.625000    2   180.000000  # nu-ca-ca-ha
  10    1     3.625000    2   180.000000  # ca-ca-ca-ca
  11    1     3.625000    2   180.000000  # ca-ca-ca-ha
  12    1     3.625000    2   180.000000  # ha-ca-ca-ha
  13    1     3.625000    2   180.000000  # ca-ca-ca-s6
  14    1     3.625000    2   180.000000  # ha-ca-ca-s6
  15    1     3.625000    2   180.000000  # nu-ca-ca-s6
  16    1     1.300000    2   180.000000  # ca-ca-s6-o
  17    1    10.500000    2   180.000000  # o-ca-c-ca
  18    1     1.100000    2   180.000000  # c-c-ca-ce
  19    1     1.100000    2   180.000000  # ha-ca-ca-ca
  20    1     1.100000    2   180.000000  # s6-ca-ca-ca

Atoms

      1       1    1  -0.569996000000    -8.933360     4.395502    -6.802017  # O0 COF_ff_trans_trans
      2       1    1  -0.569996000000     8.900213     5.177018    -6.802017  # O1 COF_ff_trans_trans
      3       1    1  -0.569996000000   -10.617788     8.875987    -6.802017  # O2 COF_ff_trans_trans
      4       1    1  -0.569996000000     9.351354    -5.119182    -6.802017  # O3 COF_ff_trans_trans
      5       1    1  -0.569996000000    -8.482132    -5.900748    -6.802017  # O4 COF_ff_trans_trans
      6       1    1  -0.569996000000    11.035782    -9.599667    -6.802017  # O5 COF_ff_trans_trans
      7       1    2  -0.599996000000   -10.656347     2.389202    -6.802017  # N6 COF_ff_trans_trans
      8       1    2  -0.599996000000     8.024070     7.672294    -6.802017  # N7 COF_ff_trans_trans
      9       1    2  -0.599996000000    -8.018745     8.387062    -6.802017  # N8 COF_ff_trans_trans
     10       1    2  -0.599996000000    11.074341    -3.112882    -6.802017  # N9 COF_ff_trans_trans
     11       1    2  -0.599996000000    -7.606075    -8.395974    -6.802017  # N10 COF_ff_trans_trans
     12       1    2  -0.599996000000     8.436739    -9.110742    -6.802017  # N11 COF_ff_trans_trans
     13       1    3   0.541204000000    -9.923251     5.195761    -6.802017  # C12 COF_ff_trans_trans
     14       1    3   0.541204000000    10.088243     5.634147    -6.802017  # C13 COF_ff_trans_trans
     15       1    3   0.541204000000   -10.815928     7.618599    -6.802017  # C14 COF_ff_trans_trans
     16       1    3   0.541204000000    10.341331    -5.919491    -6.802017  # C15 COF_ff_trans_trans
     17       1    3   0.541204000000    -9.670162    -6.357877    -6.802017  # C16 COF_ff_trans_trans
     18       1    3   0.541204000000    11.233922    -8.342279    -6.802017  # C17 COF_ff_trans_trans
     19       1    4   0.028804000000    11.241632     4.707275    -6.802017  # C18 COF_ff_trans_trans
     20       1    4   0.028804000000    10.360653     7.083175    -6.802017  # C19 COF_ff_trans_trans
     21       1    4   0.028804000000    -9.697221     6.658057    -6.802017  # C20 COF_ff_trans_trans
     22       1    4   0.028804000000   -10.823638    -5.430955    -6.802017  # C21 COF_ff_trans_trans
     23       1    4   0.028804000000    -9.942659    -7.806855    -6.802017  # C22 COF_ff_trans_trans
     24       1    4   0.028804000000    10.115301    -7.381787    -6.802017  # C23 COF_ff_trans_trans
     25       1    5  -0.049996000000    10.970387     3.347064    -6.802017  # C24 COF_ff_trans_trans
     26       1    5  -0.049996000000     9.318372     7.998091    -6.802017  # C25 COF_ff_trans_trans
     27       1    5  -0.049996000000    -8.383744     7.103265    -6.802017  # C26 COF_ff_trans_trans
     28       1    5  -0.049996000000   -10.552306    -4.070794    -6.802017  # C27 COF_ff_trans_trans
     29       1    5  -0.049996000000    -8.900291    -8.721821    -6.802017  # C28 COF_ff_trans_trans
     30       1    5  -0.049996000000     8.801738    -7.826945    -6.802017  # C29 COF_ff_trans_trans
     31       1    4   0.100004000000   -10.864244     1.049112    -6.802017  # C30 COF_ff_trans_trans
     32       1    4   0.100004000000     6.967596     8.522427    -6.802017  # C31 COF_ff_trans_trans
     33       1    4   0.100004000000    -6.754287     8.876967    -6.802017  # C32 COF_ff_trans_trans
     34       1    4   0.100004000000    11.282325    -1.772842    -6.802017  # C33 COF_ff_trans_trans
     35       1    4   0.100004000000    -6.549515    -9.246157    -6.802017  # C34 COF_ff_trans_trans
     36       1    4   0.100004000000     7.172281    -9.600647    -6.802017  # C35 COF_ff_trans_trans
     37       1    4  -0.149996000000    -9.774965     0.156599    -6.802017  # C36 COF_ff_trans_trans
     38       1    4  -0.149996000000     5.650018     8.025315    -6.802017  # C37 COF_ff_trans_trans
     39       1    4  -0.149996000000    -6.525988    10.266593    -6.802017  # C38 COF_ff_trans_trans
     40       1    4  -0.149996000000    10.192960    -0.880279    -6.802017  # C39 COF_ff_trans_trans
     41       1    4  -0.149996000000    -5.231937    -8.749045    -6.802017  # C40 COF_ff_trans_trans
     42       1    4  -0.149996000000     6.944069   -10.990323    -6.802017  # C41 COF_ff_trans_trans
     43       1    4  -0.149996000000    10.388639     0.495847    -6.802017  # C42 COF_ff_trans_trans
     44       1    4  -0.149996000000     7.140060     9.927545    -6.802017  # C43 COF_ff_trans_trans
     45       1    4  -0.149996000000    -5.623634     8.025115    -6.802017  # C44 COF_ff_trans_trans
     46       1    4  -0.008996000000    -9.970644    -1.219528    -6.802017  # C45 COF_ff_trans_trans
     47       1    4  -0.008996000000    -6.721979   -10.651275    -6.802017  # C46 COF_ff_trans_trans
     48       1    4  -0.008996000000     6.041629    -8.748795    -6.802017  # C47 COF_ff_trans_trans
     49       1    6   0.150004000000    -8.745246     0.554324    -6.802017  # H48 COF_ff_trans_trans
     50       1    6   0.150004000000     5.479586     6.934719    -6.802017  # H49 COF_ff_trans_trans
     51       1    6   0.150004000000    -7.385225    10.959550    -6.802017  # H50 COF_ff_trans_trans
     52       1    6   0.150004000000     9.163241    -1.278004    -6.802017  # H51 COF_ff_trans_trans
     53       1    6   0.150004000000    -5.061505    -7.658449    -6.802017  # H52 COF_ff_trans_trans
     54       1    6   0.150004000000     7.803220   -11.683230    -6.802017  # H53 COF_ff_trans_trans
     55       1    7   0.150004000000     9.911784     3.003311    -6.802017  # H54 COF_ff_trans_trans
     56       1    7   0.150004000000     9.549932     9.086765    -6.802017  # H55 COF_ff_trans_trans
     57       1    7   0.150004000000    -7.556652     6.358430    -6.802017  # H56 COF_ff_trans_trans
     58       1    7   0.150004000000    -9.493790    -3.726991    -6.802017  # H57 COF_ff_trans_trans
     59       1    7   0.150004000000    -9.131852    -9.810495    -6.802017  # H58 COF_ff_trans_trans
     60       1    7   0.150004000000     7.974733    -7.082160    -6.802017  # H59 COF_ff_trans_trans
     61       1    6   0.150004000000     9.504566     1.160189    -6.802017  # H60 COF_ff_trans_trans
     62       1    6   0.150004000000     8.157361    10.360961    -6.802017  # H61 COF_ff_trans_trans
     63       1    6   0.150004000000    -5.756912     6.927270    -6.802017  # H62 COF_ff_trans_trans
     64       1    8   0.400004000000    -9.659364     2.761025    -6.802017  # H63 COF_ff_trans_trans
     65       1    8   0.400004000000     7.847694     6.623003    -6.802017  # H64 COF_ff_trans_trans
     66       1    8   0.400004000000    -8.839352     9.064528    -6.802017  # H65 COF_ff_trans_trans
     67       1    8   0.400004000000    10.077359    -3.484705    -6.802017  # H66 COF_ff_trans_trans
     68       1    8   0.400004000000    -7.429700    -7.346683    -6.802017  # H67 COF_ff_trans_trans
     69       1    8   0.400004000000     9.257346    -9.788209    -6.802017  # H68 COF_ff_trans_trans
     70       1    9   1.459004000000    -8.524993    -2.308786    -6.802017  # S69 COF_ff_trans_trans
     71       1    1  -0.816696000000    -7.395858    -1.250466    -6.746017  # O70 COF_ff_trans_trans
     72       1    1  -0.816696000000    -8.022119    -2.880983    -8.165617  # O71 COF_ff_trans_trans
     73       1    1  -0.816696000000    -7.881054    -3.201450    -5.439017  # O72 COF_ff_trans_trans
     74       1    9   1.459004000000    -8.387059   -11.360677    -6.802017  # S73 COF_ff_trans_trans
     75       1    1  -0.816696000000    -8.035604   -12.867939    -6.746617  # O74 COF_ff_trans_trans
     76       1    1  -0.816696000000    -9.134698   -11.508225    -8.165517  # O75 COF_ff_trans_trans
     77       1    1  -0.816696000000    -9.482772   -11.470308    -5.439217  # O76 COF_ff_trans_trans
     78       1    9   1.459004000000     6.259734    -6.952026    -6.802017  # S77 COF_ff_trans_trans
     79       1    1  -0.816696000000     4.778283    -6.503973    -6.750317  # O78 COF_ff_trans_trans
     80       1    1  -0.816696000000     6.506254    -6.222440    -8.160917  # O79 COF_ff_trans_trans
     81       1    1  -0.816720000000     6.702858    -5.942312    -5.441517  # O80 COF_ff_trans_trans
     82       1    1  -0.569996000000     2.344640   -15.138567    -6.802017  # O0 COF_ff_trans_trans
     83       1    1  -0.569996000000    -2.377787   -14.357051    -6.802017  # O1 COF_ff_trans_trans
     84       1    1  -0.569996000000     0.660212   -10.658082    -6.802017  # O2 COF_ff_trans_trans
     85       1    1  -0.569996000000    -1.926646    14.414887    -6.802017  # O3 COF_ff_trans_trans
     86       1    1  -0.569996000000     2.795868    13.633321    -6.802017  # O4 COF_ff_trans_trans
     87       1    1  -0.569996000000    -0.242218     9.934402    -6.802017  # O5 COF_ff_trans_trans
     88       1    2  -0.599996000000     0.621653   -17.144867    -6.802017  # N6 COF_ff_trans_trans
     89       1    2  -0.599996000000    -3.253930   -11.861775    -6.802017  # N7 COF_ff_trans_trans
     90       1    2  -0.599996000000     3.259255   -11.147007    -6.802017  # N8 COF_ff_trans_trans
     91       1    2  -0.599996000000    -0.203659    16.421187    -6.802017  # N9 COF_ff_trans_trans
     92       1    2  -0.599996000000     3.671925    11.138095    -6.802017  # N10 COF_ff_trans_trans
     93       1    2  -0.599996000000    -2.841261    10.423327    -6.802017  # N11 COF_ff_trans_trans
     94       1    3   0.541204000000     1.354749   -14.338308    -6.802017  # C12 COF_ff_trans_trans
     95       1    3   0.541204000000    -1.189757   -13.899922    -6.802017  # C13 COF_ff_trans_trans
     96       1    3   0.541204000000     0.462072   -11.915470    -6.802017  # C14 COF_ff_trans_trans
     97       1    3   0.541204000000    -0.936669    13.614578    -6.802017  # C15 COF_ff_trans_trans
     98       1    3   0.541204000000     1.607838    13.176192    -6.802017  # C16 COF_ff_trans_trans
     99       1    3   0.541204000000    -0.044078    11.191790    -6.802017  # C17 COF_ff_trans_trans
    100       1    4   0.028804000000    -0.036368   -14.826794    -6.802017  # C18 COF_ff_trans_trans
    101       1    4   0.028804000000    -0.917347   -12.450894    -6.802017  # C19 COF_ff_trans_trans
    102       1    4   0.028804000000     1.580779   -12.876012    -6.802017  # C20 COF_ff_trans_trans
    103       1    4   0.028804000000     0.454362    14.103114    -6.802017  # C21 COF_ff_trans_trans
    104       1    4   0.028804000000     1.335341    11.727214    -6.802017  # C22 COF_ff_trans_trans
    105       1    4   0.028804000000    -1.162699    12.152282    -6.802017  # C23 COF_ff_trans_trans
    106       1    5  -0.049996000000    -0.307613   -16.187005    -6.802017  # C24 COF_ff_trans_trans
    107       1    5  -0.049996000000    -1.959628   -11.535978    -6.802017  # C25 COF_ff_trans_trans
    108       1    5  -0.049996000000     2.894256   -12.430804    -6.802017  # C26 COF_ff_trans_trans
    109       1    5  -0.049996000000     0.725694    15.463275    -6.802017  # C27 COF_ff_trans_trans
    110       1    5  -0.049996000000     2.377709    10.812248    -6.802017  # C28 COF_ff_trans_trans
    111       1    5  -0.049996000000    -2.476262    11.707124    -6.802017  # C29 COF_ff_trans_trans
    112       1    4   0.100004000000     0.413756   -18.484957    -6.802017  # C30 COF_ff_trans_trans
    113       1    4   0.100004000000    -4.310404   -11.011642    -6.802017  # C31 COF_ff_trans_trans
    114       1    4   0.100004000000     4.523713   -10.657102    -6.802017  # C32 COF_ff_trans_trans
    115       1    4   0.100004000000     0.004325    17.761227    -6.802017  # C33 COF_ff_trans_trans
    116       1    4   0.100004000000     4.728485    10.287912    -6.802017  # C34 COF_ff_trans_trans
    117       1    4   0.100004000000    -4.105719     9.933422    -6.802017  # C35 COF_ff_trans_trans
    118       1    4  -0.149996000000     1.503035   -19.377470    -6.802017  # C36 COF_ff_trans_trans
    119       1    4  -0.149996000000    -5.627982   -11.508754    -6.802017  # C37 COF_ff_trans_trans
    120       1    4  -0.149996000000     4.752012    -9.267476    -6.802017  # C38 COF_ff_trans_trans
    121       1    4  -0.149996000000    -1.085040    18.653790    -6.802017  # C39 COF_ff_trans_trans
    122       1    4  -0.149996000000     6.046063    10.785024    -6.802017  # C40 COF_ff_trans_trans
    123       1    4  -0.149996000000    -4.333931     8.543746    -6.802017  # C41 COF_ff_trans_trans
    124       1    4  -0.149996000000    -0.889361   -19.038222    -6.802017  # C42 COF_ff_trans_trans
    125       1    4  -0.149996000000    -4.137940    -9.606524    -6.802017  # C43 COF_ff_trans_trans
    126       1    4  -0.149996000000     5.654366   -11.508954    -6.802017  # C44 COF_ff_trans_trans
    127       1    4  -0.008996000000     1.307356    18.314541    -6.802017  # C45 COF_ff_trans_trans
    128       1    4  -0.008996000000     4.556021     8.882794    -6.802017  # C46 COF_ff_trans_trans
    129       1    4  -0.008996000000    -5.236371    10.785274    -6.802017  # C47 COF_ff_trans_trans
    130       1    6   0.150004000000     2.532754   -18.979745    -6.802017  # H48 COF_ff_trans_trans
    131       1    6   0.150004000000    -5.798414   -12.599350    -6.802017  # H49 COF_ff_trans_trans
    132       1    6   0.150004000000     3.892775    -8.574519    -6.802017  # H50 COF_ff_trans_trans
    133       1    6   0.150004000000    -2.114759    18.256065    -6.802017  # H51 COF_ff_trans_trans
    134       1    6   0.150004000000     6.216495    11.875620    -6.802017  # H52 COF_ff_trans_trans
    135       1    6   0.150004000000    -3.474780     7.850839    -6.802017  # H53 COF_ff_trans_trans
    136       1    7   0.150004000000    -1.366216   -16.530758    -6.802017  # H54 COF_ff_trans_trans
    137       1    7   0.150004000000    -1.728068   -10.447304    -6.802017  # H55 COF_ff_trans_trans
    138       1    7   0.150004000000     3.721348   -13.175639    -6.802017  # H56 COF_ff_trans_trans
    139       1    7   0.150004000000     1.784210    15.807078    -6.802017  # H57 COF_ff_trans_trans
    140       1    7   0.150004000000     2.146148     9.723574    -6.802017  # H58 COF_ff_trans_trans
    141       1    7   0.150004000000    -3.303267    12.451909    -6.802017  # H59 COF_ff_trans_trans
    142       1    6   0.150004000000    -1.773434   -18.373880    -6.802017  # H60 COF_ff_trans_trans
    143       1    6   0.150004000000    -3.120639    -9.173108    -6.802017  # H61 COF_ff_trans_trans
    144       1    6   0.150004000000     5.521088   -12.606799    -6.802017  # H62 COF_ff_trans_trans
    145       1    8   0.400004000000     1.618636   -16.773044    -6.802017  # H63 COF_ff_trans_trans
    146       1    8   0.400004000000    -3.430306   -12.911066    -6.802017  # H64 COF_ff_trans_trans
    147       1    8   0.400004000000     2.438648   -10.469541    -6.802017  # H65 COF_ff_trans_trans
    148       1    8   0.400004000000    -1.200641    16.049364    -6.802017  # H66 COF_ff_trans_trans
    149       1    8   0.400004000000     3.848300    12.187386    -6.802017  # H67 COF_ff_trans_trans
    150       1    8   0.400004000000    -2.020654     9.745860    -6.802017  # H68 COF_ff_trans_trans
    151       1    9   1.459004000000     2.753007    17.225283    -6.802017  # S69 COF_ff_trans_trans
    152       1    1  -0.816696000000     3.882142    18.283603    -6.746017  # O70 COF_ff_trans_trans
    153       1    1  -0.816696000000     3.255881    16.653086    -8.165617  # O71 COF_ff_trans_trans
    154       1    1  -0.816696000000     3.396946    16.332619    -5.439017  # O72 COF_ff_trans_trans
    155       1    9   1.459004000000     2.890941     8.173392    -6.802017  # S73 COF_ff_trans_trans
    156       1    1  -0.816696000000     3.242396     6.666130    -6.746617  # O74 COF_ff_trans_trans
    157       1    1  -0.816696000000     2.143302     8.025844    -8.165517  # O75 COF_ff_trans_trans
    158       1    1  -0.816696000000     1.795228     8.063761    -5.439217  # O76 COF_ff_trans_trans
    159       1    9   1.459004000000    -5.018266    12.582043    -6.802017  # S77 COF_ff_trans_trans
    160       1    1  -0.816696000000    -6.499717    13.030096    -6.750317  # O78 COF_ff_trans_trans
    161       1    1  -0.816696000000    -4.771746    13.311629    -8.160917  # O79 COF_ff_trans_trans
    162       1    1  -0.816720000000    -4.575142    13.591757    -5.441517  # O80 COF_ff_trans_trans
    163       2    1  -0.569996000000     8.933362    -4.395499    -3.402017  # O0 COF_ff_trans_trans
    164       2    1  -0.569996000000    -8.900211    -5.177021    -3.402017  # O1 COF_ff_trans_trans
    165       2    1  -0.569996000000    10.617791    -8.875983    -3.402017  # O2 COF_ff_trans_trans
    166       2    1  -0.569996000000    -9.351356     5.119179    -3.402017  # O3 COF_ff_trans_trans
    167       2    1  -0.569996000000     8.482130     5.900751    -3.402017  # O4 COF_ff_trans_trans
    168       2    1  -0.569996000000   -11.035785     9.599663    -3.402017  # O5 COF_ff_trans_trans
    169       2    2  -0.599996000000    10.656348    -2.389198    -3.402017  # N6 COF_ff_trans_trans
    170       2    2  -0.599996000000    -8.024067    -7.672297    -3.402017  # N7 COF_ff_trans_trans
    171       2    2  -0.599996000000     8.018748    -8.387059    -3.402017  # N8 COF_ff_trans_trans
    172       2    2  -0.599996000000   -11.074342     3.112878    -3.402017  # N9 COF_ff_trans_trans
    173       2    2  -0.599996000000     7.606072     8.395977    -3.402017  # N10 COF_ff_trans_trans
    174       2    2  -0.599996000000    -8.436742     9.110739    -3.402017  # N11 COF_ff_trans_trans
    175       2    3   0.541204000000     9.923253    -5.195758    -3.402017  # C12 COF_ff_trans_trans
    176       2    3   0.541204000000   -10.088241    -5.634150    -3.402017  # C13 COF_ff_trans_trans
    177       2    3   0.541204000000    10.815931    -7.618595    -3.402017  # C14 COF_ff_trans_trans
    178       2    3   0.541204000000   -10.341333     5.919487    -3.402017  # C15 COF_ff_trans_trans
    179       2    3   0.541204000000     9.670160     6.357880    -3.402017  # C16 COF_ff_trans_trans
    180       2    3   0.541204000000   -11.233925     8.342275    -3.402017  # C17 COF_ff_trans_trans
    181       2    4   0.028804000000   -11.241630    -4.707279    -3.402017  # C18 COF_ff_trans_trans
    182       2    4   0.028804000000   -10.360650    -7.083179    -3.402017  # C19 COF_ff_trans_trans
    183       2    4   0.028804000000     9.697223    -6.658054    -3.402017  # C20 COF_ff_trans_trans
    184       2    4   0.028804000000    10.823636     5.430959    -3.402017  # C21 COF_ff_trans_trans
    185       2    4   0.028804000000     9.942656     7.806858    -3.402017  # C22 COF_ff_trans_trans
    186       2    4   0.028804000000   -10.115303     7.381784    -3.402017  # C23 COF_ff_trans_trans
    187       2    5  -0.049996000000   -10.970386    -3.347068    -3.402017  # C24 COF_ff_trans_trans
    188       2    5  -0.049996000000    -9.318369    -7.998094    -3.402017  # C25 COF_ff_trans_trans
    189       2    5  -0.049996000000     8.383747    -7.103262    -3.402017  # C26 COF_ff_trans_trans
    190       2    5  -0.049996000000    10.552305     4.070798    -3.402017  # C27 COF_ff_trans_trans
    191       2    5  -0.049996000000     8.900288     8.721824    -3.402017  # C28 COF_ff_trans_trans
    192       2    5  -0.049996000000    -8.801741     7.826942    -3.402017  # C29 COF_ff_trans_trans
    193       2    4   0.100004000000    10.864244    -1.049108    -3.402017  # C30 COF_ff_trans_trans
    194       2    4   0.100004000000    -6.967593    -8.522429    -3.402017  # C31 COF_ff_trans_trans
    195       2    4   0.100004000000     6.754290    -8.876965    -3.402017  # C32 COF_ff_trans_trans
    196       2    4   0.100004000000   -11.282325     1.772838    -3.402017  # C33 COF_ff_trans_trans
    197       2    4   0.100004000000     6.549512     9.246159    -3.402017  # C34 COF_ff_trans_trans
    198       2    4   0.100004000000    -7.172284     9.600645    -3.402017  # C35 COF_ff_trans_trans
    199       2    4  -0.149996000000     9.774965    -0.156596    -3.402017  # C36 COF_ff_trans_trans
    200       2    4  -0.149996000000    -5.650015    -8.025317    -3.402017  # C37 COF_ff_trans_trans
    201       2    4  -0.149996000000     6.525992   -10.266591    -3.402017  # C38 COF_ff_trans_trans
    202       2    4  -0.149996000000   -10.192960     0.880276    -3.402017  # C39 COF_ff_trans_trans
    203       2    4  -0.149996000000     5.231934     8.749047    -3.402017  # C40 COF_ff_trans_trans
    204       2    4  -0.149996000000    -6.944073    10.990321    -3.402017  # C41 COF_ff_trans_trans
    205       2    4  -0.149996000000   -10.388639    -0.495851    -3.402017  # C42 COF_ff_trans_trans
    206       2    4  -0.149996000000    -7.140056    -9.927547    -3.402017  # C43 COF_ff_trans_trans
    207       2    4  -0.149996000000     5.623637    -8.025113    -3.402017  # C44 COF_ff_trans_trans
    208       2    4  -0.008996000000     9.970644     1.219531    -3.402017  # C45 COF_ff_trans_trans
    209       2    4  -0.008996000000     6.721975    10.651277    -3.402017  # C46 COF_ff_trans_trans
    210       2    4  -0.008996000000    -6.041632     8.748793    -3.402017  # C47 COF_ff_trans_trans
    211       2    6   0.150004000000     8.745246    -0.554321    -3.402017  # H48 COF_ff_trans_trans
    212       2    6   0.150004000000    -5.479583    -6.934721    -3.402017  # H49 COF_ff_trans_trans
    213       2    6   0.150004000000     7.385229   -10.959547    -3.402017  # H50 COF_ff_trans_trans
    214       2    6   0.150004000000    -9.163241     1.278001    -3.402017  # H51 COF_ff_trans_trans
    215       2    6   0.150004000000     5.061502     7.658451    -3.402017  # H52 COF_ff_trans_trans
    216       2    6   0.150004000000    -7.803224    11.683227    -3.402017  # H53 COF_ff_trans_trans
    217       2    7   0.150004000000    -9.911783    -3.003314    -3.402017  # H54 COF_ff_trans_trans
    218       2    7   0.150004000000    -9.549929    -9.086768    -3.402017  # H55 COF_ff_trans_trans
    219       2    7   0.150004000000     7.556654    -6.358427    -3.402017  # H56 COF_ff_trans_trans
    220       2    7   0.150004000000     9.493789     3.726994    -3.402017  # H57 COF_ff_trans_trans
    221       2    7   0.150004000000     9.131849     9.810498    -3.402017  # H58 COF_ff_trans_trans
    222       2    7   0.150004000000    -7.974735     7.082157    -3.402017  # H59 COF_ff_trans_trans
    223       2    6   0.150004000000    -9.504565    -1.160192    -3.402017  # H60 COF_ff_trans_trans
    224       2    6   0.150004000000    -8.157357   -10.360964    -3.402017  # H61 COF_ff_trans_trans
    225       2    6   0.150004000000     5.756915    -6.927268    -3.402017  # H62 COF_ff_trans_trans
    226       2    8   0.400004000000     9.659365    -2.761022    -3.402017  # H63 COF_ff_trans_trans
    227       2    8   0.400004000000    -7.847692    -6.623006    -3.402017  # H64 COF_ff_trans_trans
    228       2    8   0.400004000000     8.839355    -9.064525    -3.402017  # H65 COF_ff_trans_trans
    229       2    8   0.400004000000   -10.077360     3.484702    -3.402017  # H66 COF_ff_trans_trans
    230       2    8   0.400004000000     7.429698     7.346686    -3.402017  # H67 COF_ff_trans_trans
    231       2    8   0.400004000000    -9.257349     9.788206    -3.402017  # H68 COF_ff_trans_trans
    232       2    9   1.459004000000     8.524992     2.308789    -3.402017  # S69 COF_ff_trans_trans
    233       2    1  -0.816696000000     7.395858     1.250469    -3.346017  # O70 COF_ff_trans_trans
    234       2    1  -0.816696000000     8.022118     2.880986    -4.765617  # O71 COF_ff_trans_trans
    235       2    1  -0.816696000000     7.881053     3.201453    -2.039017  # O72 COF_ff_trans_trans
    236       2    9   1.459004000000     8.387055    11.360680    -3.402017  # S73 COF_ff_trans_trans
    237       2    1  -0.816696000000     8.035600    12.867942    -3.346617  # O74 COF_ff_trans_trans
    238       2    1  -0.816696000000     9.134694    11.508228    -4.765517  # O75 COF_ff_trans_trans
    239       2    1  -0.816696000000     9.482768    11.470311    -2.039217  # O76 COF_ff_trans_trans
    240       2    9   1.459004000000    -6.259736     6.952024    -3.402017  # S77 COF_ff_trans_trans
    241       2    1  -0.816696000000    -4.778285     6.503971    -3.350317  # O78 COF_ff_trans_trans
    242       2    1  -0.816696000000    -6.506256     6.222438    -4.760917  # O79 COF_ff_trans_trans
    243       2    1  -0.816720000000    -6.702860     5.942310    -2.041517  # O80 COF_ff_trans_trans
    244       2    1  -0.569996000000    -2.344645    15.138566    -3.402017  # O0 COF_ff_trans_trans
    245       2    1  -0.569996000000     2.377782    14.357052    -3.402017  # O1 COF_ff_trans_trans
    246       2    1  -0.569996000000    -0.660216    10.658082    -3.402017  # O2 COF_ff_trans_trans
    247       2    1  -0.569996000000     1.926651   -14.414886    -3.402017  # O3 COF_ff_trans_trans
    248       2    1  -0.569996000000    -2.795863   -13.633322    -3.402017  # O4 COF_ff_trans_trans
    249       2    1  -0.569996000000     0.242222    -9.934402    -3.402017  # O5 COF_ff_trans_trans
    250       2    2  -0.599996000000    -0.621659    17.144867    -3.402017  # N6 COF_ff_trans_trans
    251       2    2  -0.599996000000     3.253926    11.861776    -3.402017  # N7 COF_ff_trans_trans
    252       2    2  -0.599996000000    -3.259259    11.147006    -3.402017  # N8 COF_ff_trans_trans
    253       2    2  -0.599996000000     0.203665   -16.421187    -3.402017  # N9 COF_ff_trans_trans
    254       2    2  -0.599996000000    -3.671921   -11.138096    -3.402017  # N10 COF_ff_trans_trans
    255       2    2  -0.599996000000     2.841265   -10.423326    -3.402017  # N11 COF_ff_trans_trans
    256       2    3   0.541204000000    -1.354754    14.338308    -3.402017  # C12 COF_ff_trans_trans
    257       2    3   0.541204000000     1.189752    13.899922    -3.402017  # C13 COF_ff_trans_trans
    258       2    3   0.541204000000    -0.462076    11.915470    -3.402017  # C14 COF_ff_trans_trans
    259       2    3   0.541204000000     0.936674   -13.614578    -3.402017  # C15 COF_ff_trans_trans
    260       2    3   0.541204000000    -1.607833   -13.176193    -3.402017  # C16 COF_ff_trans_trans
    261       2    3   0.541204000000     0.044082   -11.191790    -3.402017  # C17 COF_ff_trans_trans
    262       2    4   0.028804000000     0.036363    14.826794    -3.402017  # C18 COF_ff_trans_trans
    263       2    4   0.028804000000     0.917343    12.450894    -3.402017  # C19 COF_ff_trans_trans
    264       2    4   0.028804000000    -1.580783    12.876011    -3.402017  # C20 COF_ff_trans_trans
    265       2    4   0.028804000000    -0.454357   -14.103114    -3.402017  # C21 COF_ff_trans_trans
    266       2    4   0.028804000000    -1.335337   -11.727214    -3.402017  # C22 COF_ff_trans_trans
    267       2    4   0.028804000000     1.162703   -12.152282    -3.402017  # C23 COF_ff_trans_trans
    268       2    5  -0.049996000000     0.307608    16.187005    -3.402017  # C24 COF_ff_trans_trans
    269       2    5  -0.049996000000     1.959624    11.535979    -3.402017  # C25 COF_ff_trans_trans
    270       2    5  -0.049996000000    -2.894260    12.430803    -3.402017  # C26 COF_ff_trans_trans
    271       2    5  -0.049996000000    -0.725689   -15.463275    -3.402017  # C27 COF_ff_trans_trans
    272       2    5  -0.049996000000    -2.377705   -10.812249    -3.402017  # C28 COF_ff_trans_trans
    273       2    5  -0.049996000000     2.476266   -11.707123    -3.402017  # C29 COF_ff_trans_trans
    274       2    4   0.100004000000    -0.413762    18.484957    -3.402017  # C30 COF_ff_trans_trans
    275       2    4   0.100004000000     4.310400    11.011644    -3.402017  # C31 COF_ff_trans_trans
    276       2    4   0.100004000000    -4.523717    10.657100    -3.402017  # C32 COF_ff_trans_trans
    277       2    4   0.100004000000    -0.004319   -17.761227    -3.402017  # C33 COF_ff_trans_trans
    278       2    4   0.100004000000    -4.728481   -10.287914    -3.402017  # C34 COF_ff_trans_trans
    279       2    4   0.100004000000     4.105723    -9.933421    -3.402017  # C35 COF_ff_trans_trans
    280       2    4  -0.149996000000    -1.503042    19.377470    -3.402017  # C36 COF_ff_trans_trans
    281       2    4  -0.149996000000     5.627978    11.508756    -3.402017  # C37 COF_ff_trans_trans
    282       2    4  -0.149996000000    -4.752015     9.267474    -3.402017  # C38 COF_ff_trans_trans
    283       2    4  -0.149996000000     1.085047   -18.653790    -3.402017  # C39 COF_ff_trans_trans
    284       2    4  -0.149996000000    -6.046059   -10.785026    -3.402017  # C40 COF_ff_trans_trans
    285       2    4  -0.149996000000     4.333934    -8.543744    -3.402017  # C41 COF_ff_trans_trans
    286       2    4  -0.149996000000     0.889355    19.038222    -3.402017  # C42 COF_ff_trans_trans
    287       2    4  -0.149996000000     4.137937     9.606525    -3.402017  # C43 COF_ff_trans_trans
    288       2    4  -0.149996000000    -5.654370    11.508952    -3.402017  # C44 COF_ff_trans_trans
    289       2    4  -0.008996000000    -1.307350   -18.314541    -3.402017  # C45 COF_ff_trans_trans
    290       2    4  -0.008996000000    -4.556018    -8.882796    -3.402017  # C46 COF_ff_trans_trans
    291       2    4  -0.008996000000     5.236375   -10.785272    -3.402017  # C47 COF_ff_trans_trans
    292       2    6   0.150004000000    -2.532760    18.979744    -3.402017  # H48 COF_ff_trans_trans
    293       2    6   0.150004000000     5.798410    12.599352    -3.402017  # H49 COF_ff_trans_trans
    294       2    6   0.150004000000    -3.892778     8.574518    -3.402017  # H50 COF_ff_trans_trans
    295       2    6   0.150004000000     2.114765   -18.256064    -3.402017  # H51 COF_ff_trans_trans
    296       2    6   0.150004000000    -6.216491   -11.875622    -3.402017  # H52 COF_ff_trans_trans
    297       2    6   0.150004000000     3.474783    -7.850838    -3.402017  # H53 COF_ff_trans_trans
    298       2    7   0.150004000000     1.366210    16.530759    -3.402017  # H54 COF_ff_trans_trans
    299       2    7   0.150004000000     1.728065    10.447305    -3.402017  # H55 COF_ff_trans_trans
    300       2    7   0.150004000000    -3.721352    13.175638    -3.402017  # H56 COF_ff_trans_trans
    301       2    7   0.150004000000    -1.784204   -15.807079    -3.402017  # H57 COF_ff_trans_trans
    302       2    7   0.150004000000    -2.146144    -9.723575    -3.402017  # H58 COF_ff_trans_trans
    303       2    7   0.150004000000     3.303271   -12.451908    -3.402017  # H59 COF_ff_trans_trans
    304       2    6   0.150004000000     1.773428    18.373881    -3.402017  # H60 COF_ff_trans_trans
    305       2    6   0.150004000000     3.120636     9.173109    -3.402017  # H61 COF_ff_trans_trans
    306       2    6   0.150004000000    -5.521092    12.606797    -3.402017  # H62 COF_ff_trans_trans
    307       2    8   0.400004000000    -1.618642    16.773043    -3.402017  # H63 COF_ff_trans_trans
    308       2    8   0.400004000000     3.430302    12.911067    -3.402017  # H64 COF_ff_trans_trans
    309       2    8   0.400004000000    -2.438651    10.469540    -3.402017  # H65 COF_ff_trans_trans
    310       2    8   0.400004000000     1.200647   -16.049364    -3.402017  # H66 COF_ff_trans_trans
    311       2    8   0.400004000000    -3.848296   -12.187387    -3.402017  # H67 COF_ff_trans_trans
    312       2    8   0.400004000000     2.020658    -9.745859    -3.402017  # H68 COF_ff_trans_trans
    313       2    9   1.459004000000    -2.753001   -17.225284    -3.402017  # S69 COF_ff_trans_trans
    314       2    1  -0.816696000000    -3.882136   -18.283604    -3.346017  # O70 COF_ff_trans_trans
    315       2    1  -0.816696000000    -3.255875   -16.653087    -4.765617  # O71 COF_ff_trans_trans
    316       2    1  -0.816696000000    -3.396940   -16.332620    -2.039017  # O72 COF_ff_trans_trans
    317       2    9   1.459004000000    -2.890938    -8.173393    -3.402017  # S73 COF_ff_trans_trans
    318       2    1  -0.816696000000    -3.242394    -6.666131    -3.346617  # O74 COF_ff_trans_trans
    319       2    1  -0.816696000000    -2.143299    -8.025845    -4.765517  # O75 COF_ff_trans_trans
    320       2    1  -0.816696000000    -1.795225    -8.063762    -2.039217  # O76 COF_ff_trans_trans
    321       2    9   1.459004000000     5.018270   -12.582041    -3.402017  # S77 COF_ff_trans_trans
    322       2    1  -0.816696000000     6.499722   -13.030094    -3.350317  # O78 COF_ff_trans_trans
    323       2    1  -0.816696000000     4.771751   -13.311627    -4.760917  # O79 COF_ff_trans_trans
    324       2    1  -0.816720000000     4.575147   -13.591755    -2.041517  # O80 COF_ff_trans_trans
    325       3    1  -0.569996000000    -8.933360     4.395502    -0.002017  # O0 COF_ff_trans_trans
    326       3    1  -0.569996000000     8.900213     5.177018    -0.002017  # O1 COF_ff_trans_trans
    327       3    1  -0.569996000000   -10.617788     8.875987    -0.002017  # O2 COF_ff_trans_trans
    328       3    1  -0.569996000000     9.351354    -5.119182    -0.002017  # O3 COF_ff_trans_trans
    329       3    1  -0.569996000000    -8.482132    -5.900748    -0.002017  # O4 COF_ff_trans_trans
    330       3    1  -0.569996000000    11.035782    -9.599667    -0.002017  # O5 COF_ff_trans_trans
    331       3    2  -0.599996000000   -10.656347     2.389202    -0.002017  # N6 COF_ff_trans_trans
    332       3    2  -0.599996000000     8.024070     7.672294    -0.002017  # N7 COF_ff_trans_trans
    333       3    2  -0.599996000000    -8.018745     8.387062    -0.002017  # N8 COF_ff_trans_trans
    334       3    2  -0.599996000000    11.074341    -3.112882    -0.002017  # N9 COF_ff_trans_trans
    335       3    2  -0.599996000000    -7.606075    -8.395974    -0.002017  # N10 COF_ff_trans_trans
    336       3    2  -0.599996000000     8.436739    -9.110742    -0.002017  # N11 COF_ff_trans_trans
    337       3    3   0.541204000000    -9.923251     5.195761    -0.002017  # C12 COF_ff_trans_trans
    338       3    3   0.541204000000    10.088243     5.634147    -0.002017  # C13 COF_ff_trans_trans
    339       3    3   0.541204000000   -10.815928     7.618599    -0.002017  # C14 COF_ff_trans_trans
    340       3    3   0.541204000000    10.341331    -5.919491    -0.002017  # C15 COF_ff_trans_trans
    341       3    3   0.541204000000    -9.670162    -6.357877    -0.002017  # C16 COF_ff_trans_trans
    342       3    3   0.541204000000    11.233922    -8.342279    -0.002017  # C17 COF_ff_trans_trans
    343       3    4   0.028804000000    11.241632     4.707275    -0.002017  # C18 COF_ff_trans_trans
    344       3    4   0.028804000000    10.360653     7.083175    -0.002017  # C19 COF_ff_trans_trans
    345       3    4   0.028804000000    -9.697221     6.658057    -0.002017  # C20 COF_ff_trans_trans
    346       3    4   0.028804000000   -10.823638    -5.430955    -0.002017  # C21 COF_ff_trans_trans
    347       3    4   0.028804000000    -9.942659    -7.806855    -0.002017  # C22 COF_ff_trans_trans
    348       3    4   0.028804000000    10.115301    -7.381787    -0.002017  # C23 COF_ff_trans_trans
    349       3    5  -0.049996000000    10.970387     3.347064    -0.002017  # C24 COF_ff_trans_trans
    350       3    5  -0.049996000000     9.318372     7.998091    -0.002017  # C25 COF_ff_trans_trans
    351       3    5  -0.049996000000    -8.383744     7.103265    -0.002017  # C26 COF_ff_trans_trans
    352       3    5  -0.049996000000   -10.552306    -4.070794    -0.002017  # C27 COF_ff_trans_trans
    353       3    5  -0.049996000000    -8.900291    -8.721821    -0.002017  # C28 COF_ff_trans_trans
    354       3    5  -0.049996000000     8.801738    -7.826945    -0.002017  # C29 COF_ff_trans_trans
    355       3    4   0.100004000000   -10.864244     1.049112    -0.002017  # C30 COF_ff_trans_trans
    356       3    4   0.100004000000     6.967596     8.522427    -0.002017  # C31 COF_ff_trans_trans
    357       3    4   0.100004000000    -6.754287     8.876967    -0.002017  # C32 COF_ff_trans_trans
    358       3    4   0.100004000000    11.282325    -1.772842    -0.002017  # C33 COF_ff_trans_trans
    359       3    4   0.100004000000    -6.549515    -9.246157    -0.002017  # C34 COF_ff_trans_trans
    360       3    4   0.100004000000     7.172281    -9.600647    -0.002017  # C35 COF_ff_trans_trans
    361       3    4  -0.149996000000    -9.774965     0.156599    -0.002017  # C36 COF_ff_trans_trans
    362       3    4  -0.149996000000     5.650018     8.025315    -0.002017  # C37 COF_ff_trans_trans
    363       3    4  -0.149996000000    -6.525988    10.266593    -0.002017  # C38 COF_ff_trans_trans
    364       3    4  -0.149996000000    10.192960    -0.880279    -0.002017  # C39 COF_ff_trans_trans
    365       3    4  -0.149996000000    -5.231937    -8.749045    -0.002017  # C40 COF_ff_trans_trans
    366       3    4  -0.149996000000     6.944069   -10.990323    -0.002017  # C41 COF_ff_trans_trans
    367       3    4  -0.149996000000    10.388639     0.495847    -0.002017  # C42 COF_ff_trans_trans
    368       3    4  -0.149996000000     7.140060     9.927545    -0.002017  # C43 COF_ff_trans_trans
    369       3    4  -0.149996000000    -5.623634     8.025115    -0.002017  # C44 COF_ff_trans_trans
    370       3    4  -0.008996000000    -9.970644    -1.219528    -0.002017  # C45 COF_ff_trans_trans
    371       3    4  -0.008996000000    -6.721979   -10.651275    -0.002017  # C46 COF_ff_trans_trans
    372       3    4  -0.008996000000     6.041629    -8.748795    -0.002017  # C47 COF_ff_trans_trans
    373       3    6   0.150004000000    -8.745246     0.554324    -0.002017  # H48 COF_ff_trans_trans
    374       3    6   0.150004000000     5.479586     6.934719    -0.002017  # H49 COF_ff_trans_trans
    375       3    6   0.150004000000    -7.385225    10.959550    -0.002017  # H50 COF_ff_trans_trans
    376       3    6   0.150004000000     9.163241    -1.278004    -0.002017  # H51 COF_ff_trans_trans
    377       3    6   0.150004000000    -5.061505    -7.658449    -0.002017  # H52 COF_ff_trans_trans
    378       3    6   0.150004000000     7.803220   -11.683230    -0.002017  # H53 COF_ff_trans_trans
    379       3    7   0.150004000000     9.911784     3.003311    -0.002017  # H54 COF_ff_trans_trans
    380       3    7   0.150004000000     9.549932     9.086765    -0.002017  # H55 COF_ff_trans_trans
    381       3    7   0.150004000000    -7.556652     6.358430    -0.002017  # H56 COF_ff_trans_trans
    382       3    7   0.150004000000    -9.493790    -3.726991    -0.002017  # H57 COF_ff_trans_trans
    383       3    7   0.150004000000    -9.131852    -9.810495    -0.002017  # H58 COF_ff_trans_trans
    384       3    7   0.150004000000     7.974733    -7.082160    -0.002017  # H59 COF_ff_trans_trans
    385       3    6   0.150004000000     9.504566     1.160189    -0.002017  # H60 COF_ff_trans_trans
    386       3    6   0.150004000000     8.157361    10.360961    -0.002017  # H61 COF_ff_trans_trans
    387       3    6   0.150004000000    -5.756912     6.927270    -0.002017  # H62 COF_ff_trans_trans
    388       3    8   0.400004000000    -9.659364     2.761025    -0.002017  # H63 COF_ff_trans_trans
    389       3    8   0.400004000000     7.847694     6.623003    -0.002017  # H64 COF_ff_trans_trans
    390       3    8   0.400004000000    -8.839352     9.064528    -0.002017  # H65 COF_ff_trans_trans
    391       3    8   0.400004000000    10.077359    -3.484705    -0.002017  # H66 COF_ff_trans_trans
    392       3    8   0.400004000000    -7.429700    -7.346683    -0.002017  # H67 COF_ff_trans_trans
    393       3    8   0.400004000000     9.257346    -9.788209    -0.002017  # H68 COF_ff_trans_trans
    394       3    9   1.459004000000    -8.524993    -2.308786    -0.002017  # S69 COF_ff_trans_trans
    395       3    1  -0.816696000000    -7.395858    -1.250466     0.053983  # O70 COF_ff_trans_trans
    396       3    1  -0.816696000000    -8.022119    -2.880983    -1.365617  # O71 COF_ff_trans_trans
    397       3    1  -0.816696000000    -7.881054    -3.201450     1.360983  # O72 COF_ff_trans_trans
    398       3    9   1.459004000000    -8.387059   -11.360677    -0.002017  # S73 COF_ff_trans_trans
    399       3    1  -0.816696000000    -8.035604   -12.867939     0.053383  # O74 COF_ff_trans_trans
    400       3    1  -0.816696000000    -9.134698   -11.508225    -1.365517  # O75 COF_ff_trans_trans
    401       3    1  -0.816696000000    -9.482772   -11.470308     1.360783  # O76 COF_ff_trans_trans
    402       3    9   1.459004000000     6.259734    -6.952026    -0.002017  # S77 COF_ff_trans_trans
    403       3    1  -0.816696000000     4.778283    -6.503973     0.049683  # O78 COF_ff_trans_trans
    404       3    1  -0.816696000000     6.506254    -6.222440    -1.360917  # O79 COF_ff_trans_trans
    405       3    1  -0.816720000000     6.702858    -5.942312     1.358483  # O80 COF_ff_trans_trans
    406       3    1  -0.569996000000     2.344640   -15.138567    -0.002017  # O0 COF_ff_trans_trans
    407       3    1  -0.569996000000    -2.377787   -14.357051    -0.002017  # O1 COF_ff_trans_trans
    408       3    1  -0.569996000000     0.660212   -10.658082    -0.002017  # O2 COF_ff_trans_trans
    409       3    1  -0.569996000000    -1.926646    14.414887    -0.002017  # O3 COF_ff_trans_trans
    410       3    1  -0.569996000000     2.795868    13.633321    -0.002017  # O4 COF_ff_trans_trans
    411       3    1  -0.569996000000    -0.242218     9.934402    -0.002017  # O5 COF_ff_trans_trans
    412       3    2  -0.599996000000     0.621653   -17.144867    -0.002017  # N6 COF_ff_trans_trans
    413       3    2  -0.599996000000    -3.253930   -11.861775    -0.002017  # N7 COF_ff_trans_trans
    414       3    2  -0.599996000000     3.259255   -11.147007    -0.002017  # N8 COF_ff_trans_trans
    415       3    2  -0.599996000000    -0.203659    16.421187    -0.002017  # N9 COF_ff_trans_trans
    416       3    2  -0.599996000000     3.671925    11.138095    -0.002017  # N10 COF_ff_trans_trans
    417       3    2  -0.599996000000    -2.841261    10.423327    -0.002017  # N11 COF_ff_trans_trans
    418       3    3   0.541204000000     1.354749   -14.338308    -0.002017  # C12 COF_ff_trans_trans
    419       3    3   0.541204000000    -1.189757   -13.899922    -0.002017  # C13 COF_ff_trans_trans
    420       3    3   0.541204000000     0.462072   -11.915470    -0.002017  # C14 COF_ff_trans_trans
    421       3    3   0.541204000000    -0.936669    13.614578    -0.002017  # C15 COF_ff_trans_trans
    422       3    3   0.541204000000     1.607838    13.176192    -0.002017  # C16 COF_ff_trans_trans
    423       3    3   0.541204000000    -0.044078    11.191790    -0.002017  # C17 COF_ff_trans_trans
    424       3    4   0.028804000000    -0.036368   -14.826794    -0.002017  # C18 COF_ff_trans_trans
    425       3    4   0.028804000000    -0.917347   -12.450894    -0.002017  # C19 COF_ff_trans_trans
    426       3    4   0.028804000000     1.580779   -12.876012    -0.002017  # C20 COF_ff_trans_trans
    427       3    4   0.028804000000     0.454362    14.103114    -0.002017  # C21 COF_ff_trans_trans
    428       3    4   0.028804000000     1.335341    11.727214    -0.002017  # C22 COF_ff_trans_trans
    429       3    4   0.028804000000    -1.162699    12.152282    -0.002017  # C23 COF_ff_trans_trans
    430       3    5  -0.049996000000    -0.307613   -16.187005    -0.002017  # C24 COF_ff_trans_trans
    431       3    5  -0.049996000000    -1.959628   -11.535978    -0.002017  # C25 COF_ff_trans_trans
    432       3    5  -0.049996000000     2.894256   -12.430804    -0.002017  # C26 COF_ff_trans_trans
    433       3    5  -0.049996000000     0.725694    15.463275    -0.002017  # C27 COF_ff_trans_trans
    434       3    5  -0.049996000000     2.377709    10.812248    -0.002017  # C28 COF_ff_trans_trans
    435       3    5  -0.049996000000    -2.476262    11.707124    -0.002017  # C29 COF_ff_trans_trans
    436       3    4   0.100004000000     0.413756   -18.484957    -0.002017  # C30 COF_ff_trans_trans
    437       3    4   0.100004000000    -4.310404   -11.011642    -0.002017  # C31 COF_ff_trans_trans
    438       3    4   0.100004000000     4.523713   -10.657102    -0.002017  # C32 COF_ff_trans_trans
    439       3    4   0.100004000000     0.004325    17.761227    -0.002017  # C33 COF_ff_trans_trans
    440       3    4   0.100004000000     4.728485    10.287912    -0.002017  # C34 COF_ff_trans_trans
    441       3    4   0.100004000000    -4.105719     9.933422    -0.002017  # C35 COF_ff_trans_trans
    442       3    4  -0.149996000000     1.503035   -19.377470    -0.002017  # C36 COF_ff_trans_trans
    443       3    4  -0.149996000000    -5.627982   -11.508754    -0.002017  # C37 COF_ff_trans_trans
    444       3    4  -0.149996000000     4.752012    -9.267476    -0.002017  # C38 COF_ff_trans_trans
    445       3    4  -0.149996000000    -1.085040    18.653790    -0.002017  # C39 COF_ff_trans_trans
    446       3    4  -0.149996000000     6.046063    10.785024    -0.002017  # C40 COF_ff_trans_trans
    447       3    4  -0.149996000000    -4.333931     8.543746    -0.002017  # C41 COF_ff_trans_trans
    448       3    4  -0.149996000000    -0.889361   -19.038222    -0.002017  # C42 COF_ff_trans_trans
    449       3    4  -0.149996000000    -4.137940    -9.606524    -0.002017  # C43 COF_ff_trans_trans
    450       3    4  -0.149996000000     5.654366   -11.508954    -0.002017  # C44 COF_ff_trans_trans
    451       3    4  -0.008996000000     1.307356    18.314541    -0.002017  # C45 COF_ff_trans_trans
    452       3    4  -0.008996000000     4.556021     8.882794    -0.002017  # C46 COF_ff_trans_trans
    453       3    4  -0.008996000000    -5.236371    10.785274    -0.002017  # C47 COF_ff_trans_trans
    454       3    6   0.150004000000     2.532754   -18.979745    -0.002017  # H48 COF_ff_trans_trans
    455       3    6   0.150004000000    -5.798414   -12.599350    -0.002017  # H49 COF_ff_trans_trans
    456       3    6   0.150004000000     3.892775    -8.574519    -0.002017  # H50 COF_ff_trans_trans
    457       3    6   0.150004000000    -2.114759    18.256065    -0.002017  # H51 COF_ff_trans_trans
    458       3    6   0.150004000000     6.216495    11.875620    -0.002017  # H52 COF_ff_trans_trans
    459       3    6   0.150004000000    -3.474780     7.850839    -0.002017  # H53 COF_ff_trans_trans
    460       3    7   0.150004000000    -1.366216   -16.530758    -0.002017  # H54 COF_ff_trans_trans
    461       3    7   0.150004000000    -1.728068   -10.447304    -0.002017  # H55 COF_ff_trans_trans
    462       3    7   0.150004000000     3.721348   -13.175639    -0.002017  # H56 COF_ff_trans_trans
    463       3    7   0.150004000000     1.784210    15.807078    -0.002017  # H57 COF_ff_trans_trans
    464       3    7   0.150004000000     2.146148     9.723574    -0.002017  # H58 COF_ff_trans_trans
    465       3    7   0.150004000000    -3.303267    12.451909    -0.002017  # H59 COF_ff_trans_trans
    466       3    6   0.150004000000    -1.773434   -18.373880    -0.002017  # H60 COF_ff_trans_trans
    467       3    6   0.150004000000    -3.120639    -9.173108    -0.002017  # H61 COF_ff_trans_trans
    468       3    6   0.150004000000     5.521088   -12.606799    -0.002017  # H62 COF_ff_trans_trans
    469       3    8   0.400004000000     1.618636   -16.773044    -0.002017  # H63 COF_ff_trans_trans
    470       3    8   0.400004000000    -3.430306   -12.911066    -0.002017  # H64 COF_ff_trans_trans
    471       3    8   0.400004000000     2.438648   -10.469541    -0.002017  # H65 COF_ff_trans_trans
    472       3    8   0.400004000000    -1.200641    16.049364    -0.002017  # H66 COF_ff_trans_trans
    473       3    8   0.400004000000     3.848300    12.187386    -0.002017  # H67 COF_ff_trans_trans
    474       3    8   0.400004000000    -2.020654     9.745860    -0.002017  # H68 COF_ff_trans_trans
    475       3    9   1.459004000000     2.753007    17.225283    -0.002017  # S69 COF_ff_trans_trans
    476       3    1  -0.816696000000     3.882142    18.283603     0.053983  # O70 COF_ff_trans_trans
    477       3    1  -0.816696000000     3.255881    16.653086    -1.365617  # O71 COF_ff_trans_trans
    478       3    1  -0.816696000000     3.396946    16.332619     1.360983  # O72 COF_ff_trans_trans
    479       3    9   1.459004000000     2.890941     8.173392    -0.002017  # S73 COF_ff_trans_trans
    480       3    1  -0.816696000000     3.242396     6.666130     0.053383  # O74 COF_ff_trans_trans
    481       3    1  -0.816696000000     2.143302     8.025844    -1.365517  # O75 COF_ff_trans_trans
    482       3    1  -0.816696000000     1.795228     8.063761     1.360783  # O76 COF_ff_trans_trans
    483       3    9   1.459004000000    -5.018266    12.582043    -0.002017  # S77 COF_ff_trans_trans
    484       3    1  -0.816696000000    -6.499717    13.030096     0.049683  # O78 COF_ff_trans_trans
    485       3    1  -0.816696000000    -4.771746    13.311629    -1.360917  # O79 COF_ff_trans_trans
    486       3    1  -0.816720000000    -4.575142    13.591757     1.358483  # O80 COF_ff_trans_trans
    487       4    1  -0.569996000000     8.933362    -4.395499     3.397983  # O0 COF_ff_trans_trans
    488       4    1  -0.569996000000    -8.900211    -5.177021     3.397983  # O1 COF_ff_trans_trans
    489       4    1  -0.569996000000    10.617791    -8.875983     3.397983  # O2 COF_ff_trans_trans
    490       4    1  -0.569996000000    -9.351356     5.119179     3.397983  # O3 COF_ff_trans_trans
    491       4    1  -0.569996000000     8.482130     5.900751     3.397983  # O4 COF_ff_trans_trans
    492       4    1  -0.569996000000   -11.035785     9.599663     3.397983  # O5 COF_ff_trans_trans
    493       4    2  -0.599996000000    10.656348    -2.389198     3.397983  # N6 COF_ff_trans_trans
    494       4    2  -0.599996000000    -8.024067    -7.672297     3.397983  # N7 COF_ff_trans_trans
    495       4    2  -0.599996000000     8.018748    -8.387059     3.397983  # N8 COF_ff_trans_trans
    496       4    2  -0.599996000000   -11.074342     3.112878     3.397983  # N9 COF_ff_trans_trans
    497       4    2  -0.599996000000     7.606072     8.395977     3.397983  # N10 COF_ff_trans_trans
    498       4    2  -0.599996000000    -8.436742     9.110739     3.397983  # N11 COF_ff_trans_trans
    499       4    3   0.541204000000     9.923253    -5.195758     3.397983  # C12 COF_ff_trans_trans
    500       4    3   0.541204000000   -10.088241    -5.634150     3.397983  # C13 COF_ff_trans_trans
    501       4    3   0.541204000000    10.815931    -7.618595     3.397983  # C14 COF_ff_trans_trans
    502       4    3   0.541204000000   -10.341333     5.919487     3.397983  # C15 COF_ff_trans_trans
    503       4    3   0.541204000000     9.670160     6.357880     3.397983  # C16 COF_ff_trans_trans
    504       4    3   0.541204000000   -11.233925     8.342275     3.397983  # C17 COF_ff_trans_trans
    505       4    4   0.028804000000   -11.241630    -4.707279     3.397983  # C18 COF_ff_trans_trans
    506       4    4   0.028804000000   -10.360650    -7.083179     3.397983  # C19 COF_ff_trans_trans
    507       4    4   0.028804000000     9.697223    -6.658054     3.397983  # C20 COF_ff_trans_trans
    508       4    4   0.028804000000    10.823636     5.430959     3.397983  # C21 COF_ff_trans_trans
    509       4    4   0.028804000000     9.942656     7.806858     3.397983  # C22 COF_ff_trans_trans
    510       4    4   0.028804000000   -10.115303     7.381784     3.397983  # C23 COF_ff_trans_trans
    511       4    5  -0.049996000000   -10.970386    -3.347068     3.397983  # C24 COF_ff_trans_trans
    512       4    5  -0.049996000000    -9.318369    -7.998094     3.397983  # C25 COF_ff_trans_trans
    513       4    5  -0.049996000000     8.383747    -7.103262     3.397983  # C26 COF_ff_trans_trans
    514       4    5  -0.049996000000    10.552305     4.070798     3.397983  # C27 COF_ff_trans_trans
    515       4    5  -0.049996000000     8.900288     8.721824     3.397983  # C28 COF_ff_trans_trans
    516       4    5  -0.049996000000    -8.801741     7.826942     3.397983  # C29 COF_ff_trans_trans
    517       4    4   0.100004000000    10.864244    -1.049108     3.397983  # C30 COF_ff_trans_trans
    518       4    4   0.100004000000    -6.967593    -8.522429     3.397983  # C31 COF_ff_trans_trans
    519       4    4   0.100004000000     6.754290    -8.876965     3.397983  # C32 COF_ff_trans_trans
    520       4    4   0.100004000000   -11.282325     1.772838     3.397983  # C33 COF_ff_trans_trans
    521       4    4   0.100004000000     6.549512     9.246159     3.397983  # C34 COF_ff_trans_trans
    522       4    4   0.100004000000    -7.172284     9.600645     3.397983  # C35 COF_ff_trans_trans
    523       4    4  -0.149996000000     9.774965    -0.156596     3.397983  # C36 COF_ff_trans_trans
    524       4    4  -0.149996000000    -5.650015    -8.025317     3.397983  # C37 COF_ff_trans_trans
    525       4    4  -0.149996000000     6.525992   -10.266591     3.397983  # C38 COF_ff_trans_trans
    526       4    4  -0.149996000000   -10.192960     0.880276     3.397983  # C39 COF_ff_trans_trans
    527       4    4  -0.149996000000     5.231934     8.749047     3.397983  # C40 COF_ff_trans_trans
    528       4    4  -0.149996000000    -6.944073    10.990321     3.397983  # C41 COF_ff_trans_trans
    529       4    4  -0.149996000000   -10.388639    -0.495851     3.397983  # C42 COF_ff_trans_trans
    530       4    4  -0.149996000000    -7.140056    -9.927547     3.397983  # C43 COF_ff_trans_trans
    531       4    4  -0.149996000000     5.623637    -8.025113     3.397983  # C44 COF_ff_trans_trans
    532       4    4  -0.008996000000     9.970644     1.219531     3.397983  # C45 COF_ff_trans_trans
    533       4    4  -0.008996000000     6.721975    10.651277     3.397983  # C46 COF_ff_trans_trans
    534       4    4  -0.008996000000    -6.041632     8.748793     3.397983  # C47 COF_ff_trans_trans
    535       4    6   0.150004000000     8.745246    -0.554321     3.397983  # H48 COF_ff_trans_trans
    536       4    6   0.150004000000    -5.479583    -6.934721     3.397983  # H49 COF_ff_trans_trans
    537       4    6   0.150004000000     7.385229   -10.959547     3.397983  # H50 COF_ff_trans_trans
    538       4    6   0.150004000000    -9.163241     1.278001     3.397983  # H51 COF_ff_trans_trans
    539       4    6   0.150004000000     5.061502     7.658451     3.397983  # H52 COF_ff_trans_trans
    540       4    6   0.150004000000    -7.803224    11.683227     3.397983  # H53 COF_ff_trans_trans
    541       4    7   0.150004000000    -9.911783    -3.003314     3.397983  # H54 COF_ff_trans_trans
    542       4    7   0.150004000000    -9.549929    -9.086768     3.397983  # H55 COF_ff_trans_trans
    543       4    7   0.150004000000     7.556654    -6.358427     3.397983  # H56 COF_ff_trans_trans
    544       4    7   0.150004000000     9.493789     3.726994     3.397983  # H57 COF_ff_trans_trans
    545       4    7   0.150004000000     9.131849     9.810498     3.397983  # H58 COF_ff_trans_trans
    546       4    7   0.150004000000    -7.974735     7.082157     3.397983  # H59 COF_ff_trans_trans
    547       4    6   0.150004000000    -9.504565    -1.160192     3.397983  # H60 COF_ff_trans_trans
    548       4    6   0.150004000000    -8.157357   -10.360964     3.397983  # H61 COF_ff_trans_trans
    549       4    6   0.150004000000     5.756915    -6.927268     3.397983  # H62 COF_ff_trans_trans
    550       4    8   0.400004000000     9.659365    -2.761022     3.397983  # H63 COF_ff_trans_trans
    551       4    8   0.400004000000    -7.847692    -6.623006     3.397983  # H64 COF_ff_trans_trans
    552       4    8   0.400004000000     8.839355    -9.064525     3.397983  # H65 COF_ff_trans_trans
    553       4    8   0.400004000000   -10.077360     3.484702     3.397983  # H66 COF_ff_trans_trans
    554       4    8   0.400004000000     7.429698     7.346686     3.397983  # H67 COF_ff_trans_trans
    555       4    8   0.400004000000    -9.257349     9.788206     3.397983  # H68 COF_ff_trans_trans
    556       4    9   1.459004000000     8.524992     2.308789     3.397983  # S69 COF_ff_trans_trans
    557       4    1  -0.816696000000     7.395858     1.250469     3.453983  # O70 COF_ff_trans_trans
    558       4    1  -0.816696000000     8.022118     2.880986     2.034383  # O71 COF_ff_trans_trans
    559       4    1  -0.816696000000     7.881053     3.201453     4.760983  # O72 COF_ff_trans_trans
    560       4    9   1.459004000000     8.387055    11.360680     3.397983  # S73 COF_ff_trans_trans
    561       4    1  -0.816696000000     8.035600    12.867942     3.453383  # O74 COF_ff_trans_trans
    562       4    1  -0.816696000000     9.134694    11.508228     2.034483  # O75 COF_ff_trans_trans
    563       4    1  -0.816696000000     9.482768    11.470311     4.760783  # O76 COF_ff_trans_trans
    564       4    9   1.459004000000    -6.259736     6.952024     3.397983  # S77 COF_ff_trans_trans
    565       4    1  -0.816696000000    -4.778285     6.503971     3.449683  # O78 COF_ff_trans_trans
    566       4    1  -0.816696000000    -6.506256     6.222438     2.039083  # O79 COF_ff_trans_trans
    567       4    1  -0.816720000000    -6.702860     5.942310     4.758483  # O80 COF_ff_trans_trans
    568       4    1  -0.569996000000    -2.344645    15.138566     3.397983  # O0 COF_ff_trans_trans
    569       4    1  -0.569996000000     2.377782    14.357052     3.397983  # O1 COF_ff_trans_trans
    570       4    1  -0.569996000000    -0.660216    10.658082     3.397983  # O2 COF_ff_trans_trans
    571       4    1  -0.569996000000     1.926651   -14.414886     3.397983  # O3 COF_ff_trans_trans
    572       4    1  -0.569996000000    -2.795863   -13.633322     3.397983  # O4 COF_ff_trans_trans
    573       4    1  -0.569996000000     0.242222    -9.934402     3.397983  # O5 COF_ff_trans_trans
    574       4    2  -0.599996000000    -0.621659    17.144867     3.397983  # N6 COF_ff_trans_trans
    575       4    2  -0.599996000000     3.253926    11.861776     3.397983  # N7 COF_ff_trans_trans
    576       4    2  -0.599996000000    -3.259259    11.147006     3.397983  # N8 COF_ff_trans_trans
    577       4    2  -0.599996000000     0.203665   -16.421187     3.397983  # N9 COF_ff_trans_trans
    578       4    2  -0.599996000000    -3.671921   -11.138096     3.397983  # N10 COF_ff_trans_trans
    579       4    2  -0.599996000000     2.841265   -10.423326     3.397983  # N11 COF_ff_trans_trans
    580       4    3   0.541204000000    -1.354754    14.338308     3.397983  # C12 COF_ff_trans_trans
    581       4    3   0.541204000000     1.189752    13.899922     3.397983  # C13 COF_ff_trans_trans
    582       4    3   0.541204000000    -0.462076    11.915470     3.397983  # C14 COF_ff_trans_trans
    583       4    3   0.541204000000     0.936674   -13.614578     3.397983  # C15 COF_ff_trans_trans
    584       4    3   0.541204000000    -1.607833   -13.176193     3.397983  # C16 COF_ff_trans_trans
    585       4    3   0.541204000000     0.044082   -11.191790     3.397983  # C17 COF_ff_trans_trans
    586       4    4   0.028804000000     0.036363    14.826794     3.397983  # C18 COF_ff_trans_trans
    587       4    4   0.028804000000     0.917343    12.450894     3.397983  # C19 COF_ff_trans_trans
    588       4    4   0.028804000000    -1.580783    12.876011     3.397983  # C20 COF_ff_trans_trans
    589       4    4   0.028804000000    -0.454357   -14.103114     3.397983  # C21 COF_ff_trans_trans
    590       4    4   0.028804000000    -1.335337   -11.727214     3.397983  # C22 COF_ff_trans_trans
    591       4    4   0.028804000000     1.162703   -12.152282     3.397983  # C23 COF_ff_trans_trans
    592       4    5  -0.049996000000     0.307608    16.187005     3.397983  # C24 COF_ff_trans_trans
    593       4    5  -0.049996000000     1.959624    11.535979     3.397983  # C25 COF_ff_trans_trans
    594       4    5  -0.049996000000    -2.894260    12.430803     3.397983  # C26 COF_ff_trans_trans
    595       4    5  -0.049996000000    -0.725689   -15.463275     3.397983  # C27 COF_ff_trans_trans
    596       4    5  -0.049996000000    -2.377705   -10.812249     3.397983  # C28 COF_ff_trans_trans
    597       4    5  -0.049996000000     2.476266   -11.707123     3.397983  # C29 COF_ff_trans_trans
    598       4    4   0.100004000000    -0.413762    18.484957     3.397983  # C30 COF_ff_trans_trans
    599       4    4   0.100004000000     4.310400    11.011644     3.397983  # C31 COF_ff_trans_trans
    600       4    4   0.100004000000    -4.523717    10.657100     3.397983  # C32 COF_ff_trans_trans
    601       4    4   0.100004000000    -0.004319   -17.761227     3.397983  # C33 COF_ff_trans_trans
    602       4    4   0.100004000000    -4.728481   -10.287914     3.397983  # C34 COF_ff_trans_trans
    603       4    4   0.100004000000     4.105723    -9.933421     3.397983  # C35 COF_ff_trans_trans
    604       4    4  -0.149996000000    -1.503042    19.377470     3.397983  # C36 COF_ff_trans_trans
    605       4    4  -0.149996000000     5.627978    11.508756     3.397983  # C37 COF_ff_trans_trans
    606       4    4  -0.149996000000    -4.752015     9.267474     3.397983  # C38 COF_ff_trans_trans
    607       4    4  -0.149996000000     1.085047   -18.653790     3.397983  # C39 COF_ff_trans_trans
    608       4    4  -0.149996000000    -6.046059   -10.785026     3.397983  # C40 COF_ff_trans_trans
    609       4    4  -0.149996000000     4.333934    -8.543744     3.397983  # C41 COF_ff_trans_trans
    610       4    4  -0.149996000000     0.889355    19.038222     3.397983  # C42 COF_ff_trans_trans
    611       4    4  -0.149996000000     4.137937     9.606525     3.397983  # C43 COF_ff_trans_trans
    612       4    4  -0.149996000000    -5.654370    11.508952     3.397983  # C44 COF_ff_trans_trans
    613       4    4  -0.008996000000    -1.307350   -18.314541     3.397983  # C45 COF_ff_trans_trans
    614       4    4  -0.008996000000    -4.556018    -8.882796     3.397983  # C46 COF_ff_trans_trans
    615       4    4  -0.008996000000     5.236375   -10.785272     3.397983  # C47 COF_ff_trans_trans
    616       4    6   0.150004000000    -2.532760    18.979744     3.397983  # H48 COF_ff_trans_trans
    617       4    6   0.150004000000     5.798410    12.599352     3.397983  # H49 COF_ff_trans_trans
    618       4    6   0.150004000000    -3.892778     8.574518     3.397983  # H50 COF_ff_trans_trans
    619       4    6   0.150004000000     2.114765   -18.256064     3.397983  # H51 COF_ff_trans_trans
    620       4    6   0.150004000000    -6.216491   -11.875622     3.397983  # H52 COF_ff_trans_trans
    621       4    6   0.150004000000     3.474783    -7.850838     3.397983  # H53 COF_ff_trans_trans
    622       4    7   0.150004000000     1.366210    16.530759     3.397983  # H54 COF_ff_trans_trans
    623       4    7   0.150004000000     1.728065    10.447305     3.397983  # H55 COF_ff_trans_trans
    624       4    7   0.150004000000    -3.721352    13.175638     3.397983  # H56 COF_ff_trans_trans
    625       4    7   0.150004000000    -1.784204   -15.807079     3.397983  # H57 COF_ff_trans_trans
    626       4    7   0.150004000000    -2.146144    -9.723575     3.397983  # H58 COF_ff_trans_trans
    627       4    7   0.150004000000     3.303271   -12.451908     3.397983  # H59 COF_ff_trans_trans
    628       4    6   0.150004000000     1.773428    18.373881     3.397983  # H60 COF_ff_trans_trans
    629       4    6   0.150004000000     3.120636     9.173109     3.397983  # H61 COF_ff_trans_trans
    630       4    6   0.150004000000    -5.521092    12.606797     3.397983  # H62 COF_ff_trans_trans
    631       4    8   0.400004000000    -1.618642    16.773043     3.397983  # H63 COF_ff_trans_trans
    632       4    8   0.400004000000     3.430302    12.911067     3.397983  # H64 COF_ff_trans_trans
    633       4    8   0.400004000000    -2.438651    10.469540     3.397983  # H65 COF_ff_trans_trans
    634       4    8   0.400004000000     1.200647   -16.049364     3.397983  # H66 COF_ff_trans_trans
    635       4    8   0.400004000000    -3.848296   -12.187387     3.397983  # H67 COF_ff_trans_trans
    636       4    8   0.400004000000     2.020658    -9.745859     3.397983  # H68 COF_ff_trans_trans
    637       4    9   1.459004000000    -2.753001   -17.225284     3.397983  # S69 COF_ff_trans_trans
    638       4    1  -0.816696000000    -3.882136   -18.283604     3.453983  # O70 COF_ff_trans_trans
    639       4    1  -0.816696000000    -3.255875   -16.653087     2.034383  # O71 COF_ff_trans_trans
    640       4    1  -0.816696000000    -3.396940   -16.332620     4.760983  # O72 COF_ff_trans_trans
    641       4    9   1.459004000000    -2.890938    -8.173393     3.397983  # S73 COF_ff_trans_trans
    642       4    1  -0.816696000000    -3.242394    -6.666131     3.453383  # O74 COF_ff_trans_trans
    643       4    1  -0.816696000000    -2.143299    -8.025845     2.034483  # O75 COF_ff_trans_trans
    644       4    1  -0.816696000000    -1.795225    -8.063762     4.760783  # O76 COF_ff_trans_trans
    645       4    9   1.459004000000     5.018270   -12.582041     3.397983  # S77 COF_ff_trans_trans
    646       4    1  -0.816696000000     6.499722   -13.030094     3.449683  # O78 COF_ff_trans_trans
    647       4    1  -0.816696000000     4.771751   -13.311627     2.039083  # O79 COF_ff_trans_trans
    648       4    1  -0.816720000000     4.575147   -13.591755     4.758483  # O80 COF_ff_trans_trans
    649       5    1  -0.569996000000    -8.933360     4.395502     6.797983  # O0 COF_ff_trans_trans
    650       5    1  -0.569996000000     8.900213     5.177018     6.797983  # O1 COF_ff_trans_trans
    651       5    1  -0.569996000000   -10.617788     8.875987     6.797983  # O2 COF_ff_trans_trans
    652       5    1  -0.569996000000     9.351354    -5.119182     6.797983  # O3 COF_ff_trans_trans
    653       5    1  -0.569996000000    -8.482132    -5.900748     6.797983  # O4 COF_ff_trans_trans
    654       5    1  -0.569996000000    11.035782    -9.599667     6.797983  # O5 COF_ff_trans_trans
    655       5    2  -0.599996000000   -10.656347     2.389202     6.797983  # N6 COF_ff_trans_trans
    656       5    2  -0.599996000000     8.024070     7.672294     6.797983  # N7 COF_ff_trans_trans
    657       5    2  -0.599996000000    -8.018745     8.387062     6.797983  # N8 COF_ff_trans_trans
    658       5    2  -0.599996000000    11.074341    -3.112882     6.797983  # N9 COF_ff_trans_trans
    659       5    2  -0.599996000000    -7.606075    -8.395974     6.797983  # N10 COF_ff_trans_trans
    660       5    2  -0.599996000000     8.436739    -9.110742     6.797983  # N11 COF_ff_trans_trans
    661       5    3   0.541204000000    -9.923251     5.195761     6.797983  # C12 COF_ff_trans_trans
    662       5    3   0.541204000000    10.088243     5.634147     6.797983  # C13 COF_ff_trans_trans
    663       5    3   0.541204000000   -10.815928     7.618599     6.797983  # C14 COF_ff_trans_trans
    664       5    3   0.541204000000    10.341331    -5.919491     6.797983  # C15 COF_ff_trans_trans
    665       5    3   0.541204000000    -9.670162    -6.357877     6.797983  # C16 COF_ff_trans_trans
    666       5    3   0.541204000000    11.233922    -8.342279     6.797983  # C17 COF_ff_trans_trans
    667       5    4   0.028804000000    11.241632     4.707275     6.797983  # C18 COF_ff_trans_trans
    668       5    4   0.028804000000    10.360653     7.083175     6.797983  # C19 COF_ff_trans_trans
    669       5    4   0.028804000000    -9.697221     6.658057     6.797983  # C20 COF_ff_trans_trans
    670       5    4   0.028804000000   -10.823638    -5.430955     6.797983  # C21 COF_ff_trans_trans
    671       5    4   0.028804000000    -9.942659    -7.806855     6.797983  # C22 COF_ff_trans_trans
    672       5    4   0.028804000000    10.115301    -7.381787     6.797983  # C23 COF_ff_trans_trans
    673       5    5  -0.049996000000    10.970387     3.347064     6.797983  # C24 COF_ff_trans_trans
    674       5    5  -0.049996000000     9.318372     7.998091     6.797983  # C25 COF_ff_trans_trans
    675       5    5  -0.049996000000    -8.383744     7.103265     6.797983  # C26 COF_ff_trans_trans
    676       5    5  -0.049996000000   -10.552306    -4.070794     6.797983  # C27 COF_ff_trans_trans
    677       5    5  -0.049996000000    -8.900291    -8.721821     6.797983  # C28 COF_ff_trans_trans
    678       5    5  -0.049996000000     8.801738    -7.826945     6.797983  # C29 COF_ff_trans_trans
    679       5    4   0.100004000000   -10.864244     1.049112     6.797983  # C30 COF_ff_trans_trans
    680       5    4   0.100004000000     6.967596     8.522427     6.797983  # C31 COF_ff_trans_trans
    681       5    4   0.100004000000    -6.754287     8.876967     6.797983  # C32 COF_ff_trans_trans
    682       5    4   0.100004000000    11.282325    -1.772842     6.797983  # C33 COF_ff_trans_trans
    683       5    4   0.100004000000    -6.549515    -9.246157     6.797983  # C34 COF_ff_trans_trans
    684       5    4   0.100004000000     7.172281    -9.600647     6.797983  # C35 COF_ff_trans_trans
    685       5    4  -0.149996000000    -9.774965     0.156599     6.797983  # C36 COF_ff_trans_trans
    686       5    4  -0.149996000000     5.650018     8.025315     6.797983  # C37 COF_ff_trans_trans
    687       5    4  -0.149996000000    -6.525988    10.266593     6.797983  # C38 COF_ff_trans_trans
    688       5    4  -0.149996000000    10.192960    -0.880279     6.797983  # C39 COF_ff_trans_trans
    689       5    4  -0.149996000000    -5.231937    -8.749045     6.797983  # C40 COF_ff_trans_trans
    690       5    4  -0.149996000000     6.944069   -10.990323     6.797983  # C41 COF_ff_trans_trans
    691       5    4  -0.149996000000    10.388639     0.495847     6.797983  # C42 COF_ff_trans_trans
    692       5    4  -0.149996000000     7.140060     9.927545     6.797983  # C43 COF_ff_trans_trans
    693       5    4  -0.149996000000    -5.623634     8.025115     6.797983  # C44 COF_ff_trans_trans
    694       5    4  -0.008996000000    -9.970644    -1.219528     6.797983  # C45 COF_ff_trans_trans
    695       5    4  -0.008996000000    -6.721979   -10.651275     6.797983  # C46 COF_ff_trans_trans
    696       5    4  -0.008996000000     6.041629    -8.748795     6.797983  # C47 COF_ff_trans_trans
    697       5    6   0.150004000000    -8.745246     0.554324     6.797983  # H48 COF_ff_trans_trans
    698       5    6   0.150004000000     5.479586     6.934719     6.797983  # H49 COF_ff_trans_trans
    699       5    6   0.150004000000    -7.385225    10.959550     6.797983  # H50 COF_ff_trans_trans
    700       5    6   0.150004000000     9.163241    -1.278004     6.797983  # H51 COF_ff_trans_trans
    701       5    6   0.150004000000    -5.061505    -7.658449     6.797983  # H52 COF_ff_trans_trans
    702       5    6   0.150004000000     7.803220   -11.683230     6.797983  # H53 COF_ff_trans_trans
    703       5    7   0.150004000000     9.911784     3.003311     6.797983  # H54 COF_ff_trans_trans
    704       5    7   0.150004000000     9.549932     9.086765     6.797983  # H55 COF_ff_trans_trans
    705       5    7   0.150004000000    -7.556652     6.358430     6.797983  # H56 COF_ff_trans_trans
    706       5    7   0.150004000000    -9.493790    -3.726991     6.797983  # H57 COF_ff_trans_trans
    707       5    7   0.150004000000    -9.131852    -9.810495     6.797983  # H58 COF_ff_trans_trans
    708       5    7   0.150004000000     7.974733    -7.082160     6.797983  # H59 COF_ff_trans_trans
    709       5    6   0.150004000000     9.504566     1.160189     6.797983  # H60 COF_ff_trans_trans
    710       5    6   0.150004000000     8.157361    10.360961     6.797983  # H61 COF_ff_trans_trans
    711       5    6   0.150004000000    -5.756912     6.927270     6.797983  # H62 COF_ff_trans_trans
    712       5    8   0.400004000000    -9.659364     2.761025     6.797983  # H63 COF_ff_trans_trans
    713       5    8   0.400004000000     7.847694     6.623003     6.797983  # H64 COF_ff_trans_trans
    714       5    8   0.400004000000    -8.839352     9.064528     6.797983  # H65 COF_ff_trans_trans
    715       5    8   0.400004000000    10.077359    -3.484705     6.797983  # H66 COF_ff_trans_trans
    716       5    8   0.400004000000    -7.429700    -7.346683     6.797983  # H67 COF_ff_trans_trans
    717       5    8   0.400004000000     9.257346    -9.788209     6.797983  # H68 COF_ff_trans_trans
    718       5    9   1.459004000000    -8.524993    -2.308786     6.797983  # S69 COF_ff_trans_trans
    719       5    1  -0.816696000000    -7.395858    -1.250466     6.853983  # O70 COF_ff_trans_trans
    720       5    1  -0.816696000000    -8.022119    -2.880983     5.434383  # O71 COF_ff_trans_trans
    721       5    1  -0.816696000000    -7.881054    -3.201450     8.160983  # O72 COF_ff_trans_trans
    722       5    9   1.459004000000    -8.387059   -11.360677     6.797983  # S73 COF_ff_trans_trans
    723       5    1  -0.816696000000    -8.035604   -12.867939     6.853383  # O74 COF_ff_trans_trans
    724       5    1  -0.816696000000    -9.134698   -11.508225     5.434483  # O75 COF_ff_trans_trans
    725       5    1  -0.816696000000    -9.482772   -11.470308     8.160783  # O76 COF_ff_trans_trans
    726       5    9   1.459004000000     6.259734    -6.952026     6.797983  # S77 COF_ff_trans_trans
    727       5    1  -0.816696000000     4.778283    -6.503973     6.849683  # O78 COF_ff_trans_trans
    728       5    1  -0.816696000000     6.506254    -6.222440     5.439083  # O79 COF_ff_trans_trans
    729       5    1  -0.816720000000     6.702858    -5.942312     8.158483  # O80 COF_ff_trans_trans
    730       5    1  -0.569996000000     2.344640   -15.138567     6.797983  # O0 COF_ff_trans_trans
    731       5    1  -0.569996000000    -2.377787   -14.357051     6.797983  # O1 COF_ff_trans_trans
    732       5    1  -0.569996000000     0.660212   -10.658082     6.797983  # O2 COF_ff_trans_trans
    733       5    1  -0.569996000000    -1.926646    14.414887     6.797983  # O3 COF_ff_trans_trans
    734       5    1  -0.569996000000     2.795868    13.633321     6.797983  # O4 COF_ff_trans_trans
    735       5    1  -0.569996000000    -0.242218     9.934402     6.797983  # O5 COF_ff_trans_trans
    736       5    2  -0.599996000000     0.621653   -17.144867     6.797983  # N6 COF_ff_trans_trans
    737       5    2  -0.599996000000    -3.253930   -11.861775     6.797983  # N7 COF_ff_trans_trans
    738       5    2  -0.599996000000     3.259255   -11.147007     6.797983  # N8 COF_ff_trans_trans
    739       5    2  -0.599996000000    -0.203659    16.421187     6.797983  # N9 COF_ff_trans_trans
    740       5    2  -0.599996000000     3.671925    11.138095     6.797983  # N10 COF_ff_trans_trans
    741       5    2  -0.599996000000    -2.841261    10.423327     6.797983  # N11 COF_ff_trans_trans
    742       5    3   0.541204000000     1.354749   -14.338308     6.797983  # C12 COF_ff_trans_trans
    743       5    3   0.541204000000    -1.189757   -13.899922     6.797983  # C13 COF_ff_trans_trans
    744       5    3   0.541204000000     0.462072   -11.915470     6.797983  # C14 COF_ff_trans_trans
    745       5    3   0.541204000000    -0.936669    13.614578     6.797983  # C15 COF_ff_trans_trans
    746       5    3   0.541204000000     1.607838    13.176192     6.797983  # C16 COF_ff_trans_trans
    747       5    3   0.541204000000    -0.044078    11.191790     6.797983  # C17 COF_ff_trans_trans
    748       5    4   0.028804000000    -0.036368   -14.826794     6.797983  # C18 COF_ff_trans_trans
    749       5    4   0.028804000000    -0.917347   -12.450894     6.797983  # C19 COF_ff_trans_trans
    750       5    4   0.028804000000     1.580779   -12.876012     6.797983  # C20 COF_ff_trans_trans
    751       5    4   0.028804000000     0.454362    14.103114     6.797983  # C21 COF_ff_trans_trans
    752       5    4   0.028804000000     1.335341    11.727214     6.797983  # C22 COF_ff_trans_trans
    753       5    4   0.028804000000    -1.162699    12.152282     6.797983  # C23 COF_ff_trans_trans
    754       5    5  -0.049996000000    -0.307613   -16.187005     6.797983  # C24 COF_ff_trans_trans
    755       5    5  -0.049996000000    -1.959628   -11.535978     6.797983  # C25 COF_ff_trans_trans
    756       5    5  -0.049996000000     2.894256   -12.430804     6.797983  # C26 COF_ff_trans_trans
    757       5    5  -0.049996000000     0.725694    15.463275     6.797983  # C27 COF_ff_trans_trans
    758       5    5  -0.049996000000     2.377709    10.812248     6.797983  # C28 COF_ff_trans_trans
    759       5    5  -0.049996000000    -2.476262    11.707124     6.797983  # C29 COF_ff_trans_trans
    760       5    4   0.100004000000     0.413756   -18.484957     6.797983  # C30 COF_ff_trans_trans
    761       5    4   0.100004000000    -4.310404   -11.011642     6.797983  # C31 COF_ff_trans_trans
    762       5    4   0.100004000000     4.523713   -10.657102     6.797983  # C32 COF_ff_trans_trans
    763       5    4   0.100004000000     0.004325    17.761227     6.797983  # C33 COF_ff_trans_trans
    764       5    4   0.100004000000     4.728485    10.287912     6.797983  # C34 COF_ff_trans_trans
    765       5    4   0.100004000000    -4.105719     9.933422     6.797983  # C35 COF_ff_trans_trans
    766       5    4  -0.149996000000     1.503035   -19.377470     6.797983  # C36 COF_ff_trans_trans
    767       5    4  -0.149996000000    -5.627982   -11.508754     6.797983  # C37 COF_ff_trans_trans
    768       5    4  -0.149996000000     4.752012    -9.267476     6.797983  # C38 COF_ff_trans_trans
    769       5    4  -0.149996000000    -1.085040    18.653790     6.797983  # C39 COF_ff_trans_trans
    770       5    4  -0.149996000000     6.046063    10.785024     6.797983  # C40 COF_ff_trans_trans
    771       5    4  -0.149996000000    -4.333931     8.543746     6.797983  # C41 COF_ff_trans_trans
    772       5    4  -0.149996000000    -0.889361   -19.038222     6.797983  # C42 COF_ff_trans_trans
    773       5    4  -0.149996000000    -4.137940    -9.606524     6.797983  # C43 COF_ff_trans_trans
    774       5    4  -0.149996000000     5.654366   -11.508954     6.797983  # C44 COF_ff_trans_trans
    775       5    4  -0.008996000000     1.307356    18.314541     6.797983  # C45 COF_ff_trans_trans
    776       5    4  -0.008996000000     4.556021     8.882794     6.797983  # C46 COF_ff_trans_trans
    777       5    4  -0.008996000000    -5.236371    10.785274     6.797983  # C47 COF_ff_trans_trans
    778       5    6   0.150004000000     2.532754   -18.979745     6.797983  # H48 COF_ff_trans_trans
    779       5    6   0.150004000000    -5.798414   -12.599350     6.797983  # H49 COF_ff_trans_trans
    780       5    6   0.150004000000     3.892775    -8.574519     6.797983  # H50 COF_ff_trans_trans
    781       5    6   0.150004000000    -2.114759    18.256065     6.797983  # H51 COF_ff_trans_trans
    782       5    6   0.150004000000     6.216495    11.875620     6.797983  # H52 COF_ff_trans_trans
    783       5    6   0.150004000000    -3.474780     7.850839     6.797983  # H53 COF_ff_trans_trans
    784       5    7   0.150004000000    -1.366216   -16.530758     6.797983  # H54 COF_ff_trans_trans
    785       5    7   0.150004000000    -1.728068   -10.447304     6.797983  # H55 COF_ff_trans_trans
    786       5    7   0.150004000000     3.721348   -13.175639     6.797983  # H56 COF_ff_trans_trans
    787       5    7   0.150004000000     1.784210    15.807078     6.797983  # H57 COF_ff_trans_trans
    788       5    7   0.150004000000     2.146148     9.723574     6.797983  # H58 COF_ff_trans_trans
    789       5    7   0.150004000000    -3.303267    12.451909     6.797983  # H59 COF_ff_trans_trans
    790       5    6   0.150004000000    -1.773434   -18.373880     6.797983  # H60 COF_ff_trans_trans
    791       5    6   0.150004000000    -3.120639    -9.173108     6.797983  # H61 COF_ff_trans_trans
    792       5    6   0.150004000000     5.521088   -12.606799     6.797983  # H62 COF_ff_trans_trans
    793       5    8   0.400004000000     1.618636   -16.773044     6.797983  # H63 COF_ff_trans_trans
    794       5    8   0.400004000000    -3.430306   -12.911066     6.797983  # H64 COF_ff_trans_trans
    795       5    8   0.400004000000     2.438648   -10.469541     6.797983  # H65 COF_ff_trans_trans
    796       5    8   0.400004000000    -1.200641    16.049364     6.797983  # H66 COF_ff_trans_trans
    797       5    8   0.400004000000     3.848300    12.187386     6.797983  # H67 COF_ff_trans_trans
    798       5    8   0.400004000000    -2.020654     9.745860     6.797983  # H68 COF_ff_trans_trans
    799       5    9   1.459004000000     2.753007    17.225283     6.797983  # S69 COF_ff_trans_trans
    800       5    1  -0.816696000000     3.882142    18.283603     6.853983  # O70 COF_ff_trans_trans
    801       5    1  -0.816696000000     3.255881    16.653086     5.434383  # O71 COF_ff_trans_trans
    802       5    1  -0.816696000000     3.396946    16.332619     8.160983  # O72 COF_ff_trans_trans
    803       5    9   1.459004000000     2.890941     8.173392     6.797983  # S73 COF_ff_trans_trans
    804       5    1  -0.816696000000     3.242396     6.666130     6.853383  # O74 COF_ff_trans_trans
    805       5    1  -0.816696000000     2.143302     8.025844     5.434483  # O75 COF_ff_trans_trans
    806       5    1  -0.816696000000     1.795228     8.063761     8.160783  # O76 COF_ff_trans_trans
    807       5    9   1.459004000000    -5.018266    12.582043     6.797983  # S77 COF_ff_trans_trans
    808       5    1  -0.816696000000    -6.499717    13.030096     6.849683  # O78 COF_ff_trans_trans
    809       5    1  -0.816696000000    -4.771746    13.311629     5.439083  # O79 COF_ff_trans_trans
    810       5    1  -0.816720000000    -4.575142    13.591757     8.158483  # O80 COF_ff_trans_trans
    811       6   10   0.423800000000    -1.506234     1.240516     7.163639  # Hw spce
    812       6   11  -0.847600000000    -0.825430     1.835241     6.736078  # Ow spce
    813       6   10   0.423800000000    -1.106686     2.789636     6.836204  # Hw spce
    814       7   10   0.423800000000     9.645301   -18.000023   -23.499831  # Hw spce
    815       7   11  -0.847600000000     9.148276   -17.132669   -23.474106  # Ow spce
    816       7   10   0.423800000000     9.799841   -16.374377   -23.495483  # Hw spce
    817       8   10   0.423800000000     7.473976   -15.070624   -11.640670  # Hw spce
    818       8   11  -0.847600000000     8.152555   -15.801937   -11.572025  # Ow spce
    819       8   10   0.423800000000     8.992343   -15.522151   -12.037296  # Hw spce
    820       9   10   0.423800000000    -6.504213    -6.970093   -19.544403  # Hw spce
    821       9   11  -0.847600000000    -7.407789    -7.039371   -19.121612  # Ow spce
    822       9   10   0.423800000000    -7.342249    -7.577615   -18.281376  # Hw spce
    823      10   10   0.423800000000    -9.799879    14.188538   -16.886048  # Hw spce
    824      10   11  -0.847600000000    -9.465094    13.707598   -17.696366  # Ow spce
    825      10   10   0.423800000000    -9.306185    14.365491   -18.432521  # Hw spce
    826      11   10   0.423800000000     8.439362    17.342366   -12.614546  # Hw spce
    827      11   11  -0.847600000000     9.191849    18.000352   -12.585954  # Ow spce
    828      11   10   0.423800000000     9.797461    17.781087   -11.820999  # Hw spce
    829      12   10   0.423800000000    -9.799770     3.699509    22.300227  # Hw spce
    830      12   11  -0.847600000000    -9.704880     3.563375    23.286363  # Ow spce
    831      12   10   0.423800000000    -9.800000     2.590945    23.499273  # Hw spce
    832      13   10   0.423800000000     8.165151     3.874787    21.316427  # Hw spce
    833      13   11  -0.847600000000     9.156314     3.901741    21.446306  # Ow spce
    834      13   10   0.423800000000     9.608824     3.923550    20.554814  # Hw spce
    835      14   10   0.423800000000     4.852859    17.999996    -4.277048  # Hw spce
    836      14   11  -0.847600000000     5.836218    17.976906    -4.457245  # Ow spce
    837      14   10   0.423800000000     5.993895    17.962362    -5.444629  # Hw spce
    838      15   10   0.423800000000    -8.185513     4.552469   -14.789162  # Hw spce
    839      15   11  -0.847600000000    -8.487046     4.132619   -15.645201  # Ow spce
    840      15   10   0.423800000000    -9.412953     4.442928   -15.860618  # Hw spce
    841      16   10   0.423800000000    -9.800000    -9.847817    18.851725  # Hw spce
    842      16   11  -0.847600000000    -9.235213    -9.320669    19.486650  # Ow spce
    843      16   10   0.423800000000    -9.800000    -8.633316    19.943335  # Hw spce
    844      17   10   0.423800000000     6.655392    -1.046183     6.552144  # Hw spce
    845      17   11  -0.847600000000     6.112359    -1.154709     5.719476  # Ow spce
    846      17   10   0.423800000000     6.473085    -0.554391     5.005687  # Hw spce
    847      18   10   0.423800000000    -0.449801    -0.616354    10.178204  # Hw spce
    848      18   11  -0.847600000000     0.185365    -1.371728    10.017036  # Ow spce
    849      18   10   0.423800000000     0.035964    -1.743087     9.100646  # Hw spce
    850      19   10   0.423800000000     3.547011    -0.650378   -23.320940  # Hw spce
    851      19   11  -0.847600000000     3.708321     0.320872   -23.496016  # Ow spce
    852      19   10   0.423800000000     2.835238     0.808431   -23.499490  # Hw spce
    853      20   10   0.423800000000    -4.257749    -5.762934   -10.918379  # Hw spce
    854      20   11  -0.847600000000    -3.472306    -5.483781   -11.470784  # Ow spce
    855      20   10   0.423800000000    -3.066242    -4.657953   -11.079478  # Hw spce
    856      21   10   0.423800000000     7.796387     8.525577   -11.075532  # Hw spce
    857      21   11  -0.847600000000     7.446513     9.024805   -10.282841  # Ow spce
    858      21   10   0.423800000000     7.179788     9.947507   -10.561191  # Hw spce
    859      22   10   0.423800000000     4.498015    -4.852722   -15.276386  # Hw spce
    860      22   11  -0.847600000000     4.782890    -3.939244   -15.566912  # Ow spce
    861      22   10   0.423800000000     4.490760    -3.266929   -14.886727  # Hw spce
    862      23   10   0.423800000000     9.800981    -8.757342   -23.457897  # Hw spce
    863      23   11  -0.847600000000     9.626384    -9.741979   -23.460617  # Ow spce
    864      23   10   0.423800000000     8.640671    -9.905594   -23.500608  # Hw spce
    865      24   10   0.423800000000    -0.052266    17.987375   -15.668180  # Hw spce
    866      24   11  -0.847600000000     0.739041    17.428140   -15.915342  # Ow spce
    867      24   10   0.423800000000     1.559251    17.999966   -15.931768  # Hw spce
    868      25   10   0.423800000000    -7.727095    -0.911661    23.106503  # Hw spce
    869      25   11  -0.847600000000    -8.499563    -0.332587    23.367207  # Ow spce
    870      25   10   0.423800000000    -8.182324     0.606415    23.499997  # Hw spce
    871      26   10   0.423800000000     9.666876   -13.873789   -22.390264  # Hw spce
    872      26   11  -0.847600000000     9.608196   -13.656405   -23.364585  # Ow spce
    873      26   10   0.423800000000     9.800455   -12.684652   -23.501451  # Hw spce
    874      27   10   0.423800000000     9.008372    16.115168   -23.500027  # Hw spce
    875      27   11  -0.847600000000     9.080807    15.208759   -23.083885  # Ow spce
    876      27   10   0.423800000000     8.408826    14.596231   -23.500121  # Hw spce
    877      28   10   0.423800000000     5.023757   -18.000000     7.634573  # Hw spce
    878      28   11  -0.847600000000     4.422717   -17.517589     8.271778  # Ow spce
    879      28   10   0.423800000000     4.411774   -17.998386     9.148542  # Hw spce
    880      29   10   0.423800000000    -9.221882    14.165254    -1.722307  # Hw spce
    881      29   11  -0.847600000000    -8.279446    14.410402    -1.494896  # Ow spce
    882      29   10   0.423800000000    -8.242014    15.371153    -1.220023  # Hw spce
    883      30   10   0.423800000000     9.340061    14.334884   -11.417745  # Hw spce
    884      30   11  -0.847600000000     9.386163    15.332547   -11.468171  # Ow spce
    885      30   10   0.423800000000     9.039059    15.725716   -10.616739  # Hw spce
    886      31   10   0.423800000000    -9.788862     7.664084   -13.321906  # Hw spce
    887      31   11  -0.847600000000    -9.799988     6.667754   -13.406774  # Ow spce
    888      31   10   0.423800000000    -9.799976     6.415642   -14.374472  # Hw spce
    889      32   10   0.423800000000    -9.800059   -16.403627   -21.061450  # Hw spce
    890      32   11  -0.847600000000    -9.064696   -17.080841   -21.036465  # Ow spce
    891      32   10   0.423800000000    -9.457932   -18.000256   -21.042720  # Hw spce
    892      33   10   0.423800000000    -2.630955    -1.180817   -12.700543  # Hw spce
    893      33   11  -0.847600000000    -2.590073    -1.398334   -11.725343  # Ow spce
    894      33   10   0.423800000000    -2.257894    -0.602004   -11.219858  # Hw spce
    895      34   10   0.423800000000    -9.503535   -15.468993    19.507607  # Hw spce
    896      34   11  -0.847600000000    -9.660159   -14.591544    19.960984  # Ow spce
    897      34   10   0.423800000000    -9.625315   -14.717713    20.952381  # Hw spce
    898      35   10   0.423800000000    -8.902274   -18.000000     3.439590  # Hw spce
    899      35   11  -0.847600000000    -9.800000   -17.915046     3.007303  # Ow spce
    900      35   10   0.423800000000    -9.701857   -17.999951     2.015760  # Hw spce
    901      36   10   0.423800000000     2.217037    10.342888   -23.499938  # Hw spce
    902      36   11  -0.847600000000     1.563873    10.962239   -23.064299  # Ow spce
    903      36   10   0.423800000000     0.669230    10.863387   -23.500007  # Hw spce
    904      37   10   0.423800000000    -8.305736    -0.530172    18.397338  # Hw spce
    905      37   11  -0.847600000000    -9.252598    -0.262923    18.218365  # Ow spce
    906      37   10   0.423800000000    -9.800000    -0.402589    19.043498  # Hw spce
    907      38   10   0.423800000000     4.480377   -17.600369    -2.231593  # Hw spce
    908      38   11  -0.847600000000     5.260100   -17.999919    -2.713665  # Ow spce
    909      38   10   0.423800000000     6.060066   -17.996973    -2.113627  # Hw spce
    910      39   10   0.423800000000    -3.368501    -4.824584   -23.497572  # Hw spce
    911      39   11  -0.847600000000    -4.300998    -4.942230   -23.156093  # Ow spce
    912      39   10   0.423800000000    -4.877806    -4.201192   -23.499828  # Hw spce
    913      40   10   0.423800000000    -7.676547     5.210288     9.015503  # Hw spce
    914      40   11  -0.847600000000    -7.657664     4.308575     9.447424  # Ow spce
    915      40   10   0.423800000000    -8.550824     3.870822     9.344282  # Hw spce
    916      41   10   0.423800000000    -9.792009    -3.479725    10.230520  # Hw spce
    917      41   11  -0.847600000000    -9.797655    -2.480407    10.267012  # Ow spce
    918      41   10   0.423800000000    -9.800000    -2.112918     9.336987  # Hw spce
    919      42   10   0.423800000000     8.057600    -0.341552   -15.662641  # Hw spce
    920      42   11  -0.847600000000     7.108560    -0.027282   -15.639020  # Ow spce
    921      42   10   0.423800000000     7.085928     0.970114   -15.707497  # Hw spce
    922      43   10   0.423800000000    -2.797011    -8.439927    20.519597  # Hw spce
    923      43   11  -0.847600000000    -3.063806    -8.394261    21.482267  # Ow spce
    924      43   10   0.423800000000    -2.277816    -8.621763    22.057127  # Hw spce
    925      44   10   0.423800000000    -3.159061    -2.817020   -22.022508  # Hw spce
    926      44   11  -0.847600000000    -2.901991    -2.105596   -21.368451  # Ow spce
    927      44   10   0.423800000000    -3.276279    -2.329212   -20.468504  # Hw spce
    928      45   10   0.423800000000     2.246722    -4.460611   -21.490739  # Hw spce
    929      45   11  -0.847600000000     1.886519    -3.735881   -22.078124  # Ow spce
    930      45   10   0.423800000000     1.911977    -2.865205   -21.586926  # Hw spce
    931      46   10   0.423800000000     6.586115    17.999641    21.867846  # Hw spce
    932      46   11  -0.847600000000     6.600789    17.160990    22.412317  # Ow spce
    933      46   10   0.423800000000     7.178466    16.480746    21.961144  # Hw spce
    934      47   10   0.423800000000    -1.052629     8.480976    -4.875105  # Hw spce
    935      47   11  -0.847600000000    -1.469971     7.686786    -5.316794  # Ow spce
    936      47   10   0.423800000000    -2.186768     7.315518    -4.726573  # Hw spce
    937      48   10   0.423800000000    -5.578369    17.999999    -8.723639  # Hw spce
    938      48   11  -0.847600000000    -5.201604    17.506175    -9.507339  # Ow spce
    939      48   10   0.423800000000    -5.420229    18.000041   -10.348944  # Hw spce
    940      49   10   0.423800000000     5.839962    -5.974170   -23.500019  # Hw spce
    941      49   11  -0.847600000000     4.943410    -5.877266   -23.067811  # Ow spce
    942      49   10   0.423800000000     4.448069    -5.120225   -23.493869  # Hw spce
    943      50   10   0.423800000000    -3.577177     2.684171     8.601300  # Hw spce
    944      50   11  -0.847600000000    -3.900108     2.427988     7.690209  # Ow spce
    945      50   10   0.423800000000    -3.603250     3.114244     7.026186  # Hw spce
    946      51   10   0.423800000000     9.800000    16.753070    23.500000  # Hw spce
    947      51   11  -0.847600000000     9.788380    17.736261    23.317786  # Ow spce
    948      51   10   0.423800000000     8.889060    18.000000    22.968981  # Hw spce
    949      52   10   0.423800000000    -9.800000   -13.882643    -2.747755  # Hw spce
    950      52   11  -0.847600000000    -8.915731   -14.258701    -3.024611  # Ow spce
    951      52   10   0.423800000000    -8.342001   -14.391021    -2.216325  # Hw spce
    952      53   10   0.423800000000    -5.481376    -6.806817   -12.832289  # Hw spce
    953      53   11  -0.847600000000    -5.003088    -7.382320   -13.495641  # Ow spce
    954      53   10   0.423800000000    -5.327377    -8.324773   -13.414284  # Hw spce
    955      54   10   0.423800000000    -6.241441   -10.350906   -20.071273  # Hw spce
    956      54   11  -0.847600000000    -6.616842    -9.427740   -19.988570  # Ow spce
    957      54   10   0.423800000000    -7.615811    -9.473097   -19.986502  # Hw spce
    958      55   10   0.423800000000    -9.025120    16.978679   -23.499997  # Hw spce
    959      55   11  -0.847600000000    -9.677843    17.734264   -23.444826  # Ow spce
    960      55   10   0.423800000000    -9.800016    18.000032   -22.488563  # Hw spce
    961      56   10   0.423800000000     0.278036     4.966926   -23.494368  # Hw spce
    962      56   11  -0.847600000000    -0.197301     4.087125   -23.492125  # Ow spce
    963      56   10   0.423800000000    -1.185204     4.241996   -23.500096  # Hw spce
    964      57   10   0.423800000000    -9.799940     2.499939    12.805887  # Hw spce
    965      57   11  -0.847600000000    -9.669692     3.480592    12.952017  # Ow spce
    966      57   10   0.423800000000    -9.773388     3.963797    12.082672  # Hw spce
    967      58   10   0.423800000000    -4.740007     0.471667    -4.061141  # Hw spce
    968      58   11  -0.847600000000    -4.184626    -0.134766    -3.492114  # Ow spce
    969      58   10   0.423800000000    -4.008193    -0.986217    -3.985978  # Hw spce
    970      59   10   0.423800000000    -7.326324    17.211983   -19.654316  # Hw spce
    971      59   11  -0.847600000000    -7.571789    16.591669   -18.909360  # Ow spce
    972      59   10   0.423800000000    -7.039104    15.749024   -18.988071  # Hw spce
    973      60   10   0.423800000000     6.713728    14.536869    -6.782923  # Hw spce
    974      60   11  -0.847600000000     6.066536    15.299172    -6.776850  # Ow spce
    975      60   10   0.423800000000     5.139268    14.950252    -6.912603  # Hw spce
    976      61   10   0.423800000000    -4.232007    17.173960    -2.207090  # Hw spce
    977      61   11  -0.847600000000    -4.662421    18.000000    -1.843219  # Ow spce
    978      61   10   0.423800000000    -5.476410    17.748683    -1.319519  # Hw spce
    979      62   10   0.423800000000     0.196603    -1.130054    23.197220  # Hw spce
    980      62   11  -0.847600000000    -0.712300    -1.541121    23.267362  # Ow spce
    981      62   10   0.423800000000    -1.380795    -0.834364    23.498899  # Hw spce
    982      63   10   0.423800000000    -2.344341   -17.497313    20.305993  # Hw spce
    983      63   11  -0.847600000000    -1.585793   -18.000000    19.891372  # Ow spce
    984      63   10   0.423800000000    -1.025406   -17.372032    19.351351  # Hw spce
    985      64   10   0.423800000000    -4.928905    16.319115     8.678216  # Hw spce
    986      64   11  -0.847600000000    -5.683991    16.970637     8.751450  # Ow spce
    987      64   10   0.423800000000    -5.322110    17.877230     8.968547  # Hw spce
    988      65   10   0.423800000000     5.867404    -1.565567   -23.152773  # Hw spce
    989      65   11  -0.847600000000     6.810353    -1.544576   -23.485048  # Ow spce
    990      65   10   0.423800000000     7.325555    -0.850484   -22.982252  # Hw spce
    991      66   10   0.423800000000     9.800542    16.683715   -21.198028  # Hw spce
    992      66   11  -0.847600000000     9.453203    15.967497   -20.592729  # Ow spce
    993      66   10   0.423800000000     9.757224    16.145611   -19.656862  # Hw spce
    994      67   10   0.423800000000     7.153130   -11.966909   -13.196164  # Hw spce
    995      67   11  -0.847600000000     6.213603   -12.223113   -12.968901  # Ow spce
    996      67   10   0.423800000000     6.196552   -13.165699   -12.635372  # Hw spce
    997      68   10   0.423800000000    -3.504629   -17.292501   -19.487576  # Hw spce
    998      68   11  -0.847600000000    -3.987321   -18.000058   -18.971464  # Ow spce
    999      68   10   0.423800000000    -3.787029   -17.897083   -17.997155  # Hw spce
   1000      69   10   0.423800000000     3.201347    12.841963   -22.875859  # Hw spce
   1001      69   11  -0.847600000000     3.754002    12.073068   -22.554343  # Ow spce
   1002      69   10   0.423800000000     4.346583    11.755884   -23.294776  # Hw spce
   1003      70   10   0.423800000000     9.800000    -3.645014    19.481845  # Hw spce
   1004      70   11  -0.847600000000     8.992621    -3.083600    19.663374  # Ow spce
   1005      70   10   0.423800000000     8.330828    -3.202285    18.923141  # Hw spce
   1006      71   10   0.423800000000    -4.371871   -17.859366     9.903683  # Hw spce
   1007      71   11  -0.847600000000    -3.480391   -17.999992     9.473000  # Ow spce
   1008      71   10   0.423800000000    -3.536143   -17.757411     8.504472  # Hw spce
   1009      72   10   0.423800000000     5.258638     0.506817    11.177488  # Hw spce
   1010      72   11  -0.847600000000     5.029339     1.083773    11.961416  # Ow spce
   1011      72   10   0.423800000000     4.131006     0.823544    12.315361  # Hw spce
   1012      73   10   0.423800000000    -1.581826    -0.388025    -1.263940  # Hw spce
   1013      73   11  -0.847600000000    -1.722407    -1.275486    -1.702860  # Ow spce
   1014      73   10   0.423800000000    -2.696034    -1.403403    -1.891773  # Hw spce
   1015      74   10   0.423800000000    -1.981501     3.709409   -19.415706  # Hw spce
   1016      74   11  -0.847600000000    -2.978303     3.696492   -19.336844  # Ow spce
   1017      74   10   0.423800000000    -3.315221     4.630233   -19.215958  # Hw spce
   1018      75   10   0.423800000000    -7.702113    -2.768488    13.873415  # Hw spce
   1019      75   11  -0.847600000000    -6.871097    -2.253900    14.084629  # Ow spce
   1020      75   10   0.423800000000    -7.056985    -1.274355    14.007582  # Hw spce
   1021      76   10   0.423800000000    -9.705021    12.157127    -5.962824  # Hw spce
   1022      76   11  -0.847600000000    -9.799379    12.404397    -4.998483  # Ow spce
   1023      76   10   0.423800000000    -9.785596    13.400090    -4.906805  # Hw spce
   1024      77   10   0.423800000000     4.312397    -0.618848    -0.733238  # Hw spce
   1025      77   11  -0.847600000000     4.595124    -0.584574    -1.691826  # Ow spce
   1026      77   10   0.423800000000     4.078896     0.128434    -2.166302  # Hw spce
   1027      78   10   0.423800000000     5.703336    -2.994763    18.040982  # Hw spce
   1028      78   11  -0.847600000000     5.562283    -2.008699    17.952765  # Ow spce
   1029      78   10   0.423800000000     4.973797    -1.688441    18.695139  # Hw spce
   1030      79   10   0.423800000000     9.766122   -14.788310    13.396509  # Hw spce
   1031      79   11  -0.847600000000     9.486877   -15.401516    12.657591  # Ow spce
   1032      79   10   0.423800000000     9.800000   -15.032948    11.782313  # Hw spce
   1033      80   10   0.423800000000     2.439863    10.451005   -20.634837  # Hw spce
   1034      80   11  -0.847600000000     1.441173    10.399958   -20.631439  # Ow spce
   1035      80   10   0.423800000000     1.060185    11.324518   -20.625345  # Hw spce
   1036      81   10   0.423800000000    -3.219948    -1.747882   -15.955875  # Hw spce
   1037      81   11  -0.847600000000    -3.446934    -0.774333   -15.981945  # Ow spce
   1038      81   10   0.423800000000    -4.440687    -0.664132   -15.999565  # Hw spce
   1039      82   10   0.423800000000     7.722231    12.192373   -23.499986  # Hw spce
   1040      82   11  -0.847600000000     6.846416    11.744549   -23.319979  # Ow spce
   1041      82   10   0.423800000000     6.656544    11.766139   -22.338408  # Hw spce
   1042      83   10   0.423800000000    -5.449491     4.705223    21.068461  # Hw spce
   1043      83   11  -0.847600000000    -5.128159     4.377550    20.179992  # Ow spce
   1044      83   10   0.423800000000    -5.045568     3.381214    20.202163  # Hw spce
   1045      84   10   0.423800000000    -7.879427   -10.178174    17.189332  # Hw spce
   1046      84   11  -0.847600000000    -8.167655   -10.804206    16.464757  # Ow spce
   1047      84   10   0.423800000000    -7.626587   -10.632811    15.641429  # Hw spce
   1048      85   10   0.423800000000    -0.980580     3.581188     3.639238  # Hw spce
   1049      85   11  -0.847600000000    -0.993923     4.567663     3.802609  # Ow spce
   1050      85   10   0.423800000000    -1.018788     4.742192     4.786947  # Hw spce
   1051      86   10   0.423800000000     0.004141    -4.121190    -5.814715  # Hw spce
   1052      86   11  -0.847600000000     0.384296    -3.347899    -6.322163  # Ow spce
   1053      86   10   0.423800000000     1.028735    -2.851823    -5.740263  # Hw spce
   1054      87   10   0.423800000000    -5.870934   -16.418069   -19.448718  # Hw spce
   1055      87   11  -0.847600000000    -5.870802   -16.990363   -20.268767  # Ow spce
   1056      87   10   0.423800000000    -6.243357   -17.891361   -20.046495  # Hw spce
   1057      88   10   0.423800000000     4.211859    -9.900275   -21.892559  # Hw spce
   1058      88   11  -0.847600000000     4.862484    -9.897734   -21.133163  # Ow spce
   1059      88   10   0.423800000000     4.620155   -10.618940   -20.484211  # Hw spce
   1060      89   10   0.423800000000    -7.530449    -3.294440   -13.755842  # Hw spce
   1061      89   11  -0.847600000000    -7.691167    -4.277884   -13.672131  # Ow spce
   1062      89   10   0.423800000000    -7.059214    -4.770978   -14.270039  # Hw spce
   1063      90   10   0.423800000000    -9.795105    -0.430985    12.080078  # Hw spce
   1064      90   11  -0.847600000000    -9.235786    -0.894726    12.767178  # Ow spce
   1065      90   10   0.423800000000    -9.800000    -1.550236    13.269144  # Hw spce
   1066      91   10   0.423800000000     7.270395     9.713786    10.265760  # Hw spce
   1067      91   11  -0.847600000000     6.980789     8.759544    10.191255  # Ow spce
   1068      91   10   0.423800000000     7.693406     8.164907    10.563523  # Hw spce
   1069      92   10   0.423800000000    -9.796883   -16.358682   -10.055421  # Hw spce
   1070      92   11  -0.847600000000    -9.800137   -15.911186   -10.949700  # Ow spce
   1071      92   10   0.423800000000    -8.926607   -15.445917   -11.092776  # Hw spce
   1072      93   10   0.423800000000    -6.329998     4.741900   -21.925665  # Hw spce
   1073      93   11  -0.847600000000    -7.307943     4.684545   -21.724832  # Ow spce
   1074      93   10   0.423800000000    -7.560252     5.411497   -21.086177  # Hw spce
   1075      94   10   0.423800000000    -1.053979   -12.269938   -12.912039  # Hw spce
   1076      94   11  -0.847600000000    -0.241601   -11.686841   -12.918458  # Ow spce
   1077      94   10   0.423800000000    -0.520606   -10.726573   -12.924792  # Hw spce
   1078      95   10   0.423800000000     4.558849   -14.476162   -20.507871  # Hw spce
   1079      95   11  -0.847600000000     3.565657   -14.476763   -20.624352  # Ow spce
   1080      95   10   0.423800000000     3.277079   -15.348297   -21.020775  # Hw spce
   1081      96   10   0.423800000000    -7.414559     1.757967    12.903062  # Hw spce
   1082      96   11  -0.847600000000    -7.470046     1.489321    11.941422  # Ow spce
   1083      96   10   0.423800000000    -7.408227     2.303313    11.363846  # Hw spce
   1084      97   10   0.423800000000     2.389850   -15.028978   -10.291170  # Hw spce
   1085      97   11  -0.847600000000     2.252461   -14.046854   -10.162497  # Ow spce
   1086      97   10   0.423800000000     2.393186   -13.813856    -9.200256  # Hw spce
   1087      98   10   0.423800000000     8.774364     5.718828   -19.652909  # Hw spce
   1088      98   11  -0.847600000000     8.547977     4.760646   -19.477881  # Ow spce
   1089      98   10   0.423800000000     7.560405     4.669506   -19.349844  # Hw spce
   1090      99   10   0.423800000000     5.527403     2.779235   -23.448057  # Hw spce
   1091      99   11  -0.847600000000     6.330902     2.184026   -23.458790  # Ow spce
   1092      99   10   0.423800000000     6.037630     1.228865   -23.499503  # Hw spce
   1093     100   10   0.423800000000    -6.203196   -18.000000    15.330686  # Hw spce
   1094     100   11  -0.847600000000    -6.227564   -17.935046    16.328276  # Ow spce
   1095     100   10   0.423800000000    -7.174360   -17.999967    16.643494  # Hw spce
   1096     101   10   0.423800000000    -2.456108     2.528561    19.949920  # Hw spce
   1097     101   11  -0.847600000000    -2.518588     2.778852    20.916072  # Ow spce
   1098     101   10   0.423800000000    -2.617200     3.770619    20.997758  # Hw spce
   1099     102   10   0.423800000000     5.183200     9.374563    11.816236  # Hw spce
   1100     102   11  -0.847600000000     5.357661    10.356404    11.741732  # Ow spce
   1101     102   10   0.423800000000     6.141582    10.599926    12.312840  # Hw spce
   1102     103   10   0.423800000000    -5.523571    -8.974785    17.155934  # Hw spce
   1103     103   11  -0.847600000000    -5.137953    -9.778420    16.702645  # Ow spce
   1104     103   10   0.423800000000    -5.240519   -10.576955    17.295791  # Hw spce
   1105     104   10   0.423800000000     0.273081   -11.512298    10.073196  # Hw spce
   1106     104   11  -0.847600000000     1.005943   -11.708182     9.421626  # Ow spce
   1107     104   10   0.423800000000     1.891686   -11.574663     9.866183  # Hw spce
   1108     105   10   0.423800000000     5.680039    18.000023   -17.952766  # Hw spce
   1109     105   11  -0.847600000000     5.578586    17.980654   -16.958115  # Ow spce
   1110     105   10   0.423800000000     4.607121    18.000009   -16.721721  # Hw spce
   1111     106   10   0.423800000000    -4.799915    14.206607   -11.953260  # Hw spce
   1112     106   11  -0.847600000000    -4.621523    13.240961   -11.764305  # Ow spce
   1113     106   10   0.423800000000    -3.673807    13.129370   -11.465340  # Hw spce
   1114     107   10   0.423800000000     2.976774    -1.540017     9.776104  # Hw spce
   1115     107   11  -0.847600000000     3.477063    -1.379666    10.626985  # Ow spce
   1116     107   10   0.423800000000     2.839552    -1.081354    11.337329  # Hw spce
   1117     108   10   0.423800000000     0.881979     2.418738    21.296477  # Hw spce
   1118     108   11  -0.847600000000     1.156074     3.180537    21.883447  # Ow spce
   1119     108   10   0.423800000000     1.677185     3.844133    21.346713  # Hw spce
   1120     109   10   0.423800000000     0.409430    -3.637304    -2.879671  # Hw spce
   1121     109   11  -0.847600000000     1.286049    -4.118259    -2.864764  # Ow spce
   1122     109   10   0.423800000000     1.355222    -4.659223    -2.026569  # Hw spce
   1123     110   10   0.423800000000    -9.799870     1.824332   -22.974730  # Hw spce
   1124     110   11  -0.847600000000    -9.572693     2.644411   -23.499955  # Ow spce
   1125     110   10   0.423800000000    -8.585331     2.799174   -23.465855  # Hw spce
   1126     111   10   0.423800000000    -9.799942     3.576043   -21.191047  # Hw spce
   1127     111   11  -0.847600000000    -9.493553     2.776573   -20.674353  # Ow spce
   1128     111   10   0.423800000000    -8.618998     2.979473   -20.233916  # Hw spce
   1129     112   10   0.423800000000     5.360376     3.537366   -19.706647  # Hw spce
   1130     112   11  -0.847600000000     5.055479     4.164715   -20.423216  # Ow spce
   1131     112   10   0.423800000000     4.587295     4.944088   -20.006824  # Hw spce
   1132     113   10   0.423800000000    -9.800000    10.328280    17.658298  # Hw spce
   1133     113   11  -0.847600000000    -9.226276     9.839217    18.315305  # Ow spce
   1134     113   10   0.423800000000    -9.800000     9.252804    18.887110  # Hw spce
   1135     114   10   0.423800000000    -7.056400     1.851349     8.258289  # Hw spce
   1136     114   11  -0.847600000000    -6.830108     1.383088     9.112410  # Ow spce
   1137     114   10   0.423800000000    -6.369425     0.519575     8.907187  # Hw spce
   1138     115   10   0.423800000000     1.975136     4.420366    -2.630772  # Hw spce
   1139     115   11  -0.847600000000     1.652862     5.361885    -2.729163  # Ow spce
   1140     115   10   0.423800000000     2.433811     5.967067    -2.883674  # Hw spce
   1141     116   10   0.423800000000    -2.222352   -14.955160   -23.437269  # Hw spce
   1142     116   11  -0.847600000000    -3.213845   -14.836548   -23.383671  # Ow spce
   1143     116   10   0.423800000000    -3.431287   -13.861213   -23.345722  # Hw spce
   1144     117   10   0.423800000000     2.775536   -14.432943    23.500000  # Hw spce
   1145     117   11  -0.847600000000     3.679856   -14.013570    23.420439  # Ow spce
   1146     117   10   0.423800000000     3.928055   -13.937193    22.454746  # Hw spce
   1147     118   10   0.423800000000    -9.800000     0.830032    21.418650  # Hw spce
   1148     118   11  -0.847600000000    -8.962003     1.346655    21.242972  # Ow spce
   1149     118   10   0.423800000000    -8.247072     0.724001    20.924892  # Hw spce
   1150     119   10   0.423800000000    -1.955310   -16.021979   -21.183877  # Hw spce
   1151     119   11  -0.847600000000    -1.519413   -15.936356   -20.287963  # Ow spce
   1152     119   10   0.423800000000    -0.528143   -15.874081   -20.404169  # Hw spce
   1153     120   10   0.423800000000    -2.960768     8.280733    22.515950  # Hw spce
   1154     120   11  -0.847600000000    -2.516892     8.217208    21.622116  # Ow spce
   1155     120   10   0.423800000000    -2.707660     9.045692    21.095598  # Hw spce
   1156     121   10   0.423800000000    -2.287532    14.469496    18.545087  # Hw spce
   1157     121   11  -0.847600000000    -2.873231    13.677821    18.718892  # Ow spce
   1158     121   10   0.423800000000    -2.808856    13.420871    19.683171  # Hw spce
   1159     122   10   0.423800000000    -4.137617    15.208314   -21.231171  # Hw spce
   1160     122   11  -0.847600000000    -4.209317    16.067592   -20.724713  # Ow spce
   1161     122   10   0.423800000000    -5.173139    16.280711   -20.564624  # Hw spce
   1162     123   10   0.423800000000     3.687527   -15.846083   -23.499842  # Hw spce
   1163     123   11  -0.847600000000     2.995438   -16.550115   -23.340621  # Ow spce
   1164     123   10   0.423800000000     2.084835   -16.157754   -23.470446  # Hw spce
   1165     124   10   0.423800000000    -9.230498   -13.355727   -23.132880  # Hw spce
   1166     124   11  -0.847600000000    -8.721103   -13.867063   -22.440745  # Ow spce
   1167     124   10   0.423800000000    -9.304722   -14.021137   -21.643469  # Hw spce
   1168     125   10   0.423800000000     5.574531   -15.065354    -8.801492  # Hw spce
   1169     125   11  -0.847600000000     4.814659   -14.520286    -9.155747  # Ow spce
   1170     125   10   0.423800000000     4.835642   -14.529286   -10.155486  # Hw spce
   1171     126   10   0.423800000000    -5.697633    -3.642961     6.068137  # Hw spce
   1172     126   11  -0.847600000000    -5.627926    -4.572431     5.705884  # Ow spce
   1173     126   10   0.423800000000    -6.544884    -4.934371     5.537994  # Hw spce
   1174     127   10   0.423800000000     2.967168   -18.000000    18.213366  # Hw spce
   1175     127   11  -0.847600000000     2.284812   -17.423545    18.662909  # Ow spce
   1176     127   10   0.423800000000     1.640088   -18.000000    19.164935  # Hw spce
   1177     128   10   0.423800000000     7.509725   -17.999171     1.719800  # Hw spce
   1178     128   11  -0.847600000000     7.480624   -17.429371     2.541068  # Ow spce
   1179     128   10   0.423800000000     7.272433   -18.000000     3.335448  # Hw spce
   1180     129   10   0.423800000000     5.139104    -7.532184    14.205656  # Hw spce
   1181     129   11  -0.847600000000     5.536105    -7.390605    15.112489  # Ow spce
   1182     129   10   0.423800000000     5.768904    -8.275349    15.516260  # Hw spce
   1183     130   10   0.423800000000     4.471320   -17.994494    23.358872  # Hw spce
   1184     130   11  -0.847600000000     4.914662   -17.109321    23.500000  # Ow spce
   1185     130   10   0.423800000000     4.516665   -16.434370    22.878679  # Hw spce
   1186     131   10   0.423800000000     3.944805   -15.229840   -12.611750  # Hw spce
   1187     131   11  -0.847600000000     3.936103   -14.231510   -12.554651  # Ow spce
   1188     131   10   0.423800000000     3.093740   -13.881542   -12.964465  # Hw spce
   1189     132   10   0.423800000000     6.692005    -1.467319     1.185215  # Hw spce
   1190     132   11  -0.847600000000     6.382348    -1.998900     0.396841  # Ow spce
   1191     132   10   0.423800000000     6.923247    -2.837062     0.326753  # Hw spce
   1192     133   10   0.423800000000    -4.785575   -15.700023   -17.314150  # Hw spce
   1193     133   11  -0.847600000000    -4.229901   -15.902266   -16.507723  # Ow spce
   1194     133   10   0.423800000000    -4.827757   -16.137982   -15.741560  # Hw spce
   1195     134   10   0.423800000000    -9.054560    12.022713   -15.884193  # Hw spce
   1196     134   11  -0.847600000000    -9.538621    12.442215   -15.116273  # Ow spce
   1197     134   10   0.423800000000    -9.669587    11.763253   -14.393875  # Hw spce
   1198     135   10   0.423800000000    -9.524451   -18.000491   -16.374667  # Hw spce
   1199     135   11  -0.847600000000    -9.799612   -17.131611   -16.786168  # Ow spce
   1200     135   10   0.423800000000    -9.799390   -16.416755   -16.086898  # Hw spce
   1201     136   10   0.423800000000    -5.462942     0.986662    21.419212  # Hw spce
   1202     136   11  -0.847600000000    -6.073881     0.709045    22.160618  # Ow spce
   1203     136   10   0.423800000000    -5.554258     0.638984    23.012136  # Hw spce
   1204     137   10   0.423800000000    -4.412201     9.168146    17.785695  # Hw spce
   1205     137   11  -0.847600000000    -5.149885     9.822350    17.952547  # Ow spce
   1206     137   10   0.423800000000    -4.781260    10.630227    18.412383  # Hw spce
   1207     138   10   0.423800000000    -5.104459   -17.976888    -6.293470  # Hw spce
   1208     138   11  -0.847600000000    -6.045496   -17.999993    -5.955958  # Ow spce
   1209     138   10   0.423800000000    -6.051799   -17.814727    -4.973290  # Hw spce
   1210     139   10   0.423800000000    -0.047406   -14.099157    23.500000  # Hw spce
   1211     139   11  -0.847600000000    -0.154188   -14.300443    22.526305  # Ow spce
   1212     139   10   0.423800000000    -0.121486   -13.448179    22.004217  # Hw spce
   1213     140   10   0.423800000000     0.114320    -2.331349    18.600131  # Hw spce
   1214     140   11  -0.847600000000     0.941326    -2.874623    18.455515  # Ow spce
   1215     140   10   0.423800000000     1.574196    -2.368731    17.869384  # Hw spce
   1216     141   10   0.423800000000    -9.800218    -9.306650   -23.500005  # Hw spce
   1217     141   11  -0.847600000000    -9.223177   -10.114633   -23.380900  # Ow spce
   1218     141   10   0.423800000000    -9.800251   -10.927188   -23.298802  # Hw spce
   1219     142   10   0.423800000000    -4.027061    11.518034    13.613034  # Hw spce
   1220     142   11  -0.847600000000    -4.984933    11.798394    13.550747  # Ow spce
   1221     142   10   0.423800000000    -5.058799    12.604432    12.963511  # Hw spce
   1222     143   10   0.423800000000    -4.709625    -4.556223    20.673355  # Hw spce
   1223     143   11  -0.847600000000    -4.822510    -5.376619    21.233896  # Ow spce
   1224     143   10   0.423800000000    -5.733334    -5.760784    21.082842  # Hw spce
   1225     144   10   0.423800000000    -3.973285     9.909302   -21.542916  # Hw spce
   1226     144   11  -0.847600000000    -3.645450     9.289198   -22.255654  # Ow spce
   1227     144   10   0.423800000000    -4.047498     9.548462   -23.133800  # Hw spce
   1228     145   10   0.423800000000    -9.784221    13.986639   -12.271836  # Hw spce
   1229     145   11  -0.847600000000    -9.670017    14.936279   -11.980046  # Ow spce
   1230     145   10   0.423800000000    -9.319832    14.957420   -11.043604  # Hw spce
   1231     146   10   0.423800000000     4.333250    -0.575956     3.713150  # Hw spce
   1232     146   11  -0.847600000000     3.942526    -1.085615     4.479689  # Ow spce
   1233     146   10   0.423800000000     3.125489    -0.614109     4.811550  # Hw spce
   1234     147   10   0.423800000000    -0.264009   -18.000000   -15.700256  # Hw spce
   1235     147   11  -0.847600000000    -0.159215   -17.451745   -14.870537  # Ow spce
   1236     147   10   0.423800000000     0.288693   -17.999190   -14.163654  # Hw spce
   1237     148   10   0.423800000000     2.034448    16.542517    18.305633  # Hw spce
   1238     148   11  -0.847600000000     1.208625    17.063539    18.521394  # Ow spce
   1239     148   10   0.423800000000     1.307941    18.000000    18.184977  # Hw spce
   1240     149   10   0.423800000000     6.399660    12.654814   -13.890988  # Hw spce
   1241     149   11  -0.847600000000     5.713512    11.976377   -13.628453  # Ow spce
   1242     149   10   0.423800000000     4.808924    12.402608   -13.621589  # Hw spce
   1243     150   10   0.423800000000    -7.742605     4.467591    16.325248  # Hw spce
   1244     150   11  -0.847600000000    -7.410146     4.427747    15.382973  # Ow spce
   1245     150   10   0.423800000000    -7.483329     3.490140    15.043066  # Hw spce
   1246     151   10   0.423800000000    -9.799777    16.464098    19.994519  # Hw spce
   1247     151   11  -0.847600000000    -9.228603    17.203754    19.638613  # Ow spce
   1248     151   10   0.423800000000    -9.800000    18.000000    19.439873  # Hw spce
   1249     152   10   0.423800000000    -9.798723     9.250300   -10.461363  # Hw spce
   1250     152   11  -0.847600000000    -9.646346    10.045411   -11.048373  # Ow spce
   1251     152   10   0.423800000000    -9.794471     9.788030   -12.003263  # Hw spce
   1252     153   10   0.423800000000    -3.940563    -6.535256   -15.645662  # Hw spce
   1253     153   11  -0.847600000000    -4.383420    -5.822731   -16.189891  # Ow spce
   1254     153   10   0.423800000000    -4.799887    -6.233342   -17.001035  # Hw spce
   1255     154   10   0.423800000000     9.800000    -2.199643    16.879725  # Hw spce
   1256     154   11  -0.847600000000     9.538218    -1.235397    16.920962  # Ow spce
   1257     154   10   0.423800000000     8.637251    -1.116482    16.503689  # Hw spce
   1258     155   10   0.423800000000    -9.236775   -15.673861   -18.737632  # Hw spce
   1259     155   11  -0.847600000000    -8.320889   -15.968382   -18.464849  # Ow spce
   1260     155   10   0.423800000000    -8.198513   -16.933583   -18.695955  # Hw spce
   1261     156   10   0.423800000000     4.402878     3.627241    -1.818811  # Hw spce
   1262     156   11  -0.847600000000     3.908777     4.065260    -1.067809  # Ow spce
   1263     156   10   0.423800000000     3.308170     3.396743    -0.629227  # Hw spce
   1264     157   10   0.423800000000    -1.659490    -5.323313   -16.366619  # Hw spce
   1265     157   11  -0.847600000000    -2.151454    -4.452783   -16.354480  # Ow spce
   1266     157   10   0.423800000000    -1.495297    -3.699770   -16.305184  # Hw spce
   1267     158   10   0.423800000000    -8.794061   -11.030354    12.622876  # Hw spce
   1268     158   11  -0.847600000000    -8.074178   -10.336335    12.612546  # Ow spce
   1269     158   10   0.423800000000    -8.488635    -9.426343    12.600710  # Hw spce
   1270     159   10   0.423800000000     9.800000   -16.859909    20.144214  # Hw spce
   1271     159   11  -0.847600000000     9.228880   -17.490559    20.669668  # Ow spce
   1272     159   10   0.423800000000     9.800000   -18.000000    21.313323  # Hw spce
   1273     160   10   0.423800000000    -0.994529     8.140934     2.011472  # Hw spce
   1274     160   11  -0.847600000000    -1.699949     7.465232     2.225503  # Ow spce
   1275     160   10   0.423800000000    -1.278820     6.563648     2.324477  # Hw spce
   1276     161   10   0.423800000000     8.256139    17.207749   -17.251054  # Hw spce
   1277     161   11  -0.847600000000     8.863247    18.000091   -17.311176  # Ow spce
   1278     161   10   0.423800000000     9.733982    17.722770   -17.717270  # Hw spce
   1279     162   10   0.423800000000     5.438780     5.725477    11.722936  # Hw spce
   1280     162   11  -0.847600000000     5.631349     5.854843    12.695654  # Ow spce
   1281     162   10   0.423800000000     5.959617     6.786834    12.849379  # Hw spce
   1282     163   10   0.423800000000     9.169239    11.965970   -15.984675  # Hw spce
   1283     163   11  -0.847600000000     8.271793    11.525146   -15.968391  # Ow spce
   1284     163   10   0.423800000000     7.557884    12.218935   -16.063211  # Hw spce
   1285     164   10   0.423800000000     1.802340    15.043515     9.853034  # Hw spce
   1286     164   11  -0.847600000000     1.054273    14.623739     9.339046  # Ow spce
   1287     164   10   0.423800000000     0.245904    15.210378     9.387965  # Hw spce
   1288     165   10   0.423800000000     9.799918     6.215449    -9.216343  # Hw spce
   1289     165   11  -0.847600000000     8.815157     6.042479    -9.234432  # Ow spce
   1290     165   10   0.423800000000     8.323793     6.913421    -9.239015  # Hw spce
   1291     166   10   0.423800000000    -9.381301    -6.002993   -12.145002  # Hw spce
   1292     166   11  -0.847600000000    -8.617007    -6.572141   -11.841812  # Ow spce
   1293     166   10   0.423800000000    -7.765695    -6.052278   -11.912595  # Hw spce
   1294     167   10   0.423800000000     3.122320    -3.324199   -19.317324  # Hw spce
   1295     167   11  -0.847600000000     2.356311    -2.744870   -19.038745  # Ow spce
   1296     167   10   0.423800000000     2.707033    -1.897141   -18.640813  # Hw spce
   1297     168   10   0.423800000000    -0.918571    -3.639755    20.537422  # Hw spce
   1298     168   11  -0.847600000000    -0.827419    -2.709431    20.892651  # Ow spce
   1299     168   10   0.423800000000     0.130993    -2.529708    21.114341  # Hw spce
   1300     169   10   0.423800000000     9.312211     4.341311   -12.813189  # Hw spce
   1301     169   11  -0.847600000000     9.612494     4.227246   -11.866184  # Ow spce
   1302     169   10   0.423800000000     9.799793     5.124148   -11.465578  # Hw spce
   1303     170   10   0.423800000000    -1.462925    17.246474   -17.636563  # Hw spce
   1304     170   11  -0.847600000000    -2.328318    17.690136   -17.869494  # Ow spce
   1305     170   10   0.423800000000    -2.299429    17.998572   -18.820300  # Hw spce
   1306     171   10   0.423800000000     5.637242    -3.187552   -12.523349  # Hw spce
   1307     171   11  -0.847600000000     6.616507    -3.261165   -12.712084  # Ow spce
   1308     171   10   0.423800000000     6.842917    -4.209719   -12.933407  # Hw spce
   1309     172   10   0.423800000000     7.404656    -7.813405    11.951126  # Hw spce
   1310     172   11  -0.847600000000     7.426116    -6.813660    11.958168  # Ow spce
   1311     172   10   0.423800000000     7.567404    -6.476739    11.027297  # Hw spce
   1312     173   10   0.423800000000    -5.507064   -14.321602     4.773216  # Hw spce
   1313     173   11  -0.847600000000    -6.460103   -14.619402     4.718159  # Ow spce
   1314     173   10   0.423800000000    -7.061465   -13.821391     4.757405  # Hw spce
   1315     174   10   0.423800000000    -3.796634     1.192316     5.439107  # Hw spce
   1316     174   11  -0.847600000000    -3.302462     1.530725     4.638311  # Ow spce
   1317     174   10   0.423800000000    -2.606716     2.187562     4.929002  # Hw spce
   1318     175   10   0.423800000000     4.061724   -15.293483     9.591307  # Hw spce
   1319     175   11  -0.847600000000     4.378555   -15.264055    10.539333  # Ow spce
   1320     175   10   0.423800000000     3.613589   -15.029821    11.139301  # Hw spce
   1321     176   10   0.423800000000    -5.165805    -0.919070    15.900391  # Hw spce
   1322     176   11  -0.847600000000    -4.697407    -1.781832    15.710007  # Ow spce
   1323     176   10   0.423800000000    -3.839788    -1.815798    16.223169  # Hw spce
   1324     177   10   0.423800000000     2.985693     2.642673    23.499987  # Hw spce
   1325     177   11  -0.847600000000     3.199380     1.679960    23.334090  # Ow spce
   1326     177   10   0.423800000000     2.350455     1.167758    23.203807  # Hw spce
   1327     178   10   0.423800000000    -5.262784    13.364612    18.041227  # Hw spce
   1328     178   11  -0.847600000000    -5.373441    14.037369    17.309686  # Ow spce
   1329     178   10   0.423800000000    -6.330287    14.324105    17.262488  # Hw spce
   1330     179   10   0.423800000000     8.327441     3.554946    17.847324  # Hw spce
   1331     179   11  -0.847600000000     8.155170     3.058318    16.996629  # Ow spce
   1332     179   10   0.423800000000     8.935285     2.467095    16.791989  # Hw spce
   1333     180   10   0.423800000000    -9.672485    13.618060   -23.433804  # Hw spce
   1334     180   11  -0.847600000000    -9.799999    14.606461   -23.351318  # Ow spce
   1335     180   10   0.423800000000    -9.768072    14.867282   -22.386459  # Hw spce
   1336     181   10   0.423800000000     9.799739   -13.023347   -14.081837  # Hw spce
   1337     181   11  -0.847600000000     9.470505   -13.963442   -13.993373  # Ow spce
   1338     181   10   0.423800000000     8.473178   -13.961844   -13.920329  # Hw spce
   1339     182   10   0.423800000000    -0.235682   -10.399034    12.813200  # Hw spce
   1340     182   11  -0.847600000000    -0.223626    -9.440142    13.096716  # Ow spce
   1341     182   10   0.423800000000    -0.745147    -8.892522    12.442401  # Hw spce
   1342     183   10   0.423800000000     3.155272   -12.555503   -17.535494  # Hw spce
   1343     183   11  -0.847600000000     2.975161   -12.470528   -18.515463  # Ow spce
   1344     183   10   0.423800000000     2.951966   -11.503073   -18.767437  # Hw spce
   1345     184   10   0.423800000000    -9.800426   -15.857255   -23.501002  # Hw spce
   1346     184   11  -0.847600000000    -9.222968   -16.673669   -23.497985  # Ow spce
   1347     184   10   0.423800000000    -9.800117   -17.490086   -23.478950  # Hw spce
   1348     185   10   0.423800000000    -9.800000    -1.517508    16.111224  # Hw spce
   1349     185   11  -0.847600000000    -8.896904    -1.522630    15.681815  # Ow spce
   1350     185   10   0.423800000000    -8.254742    -2.023506    16.262117  # Hw spce
   1351     186   10   0.423800000000    -3.282876    -5.692619    -5.669870  # Hw spce
   1352     186   11  -0.847600000000    -3.084584    -5.904577    -6.626820  # Ow spce
   1353     186   10   0.423800000000    -2.116530    -5.735507    -6.811982  # Hw spce
   1354     187   10   0.423800000000     5.523113     9.768811   -12.443048  # Hw spce
   1355     187   11  -0.847600000000     5.594718     9.368300   -13.356537  # Ow spce
   1356     187   10   0.423800000000     6.482517     9.600762   -13.753746  # Hw spce
   1357     188   10   0.423800000000     5.790170   -16.855708     5.366563  # Hw spce
   1358     188   11  -0.847600000000     4.949707   -16.352306     5.567080  # Ow spce
   1359     188   10   0.423800000000     5.096875   -15.760020     6.359254  # Hw spce
   1360     189   10   0.423800000000     6.821933    14.239671     5.721392  # Hw spce
   1361     189   11  -0.847600000000     6.021162    14.497839     5.180916  # Ow spce
   1362     189   10   0.423800000000     5.213895    14.519690     5.770698  # Hw spce
   1363     190   10   0.423800000000    -5.545499   -13.307064    11.979497  # Hw spce
   1364     190   11  -0.847600000000    -6.082677   -12.484948    12.168085  # Ow spce
   1365     190   10   0.423800000000    -5.556349   -11.675728    11.907045  # Hw spce
   1366     191   10   0.423800000000    -2.338871     6.459891   -23.499909  # Hw spce
   1367     191   11  -0.847600000000    -3.021887     7.189240   -23.460686  # Ow spce
   1368     191   10   0.423800000000    -3.937750     6.787924   -23.448867  # Hw spce
   1369     192   10   0.423800000000     0.775453    13.344394   -23.211393  # Hw spce
   1370     192   11  -0.847600000000    -0.106266    13.815480   -23.236879  # Ow spce
   1371     192   10   0.423800000000     0.043019    14.803902   -23.209773  # Hw spce
   1372     193   10   0.423800000000    -3.534240   -11.395191   -17.348033  # Hw spce
   1373     193   11  -0.847600000000    -4.057018   -12.241935   -17.249399  # Ow spce
   1374     193   10   0.423800000000    -4.218982   -12.422573   -16.279276  # Hw spce
   1375     194   10   0.423800000000     5.468329    17.055240   -14.573291  # Hw spce
   1376     194   11  -0.847600000000     5.789649    17.996237   -14.467086  # Ow spce
   1377     194   10   0.423800000000     6.785274    17.999938   -14.373720  # Hw spce
   1378     195   10   0.423800000000     9.739955    -2.083199   -13.071393  # Hw spce
   1379     195   11  -0.847600000000     9.799742    -3.072918   -12.941463  # Ow spce
   1380     195   10   0.423800000000     9.188162    -3.349316   -12.200131  # Hw spce
   1381     196   10   0.423800000000    -4.718721    -8.752528    14.330538  # Hw spce
   1382     196   11  -0.847600000000    -5.239634    -9.357114    13.727940  # Ow spce
   1383     196   10   0.423800000000    -5.361749   -10.245103    14.171295  # Hw spce
   1384     197   10   0.423800000000    -7.308601     9.861502    16.401145  # Hw spce
   1385     197   11  -0.847600000000    -6.561848    10.359730    15.960545  # Ow spce
   1386     197   10   0.423800000000    -6.827093    11.315779    15.835590  # Hw spce
   1387     198   10   0.423800000000     6.454933   -15.783426    21.095260  # Hw spce
   1388     198   11  -0.847600000000     6.751633   -15.152025    20.378809  # Ow spce
   1389     198   10   0.423800000000     6.780107   -15.632271    19.502137  # Hw spce
   1390     199   10   0.423800000000    -2.128544    13.953015    -9.250674  # Hw spce
   1391     199   11  -0.847600000000    -1.299461    14.512129    -9.247029  # Ow spce
   1392     199   10   0.423800000000    -0.495977    13.916810    -9.244240  # Hw spce
   1393     200   10   0.423800000000    -6.586536   -12.868380    17.288634  # Hw spce
   1394     200   11  -0.847600000000    -7.137674   -12.768774    18.117082  # Ow spce
   1395     200   10   0.423800000000    -7.075862   -13.605539    18.661143  # Hw spce
   1396     201   10   0.423800000000    -6.024926     5.689042    17.669732  # Hw spce
   1397     201   11  -0.847600000000    -5.567689     6.577026    17.718925  # Ow spce
   1398     201   10   0.423800000000    -4.779716     6.580754    17.103227  # Hw spce
   1399     202   10   0.423800000000     0.395320   -18.000224   -23.499968  # Hw spce
   1400     202   11  -0.847600000000    -0.579284   -17.871625   -23.316638  # Ow spce
   1401     202   10   0.423800000000    -0.750059   -17.971414   -22.336394  # Hw spce
   1402     203   10   0.423800000000     3.108223    14.114908   -14.296331  # Hw spce
   1403     203   11  -0.847600000000     3.746856    14.884161   -14.276408  # Ow spce
   1404     203   10   0.423800000000     3.886472    15.225619   -15.205877  # Hw spce
   1405     204   10   0.423800000000     9.800000     8.080652    23.500000  # Hw spce
   1406     204   11  -0.847600000000     9.748737     9.051991    23.267895  # Ow spce
   1407     204   10   0.423800000000     8.790541     9.321871    23.172904  # Hw spce
   1408     205   10   0.423800000000     4.010560   -12.642376   -15.145302  # Hw spce
   1409     205   11  -0.847600000000     4.601514   -11.893899   -15.446224  # Ow spce
   1410     205   10   0.423800000000     4.078336   -11.041820   -15.461930  # Hw spce
   1411     206   10   0.423800000000     0.212689    10.662447   -12.803565  # Hw spce
   1412     206   11  -0.847600000000    -0.479160    11.097300   -13.379974  # Ow spce
   1413     206   10   0.423800000000    -1.227776    11.431648   -12.807448  # Hw spce
   1414     207   10   0.423800000000    -3.302722   -11.974889    13.206499  # Hw spce
   1415     207   11  -0.847600000000    -3.170258   -11.061628    12.821262  # Ow spce
   1416     207   10   0.423800000000    -2.876463   -10.434846    13.542947  # Hw spce
   1417     208   10   0.423800000000     9.797900   -12.097738     5.090126  # Hw spce
   1418     208   11  -0.847600000000     9.778318   -11.412442     4.362125  # Ow spce
   1419     208   10   0.423800000000     9.800000   -11.869840     3.473128  # Hw spce
   1420     209   10   0.423800000000    -7.285499   -18.000456   -22.640207  # Hw spce
   1421     209   11  -0.847600000000    -6.863081   -17.097531   -22.560895  # Ow spce
   1422     209   10   0.423800000000    -5.886118   -17.167736   -22.762421  # Hw spce
   1423     210   10   0.423800000000    -1.875280     1.511086    -9.519433  # Hw spce
   1424     210   11  -0.847600000000    -1.310538     1.003522    -8.868706  # Ow spce
   1425     210   10   0.423800000000    -1.546852     0.032667    -8.908664  # Hw spce
   1426     211   10   0.423800000000     0.319597     6.774953    14.225099  # Hw spce
   1427     211   11  -0.847600000000     0.419296     6.016258    13.581326  # Ow spce
   1428     211   10   0.423800000000    -0.031658     6.248856    12.719619  # Hw spce
   1429     212   10   0.423800000000    -7.289536   -16.477113    18.657087  # Hw spce
   1430     212   11  -0.847600000000    -7.266886   -17.100502    19.438671  # Ow spce
   1431     212   10   0.423800000000    -6.937629   -16.610923    20.246075  # Hw spce
   1432     213   10   0.423800000000     0.479885     3.835542     1.618155  # Hw spce
   1433     213   11  -0.847600000000     0.877720     3.415115     0.802699  # Ow spce
   1434     213   10   0.423800000000     0.148049     3.037248     0.232790  # Hw spce
   1435     214   10   0.423800000000     8.612756    17.999996    -2.482829  # Hw spce
   1436     214   11  -0.847600000000     9.602485    17.977249    -2.341697  # Ow spce
   1437     214   10   0.423800000000     9.799996    17.998713    -1.361631  # Hw spce
   1438     215   10   0.423800000000    -8.224817   -15.317004     6.388300  # Hw spce
   1439     215   11  -0.847600000000    -8.984775   -15.180538     5.752816  # Ow spce
   1440     215   10   0.423800000000    -8.819470   -15.705499     4.917897  # Hw spce
   1441     216   10   0.423800000000     0.152097    13.436342    11.364416  # Hw spce
   1442     216   11  -0.847600000000    -0.597385    13.038197    11.893337  # Ow spce
   1443     216   10   0.423800000000    -1.414641    13.605592    11.792568  # Hw spce
   1444     217   10   0.423800000000    -6.213509    -4.440649    11.961365  # Hw spce
   1445     217   11  -0.847600000000    -5.625857    -4.596956    12.755237  # Ow spce
   1446     217   10   0.423800000000    -6.166697    -4.992474    13.497569  # Hw spce
   1447     218   10   0.423800000000    -2.642547     5.442607   -13.765897  # Hw spce
   1448     218   11  -0.847600000000    -3.155527     4.982273   -13.041367  # Ow spce
   1449     218   10   0.423800000000    -2.807197     5.272760   -12.150141  # Hw spce
   1450     219   10   0.423800000000     4.810111     5.247307    -8.756985  # Hw spce
   1451     219   11  -0.847600000000     5.080553     6.027439    -9.321126  # Ow spce
   1452     219   10   0.423800000000     5.595418     5.702532   -10.114441  # Hw spce
   1453     220   10   0.423800000000     2.681624     1.900875    -6.694481  # Hw spce
   1454     220   11  -0.847600000000     2.403803     2.478727    -7.461881  # Ow spce
   1455     220   10   0.423800000000     1.951800     1.917480    -8.155203  # Hw spce
   1456     221   10   0.423800000000     0.376535     7.464776   -23.461291  # Hw spce
   1457     221   11  -0.847600000000     0.108171     8.427878   -23.440915  # Ow spce
   1458     221   10   0.423800000000    -0.889371     8.496319   -23.455976  # Hw spce
   1459     222   10   0.423800000000    -1.521913     6.377716   -18.129971  # Hw spce
   1460     222   11  -0.847600000000    -0.570458     6.084737   -18.224296  # Ow spce
   1461     222   10   0.423800000000    -0.318570     5.513564   -17.443070  # Hw spce
   1462     223   10   0.423800000000     6.522316    12.288301   -11.142922  # Hw spce
   1463     223   11  -0.847600000000     7.403758    12.739385   -11.282865  # Ow spce
   1464     223   10   0.423800000000     8.110217    12.259127   -10.762993  # Hw spce
   1465     224   10   0.423800000000     2.852219    16.290027   -17.217983  # Hw spce
   1466     224   11  -0.847600000000     2.988103    15.648214   -17.972710  # Ow spce
   1467     224   10   0.423800000000     3.427323    14.818057   -17.629308  # Hw spce
   1468     225   10   0.423800000000    -7.778296    -4.450495    20.227308  # Hw spce
   1469     225   11  -0.847600000000    -8.367451    -4.631150    21.014874  # Ow spce
   1470     225   10   0.423800000000    -7.907961    -4.330778    21.850724  # Hw spce
   1471     226   10   0.423800000000     0.612842     2.333342    -2.299748  # Hw spce
   1472     226   11  -0.847600000000    -0.161729     2.285810    -2.930447  # Ow spce
   1473     226   10   0.423800000000    -1.014926     2.262767    -2.409368  # Hw spce
   1474     227   10   0.423800000000    -7.212503    -4.573209   -19.487316  # Hw spce
   1475     227   11  -0.847600000000    -6.756001    -3.985761   -18.819102  # Ow spce
   1476     227   10   0.423800000000    -6.185473    -4.545422   -18.218040  # Hw spce
   1477     228   10   0.423800000000    -3.103490     4.259059   -21.896872  # Hw spce
   1478     228   11  -0.847600000000    -3.977561     3.942405   -22.265288  # Ow spce
   1479     228   10   0.423800000000    -4.098275     4.300293   -23.191217  # Hw spce
   1480     229   10   0.423800000000    -8.593531     5.475954   -11.563823  # Hw spce
   1481     229   11  -0.847600000000    -7.769984     6.035901   -11.654541  # Ow spce
   1482     229   10   0.423800000000    -8.025097     7.002521   -11.678289  # Hw spce
   1483     230   10   0.423800000000    -0.694427   -15.860369   -17.091583  # Hw spce
   1484     230   11  -0.847600000000    -1.682630   -15.775809   -16.963896  # Ow spce
   1485     230   10   0.423800000000    -2.131657   -15.733850   -17.856428  # Hw spce
   1486     231   10   0.423800000000     3.820417    -7.457828    17.276292  # Hw spce
   1487     231   11  -0.847600000000     3.293037    -6.847432    17.867297  # Ow spce
   1488     231   10   0.423800000000     3.177767    -7.270947    18.765822  # Hw spce
   1489     232   10   0.423800000000    -9.798956    -5.157996    23.500000  # Hw spce
   1490     232   11  -0.847600000000    -9.762780    -5.972581    22.921086  # Ow spce
   1491     232   10   0.423800000000    -9.800000    -6.790967    23.494548  # Hw spce
   1492     233   10   0.423800000000     8.206365    12.274385    16.682791  # Hw spce
   1493     233   11  -0.847600000000     9.091934    11.820146    16.779912  # Ow spce
   1494     233   10   0.423800000000     9.800000    12.372801    16.340350  # Hw spce
   1495     234   10   0.423800000000    -9.799994    14.306019    -7.236845  # Hw spce
   1496     234   11  -0.847600000000    -9.396120    14.423832    -8.144042  # Ow spce
   1497     234   10   0.423800000000    -9.333735    15.398888    -8.357053  # Hw spce
   1498     235   10   0.423800000000     0.511418    13.515382    23.384048  # Hw spce
   1499     235   11  -0.847600000000     1.432220    13.887778    23.500000  # Ow spce
   1500     235   10   0.423800000000     1.572078    14.638161    22.853963  # Hw spce
   1501     236   10   0.423800000000    -9.799979    12.172985     6.308314  # Hw spce
   1502     236   11  -0.847600000000    -9.794039    12.014790     5.320924  # Ow spce
   1503     236   10   0.423800000000    -9.800000    12.892965     4.842622  # Hw spce
   1504     237   10   0.423800000000     9.799999    17.965350     3.500453  # Hw spce
   1505     237   11  -0.847600000000     9.446484    17.995862     4.435384  # Ow spce
   1506     237   10   0.423800000000     8.446716    17.994218     4.413917  # Hw spce
   1507     238   10   0.423800000000     7.850008    -8.819483   -20.041586  # Hw spce
   1508     238   11  -0.847600000000     7.365528    -9.445634   -19.430674  # Ow spce
   1509     238   10   0.423800000000     8.020983    -9.887621   -18.818281  # Hw spce
   1510     239   10   0.423800000000    -8.952863    14.116179    10.558331  # Hw spce
   1511     239   11  -0.847600000000    -8.852677    13.594140    11.405348  # Ow spce
   1512     239   10   0.423800000000    -9.728580    13.569369    11.887197  # Hw spce
   1513     240   10   0.423800000000    -8.905627     5.685041    19.680559  # Hw spce
   1514     240   11  -0.847600000000    -9.800000     5.376015    19.357141  # Ow spce
   1515     240   10   0.423800000000    -9.690647     4.534310    18.828394  # Hw spce
   1516     241   10   0.423800000000     8.882762   -17.997615     5.551807  # Hw spce
   1517     241   11  -0.847600000000     9.788495   -17.795075     5.179482  # Ow spce
   1518     241   10   0.423800000000     9.800000   -18.000000     4.200772  # Hw spce
   1519     242   10   0.423800000000     1.206731   -14.513409   -14.795961  # Hw spce
   1520     242   11  -0.847600000000     0.215870   -14.515300   -14.930832  # Ow spce
   1521     242   10   0.423800000000    -0.136014   -13.584700   -14.830028  # Hw spce
   1522     243   10   0.423800000000     5.123034    14.356640   -23.387387  # Hw spce
   1523     243   11  -0.847600000000     5.424605    13.932775   -22.533342  # Ow spce
   1524     243   10   0.423800000000     6.270308    14.368608   -22.225387  # Hw spce
   1525     244   10   0.423800000000     7.089702     4.167101    -8.574347  # Hw spce
   1526     244   11  -0.847600000000     6.992494     3.512726    -7.824451  # Ow spce
   1527     244   10   0.423800000000     6.382877     3.891758    -7.128246  # Hw spce
   1528     245   10   0.423800000000     9.800000   -15.662336    -6.048971  # Hw spce
   1529     245   11  -0.847600000000     9.798858   -14.856243    -6.640759  # Ow spce
   1530     245   10   0.423800000000     9.795251   -15.145508    -7.598001  # Hw spce
   1531     246   10   0.423800000000    -9.800526     5.133134   -23.433910  # Hw spce
   1532     246   11  -0.847600000000    -9.214738     5.765587   -22.927101  # Ow spce
   1533     246   10   0.423800000000    -8.440343     6.034341   -23.499885  # Hw spce
   1534     247   10   0.423800000000     6.939933    -0.342809    14.839185  # Hw spce
   1535     247   11  -0.847600000000     6.657570     0.225947    15.611705  # Ow spce
   1536     247   10   0.423800000000     6.419841     1.140066    15.283268  # Hw spce
   1537     248   10   0.423800000000    -8.198868    16.077503   -16.541694  # Hw spce
   1538     248   11  -0.847600000000    -8.346958    16.882893   -15.967745  # Ow spce
   1539     248   10   0.423800000000    -8.160467    17.709468   -16.498776  # Hw spce
   1540     249   10   0.423800000000    -9.800000     9.347010    22.893818  # Hw spce
   1541     249   11  -0.847600000000    -9.317237     9.477903    22.027905  # Ow spce
   1542     249   10   0.423800000000    -8.372637     9.163480    22.122082  # Hw spce
   1543     250   10   0.423800000000     5.868766   -16.809624   -13.369936  # Hw spce
   1544     250   11  -0.847600000000     5.992310   -17.792433   -13.232733  # Ow spce
   1545     250   10   0.423800000000     6.967469   -17.997203   -13.148276  # Hw spce
   1546     251   10   0.423800000000    -6.149786   -10.174898     9.201178  # Hw spce
   1547     251   11  -0.847600000000    -6.587548    -9.972177    10.077117  # Ow spce
   1548     251   10   0.423800000000    -7.471935    -9.534702     9.914408  # Hw spce
   1549     252   10   0.423800000000    -2.000295    17.593757    -9.576905  # Hw spce
   1550     252   11  -0.847600000000    -2.761897    17.279122    -9.010365  # Ow spce
   1551     252   10   0.423800000000    -3.002227    16.342500    -9.265276  # Hw spce
   1552     253   10   0.423800000000     6.497636     0.126359   -10.383039  # Hw spce
   1553     253   11  -0.847600000000     5.623346    -0.347099   -10.490062  # Ow spce
   1554     253   10   0.423800000000     5.759388    -1.330129   -10.367003  # Hw spce
   1555     254   10   0.423800000000     8.643888   -13.633896    -9.962257  # Hw spce
   1556     254   11  -0.847600000000     9.541333   -13.718831   -10.395129  # Ow spce
   1557     254   10   0.423800000000     9.799173   -12.842711   -10.802476  # Hw spce
   1558     255   10   0.423800000000     2.683130     5.343141   -14.389343  # Hw spce
   1559     255   11  -0.847600000000     2.345723     6.194442   -14.791143  # Ow spce
   1560     255   10   0.423800000000     1.947640     6.766626   -14.074111  # Hw spce
   1561     256   10   0.423800000000    -6.086948     1.273913   -22.960746  # Hw spce
   1562     256   11  -0.847600000000    -5.517238     2.076417   -23.137998  # Ow spce
   1563     256   10   0.423800000000    -6.085597     2.815294   -23.499976  # Hw spce
   1564     257   10   0.423800000000    -6.974522    14.656928     4.515017  # Hw spce
   1565     257   11  -0.847600000000    -7.945186    14.890630     4.458499  # Ow spce
   1566     257   10   0.423800000000    -8.184314    15.505418     5.210066  # Hw spce
   1567     258   10   0.423800000000    -4.388089    -9.762217   -23.055926  # Hw spce
   1568     258   11  -0.847600000000    -4.364670   -10.708208   -22.732580  # Ow spce
   1569     258   10   0.423800000000    -4.170199   -11.318281   -23.500689  # Hw spce
   1570     259   10   0.423800000000    -9.773060   -14.407410     8.283359  # Hw spce
   1571     259   11  -0.847600000000    -9.797340   -15.405501     8.340142  # Ow spce
   1572     259   10   0.423800000000    -9.335536   -15.703150     9.175691  # Hw spce
   1573     260   10   0.423800000000     7.706958   -14.281135     0.481355  # Hw spce
   1574     260   11  -0.847600000000     6.972025   -14.935186     0.660494  # Ow spce
   1575     260   10   0.423800000000     6.837393   -15.023193     1.647474  # Hw spce
   1576     261   10   0.423800000000    -4.621083    18.000000    16.329454  # Hw spce
   1577     261   11  -0.847600000000    -5.153486    17.478938    15.662340  # Ow spce
   1578     261   10   0.423800000000    -5.223643    18.000000    14.811710  # Hw spce
   1579     262   10   0.423800000000     6.298629     4.317222    23.382676  # Hw spce
   1580     262   11  -0.847600000000     5.616653     5.046920    23.333178  # Ow spce
   1581     262   10   0.423800000000     4.707367     4.665116    23.498781  # Hw spce
   1582     263   10   0.423800000000    -4.215274    -5.733203    15.788387  # Hw spce
   1583     263   11  -0.847600000000    -3.622975    -4.978633    15.505886  # Ow spce
   1584     263   10   0.423800000000    -4.144338    -4.339232    14.940779  # Hw spce
   1585     264   10   0.423800000000     0.698396    -1.931586    -1.074946  # Hw spce
   1586     264   11  -0.847600000000     1.679627    -1.845273    -0.902501  # Ow spce
   1587     264   10   0.423800000000     2.183135    -2.015136    -1.749629  # Hw spce
   1588     265   10   0.423800000000    -1.701198     1.647936    23.500000  # Hw spce
   1589     265   11  -0.847600000000    -0.879604     1.549904    22.938419  # Ow spce
   1590     265   10   0.423800000000    -0.069796     1.719716    23.500000  # Hw spce
   1591     266   10   0.423800000000    -2.648491   -15.608798    16.698845  # Hw spce
   1592     266   11  -0.847600000000    -2.936840   -15.972877    15.813237  # Ow spce
   1593     266   10   0.423800000000    -3.610035   -15.357573    15.403104  # Hw spce
   1594     267   10   0.423800000000    -2.550223     0.251444   -23.397768  # Hw spce
   1595     267   11  -0.847600000000    -3.347509     0.853452   -23.353947  # Ow spce
   1596     267   10   0.423800000000    -3.059044     1.799772   -23.499780  # Hw spce
   1597     268   10   0.423800000000    -1.124686   -12.177461   -20.324010  # Hw spce
   1598     268   11  -0.847600000000    -1.756168   -12.902082   -20.599972  # Ow spce
   1599     268   10   0.423800000000    -1.260351   -13.594581   -21.124005  # Hw spce
   1600     269   10   0.423800000000    -6.116121    15.694735    11.053600  # Hw spce
   1601     269   11  -0.847600000000    -6.012005    15.194608    11.913270  # Ow spce
   1602     269   10   0.423800000000    -6.912899    14.924215    12.252795  # Hw spce
   1603     270   10   0.423800000000    -5.950103    18.000075   -17.630082  # Hw spce
   1604     270   11  -0.847600000000    -5.329921    17.426124   -18.164830  # Ow spce
   1605     270   10   0.423800000000    -4.799226    17.999974   -18.788576  # Hw spce
   1606     271   10   0.423800000000     3.291728    -7.709205   -23.498979  # Hw spce
   1607     271   11  -0.847600000000     2.309930    -7.519276   -23.499674  # Ow spce
   1608     271   10   0.423800000000     2.161752    -6.530316   -23.499940  # Hw spce
   1609     272   10   0.423800000000    -2.973166     1.548006    10.893318  # Hw spce
   1610     272   11  -0.847600000000    -3.075426     0.576592    10.679078  # Ow spce
   1611     272   10   0.423800000000    -2.751371     0.404521     9.748820  # Hw spce
   1612     273   10   0.423800000000     1.320123   -11.783314   -20.673600  # Hw spce
   1613     273   11  -0.847600000000     1.877847   -12.609048   -20.757914  # Ow spce
   1614     273   10   0.423800000000     1.286899   -13.415120   -20.725862  # Hw spce
   1615     274   10   0.423800000000     6.497368   -14.391471   -22.555468  # Hw spce
   1616     274   11  -0.847600000000     6.574832   -14.762339   -23.480917  # Ow spce
   1617     274   10   0.423800000000     7.284110   -15.467028   -23.499311  # Hw spce
   1618     275   10   0.423800000000     7.899619    -5.004711    15.391696  # Hw spce
   1619     275   11  -0.847600000000     8.070214    -4.019728    15.418269  # Ow spce
   1620     275   10   0.423800000000     7.695436    -3.639231    16.263705  # Hw spce
   1621     276   10   0.423800000000    -0.897817   -13.004133    14.813062  # Hw spce
   1622     276   11  -0.847600000000    -1.321063   -13.886881    15.017072  # Ow spce
   1623     276   10   0.423800000000    -1.303137   -14.462068    14.199247  # Hw spce
   1624     277   10   0.423800000000     9.299051   -14.775660     5.197036  # Hw spce
   1625     277   11  -0.847600000000     8.480556   -14.418730     4.746850  # Ow spce
   1626     277   10   0.423800000000     7.820629   -15.159145     4.619252  # Hw spce
   1627     278   10   0.423800000000    -9.799846   -17.934589    -8.114671  # Hw spce
   1628     278   11  -0.847600000000    -9.542034   -17.999629    -7.150667  # Ow spce
   1629     278   10   0.423800000000    -8.546900   -17.946830    -7.067484  # Hw spce
   1630     279   10   0.423800000000    -9.800000    -5.529666    15.019998  # Hw spce
   1631     279   11  -0.847600000000    -9.213395    -4.752290    14.792882  # Ow spce
   1632     279   10   0.423800000000    -9.780246    -3.948395    14.612791  # Hw spce
   1633     280   10   0.423800000000     8.888182    10.398448   -22.206782  # Hw spce
   1634     280   11  -0.847600000000     9.743383    10.215804   -22.691831  # Ow spce
   1635     280   10   0.423800000000     9.799974    10.802057   -23.499980  # Hw spce
   1636     281   10   0.423800000000     8.821117     6.308817    22.032506  # Hw spce
   1637     281   11  -0.847600000000     8.084049     6.451406    22.693112  # Ow spce
   1638     281   10   0.423800000000     8.244581     5.882373    23.499604  # Hw spce
   1639     282   10   0.423800000000     0.948048    15.928231   -19.390363  # Hw spce
   1640     282   11  -0.847600000000     0.179831    15.940773   -20.030430  # Ow spce
   1641     282   10   0.423800000000    -0.397951    16.734951   -19.842153  # Hw spce
   1642     283   10   0.423800000000    -6.244385   -17.999678   -17.548955  # Hw spce
   1643     283   11  -0.847600000000    -6.529797   -17.909020   -16.594848  # Ow spce
   1644     283   10   0.423800000000    -7.044786   -17.059515   -16.480275  # Hw spce
   1645     284   10   0.423800000000    -3.575430   -14.010356   -18.949626  # Hw spce
   1646     284   11  -0.847600000000    -4.340845   -14.441099   -19.427747  # Ow spce
   1647     284   10   0.423800000000    -3.996722   -14.952004   -20.215500  # Hw spce
   1648     285   10   0.423800000000     8.911348    13.583977   -17.954913  # Hw spce
   1649     285   11  -0.847600000000     9.655455    14.247446   -18.033097  # Ow spce
   1650     285   10   0.423800000000     9.468574    15.029483   -17.438545  # Hw spce
   1651     286   10   0.423800000000    -9.799977    -6.384427    -9.396432  # Hw spce
   1652     286   11  -0.847600000000    -9.416975    -5.485832    -9.182340  # Ow spce
   1653     286   10   0.423800000000    -8.427383    -5.502643    -9.325251  # Hw spce
   1654     287   10   0.423800000000    -4.334011    16.110656    18.827731  # Hw spce
   1655     287   11  -0.847600000000    -5.071243    15.852064    19.451926  # Ow spce
   1656     287   10   0.423800000000    -4.722333    15.205185    20.130019  # Hw spce
   1657     288   10   0.423800000000     5.543671     6.481702     9.335085  # Hw spce
   1658     288   11  -0.847600000000     6.498487     6.571955     9.051924  # Ow spce
   1659     288   10   0.423800000000     7.066112     5.949111     9.590315  # Hw spce
   1660     289   10   0.423800000000     6.053941    14.767296     2.179491  # Hw spce
   1661     289   11  -0.847600000000     5.631050    15.669349     2.265887  # Ow spce
   1662     289   10   0.423800000000     6.299060    16.374729     2.028817  # Hw spce
   1663     290   10   0.423800000000    -2.453859   -15.472120    23.488954  # Hw spce
   1664     290   11  -0.847600000000    -3.380970   -15.755709    23.243919  # Ow spce
   1665     290   10   0.423800000000    -4.027881   -15.037428    23.500000  # Hw spce
   1666     291   10   0.423800000000    -5.989896   -16.012956   -11.719616  # Hw spce
   1667     291   11  -0.847600000000    -5.118270   -15.631168   -12.027036  # Ow spce
   1668     291   10   0.423800000000    -4.854283   -16.057487   -12.892231  # Hw spce
   1669     292   10   0.423800000000    -3.975247    -5.284285     8.413689  # Hw spce
   1670     292   11  -0.847600000000    -4.724096    -5.106673     9.052186  # Ow spce
   1671     292   10   0.423800000000    -5.465658    -4.636441     8.573682  # Hw spce
   1672     293   10   0.423800000000     1.220569     8.401446   -11.444460  # Hw spce
   1673     293   11  -0.847600000000     0.837476     8.645484   -10.553571  # Ow spce
   1674     293   10   0.423800000000     0.292154     7.883125   -10.205101  # Hw spce
   1675     294   10   0.423800000000     0.160248     2.815515    -6.402468  # Hw spce
   1676     294   11  -0.847600000000     0.037302     3.513663    -7.107786  # Ow spce
   1677     294   10   0.423800000000    -0.253457     3.078845    -7.960073  # Hw spce
   1678     295   10   0.423800000000     9.792088     6.781305   -23.500000  # Hw spce
   1679     295   11  -0.847600000000     9.789530     6.717126   -22.502065  # Ow spce
   1680     295   10   0.423800000000     9.800000     7.636537   -22.108906  # Hw spce
   1681     296   10   0.423800000000    -7.313418    -8.477952   -22.259866  # Hw spce
   1682     296   11  -0.847600000000    -6.781042    -9.286559   -22.510324  # Ow spce
   1683     296   10   0.423800000000    -6.824427    -9.420682   -23.500339  # Hw spce
   1684     297   10   0.423800000000     5.669370    -9.730819     9.331989  # Hw spce
   1685     297   11  -0.847600000000     6.463141    -9.177324     9.584122  # Ow spce
   1686     297   10   0.423800000000     6.228437    -8.207629     9.516272  # Hw spce
   1687     298   10   0.423800000000    -3.901430    11.242228    21.083608  # Hw spce
   1688     298   11  -0.847600000000    -4.846361    11.564579    21.140132  # Ow spce
   1689     298   10   0.423800000000    -4.941229    12.412071    20.617872  # Hw spce
   1690     299   10   0.423800000000     9.792928    14.010631    -5.515770  # Hw spce
   1691     299   11  -0.847600000000     9.234534    13.557606    -6.210727  # Ow spce
   1692     299   10   0.423800000000     9.800146    12.912202    -6.724086  # Hw spce
   1693     300   10   0.423800000000     0.632022   -14.066709   -12.146700  # Hw spce
   1694     300   11  -0.847600000000     0.134043   -14.932806   -12.190202  # Ow spce
   1695     300   10   0.423800000000     0.784077   -15.686551   -12.286755  # Hw spce
   1696     301   10   0.423800000000    -5.428970    -3.576550   -10.605391  # Hw spce
   1697     301   11  -0.847600000000    -6.222922    -4.184413   -10.617325  # Ow spce
   1698     301   10   0.423800000000    -7.033097    -3.680426   -10.317972  # Hw spce
   1699     302   10   0.423800000000     7.589422   -17.611582   -18.338205  # Hw spce
   1700     302   11  -0.847600000000     8.550692   -17.884430   -18.377117  # Ow spce
   1701     302   10   0.423800000000     9.126347   -17.069098   -18.439194  # Hw spce
   1702     303   10   0.423800000000    -6.219136   -17.986733    -2.005947  # Hw spce
   1703     303   11  -0.847600000000    -7.199841   -17.922967    -1.821142  # Ow spce
   1704     303   10   0.423800000000    -7.704611   -17.959458    -2.683624  # Hw spce
   1705     304   10   0.423800000000     3.018215    -4.719174    -0.131030  # Hw spce
   1706     304   11  -0.847600000000     3.144715    -3.727463    -0.153589  # Ow spce
   1707     304   10   0.423800000000     4.121993    -3.516488    -0.173983  # Hw spce
   1708     305   10   0.423800000000    -7.825850     6.876562   -16.162801  # Hw spce
   1709     305   11  -0.847600000000    -7.573315     7.156540   -15.236606  # Ow spce
   1710     305   10   0.423800000000    -7.909191     8.082705   -15.065123  # Hw spce
   1711     306   10   0.423800000000     0.733245     6.027744    20.578047  # Hw spce
   1712     306   11  -0.847600000000     0.033775     6.075320    21.291124  # Ow spce
   1713     306   10   0.423800000000    -0.839824     5.757206    20.922848  # Hw spce
   1714     307   10   0.423800000000    -3.399263    -4.131965    18.041962  # Hw spce
   1715     307   11  -0.847600000000    -3.108406    -3.563975    18.811890  # Ow spce
   1716     307   10   0.423800000000    -2.798650    -2.675776    18.472547  # Hw spce
   1717     308   10   0.423800000000     1.879669    -3.236795   -15.767180  # Hw spce
   1718     308   11  -0.847600000000     2.567340    -3.167097   -16.489850  # Ow spce
   1719     308   10   0.423800000000     2.686093    -4.059984   -16.924187  # Hw spce
   1720     309   10   0.423800000000     2.340556    -8.649062   -17.593506  # Hw spce
   1721     309   11  -0.847600000000     2.649462    -9.478660   -17.128377  # Ow spce
   1722     309   10   0.423800000000     2.243991    -9.519415   -16.215178  # Hw spce
   1723     310   10   0.423800000000     4.044464     3.795317   -11.612468  # Hw spce
   1724     310   11  -0.847600000000     3.156604     4.036239   -11.220471  # Ow spce
   1725     310   10   0.423800000000     2.894916     3.350412   -10.541383  # Hw spce
   1726     311   10   0.423800000000    -0.220969     8.548868   -17.290608  # Hw spce
   1727     311   11  -0.847600000000     0.530533     7.960631   -16.991906  # Ow spce
   1728     311   10   0.423800000000     0.950221     8.347191   -16.170667  # Hw spce
   1729     312   10   0.423800000000    -3.684388   -18.000000    14.301882  # Hw spce
   1730     312   11  -0.847600000000    -3.235903   -17.938018    13.410243  # Ow spce
   1731     312   10   0.423800000000    -2.951940   -16.993545    13.244908  # Hw spce
   1732     313   10   0.423800000000    -6.656762    -6.066221   -22.211171  # Hw spce
   1733     313   11  -0.847600000000    -6.550169    -6.035933   -23.205012  # Ow spce
   1734     313   10   0.423800000000    -5.955893    -6.784356   -23.499461  # Hw spce
   1735     314   10   0.423800000000     6.740148    -2.021104    21.600367  # Hw spce
   1736     314   11  -0.847600000000     6.533474    -2.641065    20.843442  # Ow spce
   1737     314   10   0.423800000000     5.597030    -2.979464    20.935947  # Hw spce
   1738     315   10   0.423800000000    -2.224712    11.404069    10.928223  # Hw spce
   1739     315   11  -0.847600000000    -3.209235    11.437920    11.100177  # Ow spce
   1740     315   10   0.423800000000    -3.533741    12.377997    10.995533  # Hw spce
   1741     316   10   0.423800000000    -7.766209    13.744967   -13.727763  # Hw spce
   1742     316   11  -0.847600000000    -6.991518    14.370764   -13.818497  # Ow spce
   1743     316   10   0.423800000000    -6.938771    14.955462   -13.008963  # Hw spce
   1744     317   10   0.423800000000    -3.357780     4.177300    13.885454  # Hw spce
   1745     317   11  -0.847600000000    -3.090008     3.240599    13.659871  # Ow spce
   1746     317   10   0.423800000000    -3.656666     2.903876    12.907864  # Hw spce
   1747     318   10   0.423800000000     8.443629    -8.319575    23.432693  # Hw spce
   1748     318   11  -0.847600000000     9.441859    -8.292852    23.485819  # Ow spce
   1749     318   10   0.423800000000     9.800000    -9.226412    23.500000  # Hw spce
   1750     319   10   0.423800000000    -3.019903   -11.596316    16.108194  # Hw spce
   1751     319   11  -0.847600000000    -3.507170   -12.397674    15.761213  # Ow spce
   1752     319   10   0.423800000000    -3.986786   -12.848054    16.514291  # Hw spce
   1753     320   10   0.423800000000    -6.157429     0.868393     2.493855  # Hw spce
   1754     320   11  -0.847600000000    -6.428178    -0.071727     2.286807  # Ow spce
   1755     320   10   0.423800000000    -7.425784    -0.140523     2.293883  # Hw spce
   1756     321   10   0.423800000000     4.937615     1.653702   -21.295071  # Hw spce
   1757     321   11  -0.847600000000     4.685422     0.696816   -21.150962  # Ow spce
   1758     321   10   0.423800000000     3.696839     0.629319   -21.016252  # Hw spce
   1759     322   10   0.423800000000     3.107049    -5.741856    14.172776  # Hw spce
   1760     322   11  -0.847600000000     3.202028    -5.912982    15.153437  # Ow spce
   1761     322   10   0.423800000000     2.440201    -5.486992    15.641443  # Hw spce
   1762     323   10   0.423800000000    -7.154761   -14.054072    21.482632  # Hw spce
   1763     323   11  -0.847600000000    -6.216777   -13.709896    21.524211  # Ow spce
   1764     323   10   0.423800000000    -5.580478   -14.480329    21.563658  # Hw spce
   1765     324   10   0.423800000000     8.920576   -11.336080    -9.011329  # Hw spce
   1766     324   11  -0.847600000000     9.798537   -11.486872    -8.556965  # Ow spce
   1767     324   10   0.423800000000     9.801080   -12.390238    -8.128102  # Hw spce
   1768     325   10   0.423800000000     3.820098    -6.727978   -16.984916  # Hw spce
   1769     325   11  -0.847600000000     4.607159    -7.089597   -16.485149  # Ow spce
   1770     325   10   0.423800000000     4.379915    -7.988631   -16.110854  # Hw spce
   1771     326   10   0.423800000000    -9.782840     3.466645    -9.242703  # Hw spce
   1772     326   11  -0.847600000000    -9.799840     3.462078   -10.242548  # Ow spce
   1773     326   10   0.423800000000    -8.910092     3.165697   -10.589687  # Hw spce
   1774     327   10   0.423800000000     0.439989   -18.000000    13.787898  # Hw spce
   1775     327   11  -0.847600000000    -0.316900   -17.507195    13.358640  # Ow spce
   1776     327   10   0.423800000000    -0.614384   -18.000000    12.540932  # Hw spce
   1777     328   10   0.423800000000     9.765962    -5.879505   -18.619636  # Hw spce
   1778     328   11  -0.847600000000     9.759541    -6.332902   -19.510921  # Ow spce
   1779     328   10   0.423800000000     9.799912    -7.323630   -19.381197  # Hw spce
   1780     329   10   0.423800000000     3.023967   -17.990019    15.458787  # Hw spce
   1781     329   11  -0.847600000000     2.301428   -17.310660    15.586883  # Ow spce
   1782     329   10   0.423800000000     2.681249   -16.500138    16.032741  # Hw spce
   1783     330   10   0.423800000000    -9.799993     6.345153    14.000489  # Hw spce
   1784     330   11  -0.847600000000    -9.733381     6.050478    14.953762  # Ow spce
   1785     330   10   0.423800000000    -9.800000     5.053770    14.999966  # Hw spce
   1786     331   10   0.423800000000     8.042698    -0.734471    19.608535  # Hw spce
   1787     331   11  -0.847600000000     7.599581    -0.608486    18.720968  # Ow spce
   1788     331   10   0.423800000000     7.688068     0.346186    18.436766  # Hw spce
   1789     332   10   0.423800000000     5.005581   -16.434886    -4.646510  # Hw spce
   1790     332   11  -0.847600000000     4.271343   -15.760818    -4.727304  # Ow spce
   1791     332   10   0.423800000000     3.392059   -16.232251    -4.795207  # Hw spce
   1792     333   10   0.423800000000    -9.799973    17.693630   -12.663340  # Hw spce
   1793     333   11  -0.847600000000    -9.714044    17.285958   -13.572417  # Ow spce
   1794     333   10   0.423800000000    -9.799871    17.999898   -14.267343  # Hw spce
   1795     334   10   0.423800000000     3.935107    -6.169599   -20.798917  # Hw spce
   1796     334   11  -0.847600000000     4.099517    -5.568418   -20.016899  # Ow spce
   1797     334   10   0.423800000000     3.465480    -5.800241   -19.279163  # Hw spce
   1798     335   10   0.423800000000    -1.002296     4.717104    -5.178815  # Hw spce
   1799     335   11  -0.847600000000    -1.086103     4.060145    -4.429561  # Ow spce
   1800     335   10   0.423800000000    -2.052750     3.922213    -4.213766  # Hw spce
   1801     336   10   0.423800000000     9.757676   -17.999864    -7.742560  # Hw spce
   1802     336   11  -0.847600000000     8.843541   -17.612259    -7.861386  # Ow spce
   1803     336   10   0.423800000000     8.421041   -17.999923    -8.680659  # Hw spce
   1804     337   10   0.423800000000    -7.628596   -11.426295   -14.808527  # Hw spce
   1805     337   11  -0.847600000000    -7.283131   -10.553309   -15.152837  # Ow spce
   1806     337   10   0.423800000000    -6.668375   -10.147935   -14.476268  # Hw spce
   1807     338   10   0.423800000000    -0.719053    -2.273372    -9.408631  # Hw spce
   1808     338   11  -0.847600000000     0.136961    -2.419344    -9.904546  # Ow spce
   1809     338   10   0.423800000000     0.759875    -2.962500    -9.341556  # Hw spce
   1810     339   10   0.423800000000     9.730891     3.854935   -22.745679  # Hw spce
   1811     339   11  -0.847600000000     9.648227     2.858364   -22.742019  # Ow spce
   1812     339   10   0.423800000000     8.681366     2.604192   -22.717998  # Hw spce
   1813     340   10   0.423800000000     1.790691    11.350981   -10.206794  # Hw spce
   1814     340   11  -0.847600000000     1.859505    11.629730    -9.248899  # Ow spce
   1815     340   10   0.423800000000     2.794906    11.924741    -9.053982  # Hw spce
   1816     341   10   0.423800000000    -2.368789    -1.777954     0.659283  # Hw spce
   1817     341   11  -0.847600000000    -2.284722    -2.755806     0.467610  # Ow spce
   1818     341   10   0.423800000000    -1.353943    -2.956790     0.162231  # Hw spce
   1819     342   10   0.423800000000    -2.760533     8.390151   -18.946822  # Hw spce
   1820     342   11  -0.847600000000    -3.324498     8.861115   -18.268488  # Ow spce
   1821     342   10   0.423800000000    -3.997715     9.434747   -18.735098  # Hw spce
   1822     343   10   0.423800000000    -9.796194    11.340759    10.756375  # Hw spce
   1823     343   11  -0.847600000000    -9.800000    11.843983     9.892227  # Ow spce
   1824     343   10   0.423800000000    -9.790611    11.197049     9.129740  # Hw spce
   1825     344   10   0.423800000000    -1.624931    11.496625    -9.380121  # Hw spce
   1826     344   11  -0.847600000000    -0.631311    11.421021    -9.296440  # Ow spce
   1827     344   10   0.423800000000    -0.367529    10.456652    -9.316706  # Hw spce
   1828     345   10   0.423800000000     8.875260    13.848658   -14.366318  # Hw spce
   1829     345   11  -0.847600000000     9.797739    13.701428   -14.009447  # Ow spce
   1830     345   10   0.423800000000     9.799997    12.899384   -13.412188  # Hw spce
   1831     346   10   0.423800000000    -4.228608     3.532745   -10.376646  # Hw spce
   1832     346   11  -0.847600000000    -4.469457     2.646470   -10.772257  # Ow spce
   1833     346   10   0.423800000000    -5.416289     2.670890   -11.093058  # Hw spce
   1834     347   10   0.423800000000    -1.189437    14.651181    14.053303  # Hw spce
   1835     347   11  -0.847600000000    -1.756073    15.323287    13.576651  # Ow spce
   1836     347   10   0.423800000000    -2.712877    15.034155    13.607111  # Hw spce
   1837     348   10   0.423800000000     2.372925    -9.554952   -20.223372  # Hw spce
   1838     348   11  -0.847600000000     2.938830    -8.756348   -20.018473  # Ow spce
   1839     348   10   0.423800000000     2.363945    -7.938564   -19.991349  # Hw spce
   1840     349   10   0.423800000000    -2.839666    -2.864478    23.480463  # Hw spce
   1841     349   11  -0.847600000000    -2.949993    -3.321034    22.597635  # Ow spce
   1842     349   10   0.423800000000    -3.155394    -4.288397    22.746026  # Hw spce
   1843     350   10   0.423800000000    -0.947907    -7.784715   -23.499928  # Hw spce
   1844     350   11  -0.847600000000    -1.075546    -8.776536   -23.499686  # Ow spce
   1845     350   10   0.423800000000    -2.053194    -8.986783   -23.499618  # Hw spce
   1846     351   10   0.423800000000     4.488759   -10.532037    14.765458  # Hw spce
   1847     351   11  -0.847600000000     3.668781   -10.638580    15.327848  # Ow spce
   1848     351   10   0.423800000000     3.533643    -9.815474    15.879422  # Hw spce
   1849     352   10   0.423800000000    -1.428295     7.982320    15.543105  # Hw spce
   1850     352   11  -0.847600000000    -2.056103     7.207360    15.615870  # Ow spce
   1851     352   10   0.423800000000    -2.177729     6.791177    14.714760  # Hw spce
   1852     353   10   0.423800000000    -8.178356   -12.824726    23.500000  # Hw spce
   1853     353   11  -0.847600000000    -8.922931   -13.489411    23.438339  # Ow spce
   1854     353   10   0.423800000000    -9.800000   -13.009110    23.446149  # Hw spce
   1855     354   10   0.423800000000     0.353096   -11.144873   -18.331803  # Hw spce
   1856     354   11  -0.847600000000    -0.272401   -10.918250   -17.585214  # Ow spce
   1857     354   10   0.423800000000    -1.190459   -10.770033   -17.952911  # Hw spce
   1858     355   10   0.423800000000    -0.493602    15.959144   -14.165855  # Hw spce
   1859     355   11  -0.847600000000    -1.244011    16.534301   -13.840154  # Ow spce
   1860     355   10   0.423800000000    -0.871230    17.327579   -13.358756  # Hw spce
   1861     356   10   0.423800000000     6.825107     7.255781   -15.043241  # Hw spce
   1862     356   11  -0.847600000000     6.772217     6.379548   -15.522217  # Ow spce
   1863     356   10   0.423800000000     6.689351     5.639388   -14.854912  # Hw spce
   1864     357   10   0.423800000000    -4.912945    -1.650396    12.652351  # Hw spce
   1865     357   11  -0.847600000000    -4.309487    -2.368337    12.999337  # Ow spce
   1866     357   10   0.423800000000    -3.551312    -2.503609    12.361472  # Hw spce
   1867     358   10   0.423800000000    -4.590361   -13.923938   -10.279022  # Hw spce
   1868     358   11  -0.847600000000    -3.993802   -13.435852    -9.641927  # Ow spce
   1869     358   10   0.423800000000    -4.548452   -12.863952    -9.037532  # Hw spce
   1870     359   10   0.423800000000    -2.525050    -9.359064   -14.973195  # Hw spce
   1871     359   11  -0.847600000000    -2.460702   -10.305792   -15.288735  # Ow spce
   1872     359   10   0.423800000000    -2.978368   -10.898648   -14.671854  # Hw spce
   1873     360   10   0.423800000000     7.052431     0.313096   -18.274012  # Hw spce
   1874     360   11  -0.847600000000     7.171894     1.301837   -18.183893  # Ow spce
   1875     360   10   0.423800000000     6.278687     1.750089   -18.219257  # Hw spce
   1876     361   10   0.423800000000     0.521658    -0.648744   -20.168722  # Hw spce
   1877     361   11  -0.847600000000     0.066939    -0.511954   -19.288654  # Ow spce
   1878     361   10   0.423800000000     0.058687     0.462839   -19.065695  # Hw spce
   1879     362   10   0.423800000000    -5.765361    -7.105468    12.217193  # Hw spce
   1880     362   11  -0.847600000000    -6.602134    -7.579707    12.490887  # Ow spce
   1881     362   10   0.423800000000    -7.387028    -7.161505    12.033670  # Hw spce
   1882     363   10   0.423800000000    -0.790570    18.000000    13.060979  # Hw spce
   1883     363   11  -0.847600000000    -0.639302    17.999617    12.072487  # Ow spce
   1884     363   10   0.423800000000    -0.427120    17.070994    11.768123  # Hw spce
   1885     364   10   0.423800000000     6.299596    15.320564   -16.976300  # Hw spce
   1886     364   11  -0.847600000000     6.270800    14.797709   -16.124365  # Ow spce
   1887     364   10   0.423800000000     6.996269    15.115230   -15.513731  # Hw spce
   1888     365   10   0.423800000000     7.434699   -13.329460   -20.377398  # Hw spce
   1889     365   11  -0.847600000000     7.016629   -12.421090   -20.386390  # Ow spce
   1890     365   10   0.423800000000     6.276252   -12.401559   -21.058297  # Hw spce
   1891     366   10   0.423800000000    -7.752982    -7.195793    20.259631  # Hw spce
   1892     366   11  -0.847600000000    -7.225144    -7.017371    19.429238  # Ow spce
   1893     366   10   0.423800000000    -7.448028    -7.705158    18.738390  # Hw spce
   1894     367   10   0.423800000000     6.176686    -3.873510   -22.187073  # Hw spce
   1895     367   11  -0.847600000000     6.013037    -4.274085   -21.285542  # Ow spce
   1896     367   10   0.423800000000     6.476694    -5.157988   -21.224401  # Hw spce
   1897     368   10   0.423800000000    -8.216330    12.526122    18.053779  # Hw spce
   1898     368   11  -0.847600000000    -7.594012    12.341248    18.814398  # Ow spce
   1899     368   10   0.423800000000    -7.122433    11.473780    18.655933  # Hw spce
   1900     369   10   0.423800000000     9.799574    -8.522593    -9.369101  # Hw spce
   1901     369   11  -0.847600000000     9.573062    -7.589452    -9.648279  # Ow spce
   1902     369   10   0.423800000000     8.582335    -7.504460    -9.754277  # Hw spce
   1903     370   10   0.423800000000    -4.829584   -15.288839    19.157286  # Hw spce
   1904     370   11  -0.847600000000    -4.745828   -14.808793    18.284050  # Ow spce
   1905     370   10   0.423800000000    -5.276325   -15.290601    17.586603  # Hw spce
   1906     371   10   0.423800000000     8.587883    -1.470979   -19.116352  # Hw spce
   1907     371   11  -0.847600000000     9.497118    -1.821396   -19.341075  # Ow spce
   1908     371   10   0.423800000000     9.798867    -1.431647   -20.211156  # Hw spce
   1909     372   10   0.423800000000     6.072209    17.601208    -0.939972  # Hw spce
   1910     372   11  -0.847600000000     6.250260    17.419401    -1.907052  # Ow spce
   1911     372   10   0.423800000000     5.594007    16.745165    -2.245782  # Hw spce
   1912     373   10   0.423800000000     6.783283     2.235591     9.923816  # Hw spce
   1913     373   11  -0.847600000000     6.132286     2.939652    10.207542  # Ow spce
   1914     373   10   0.423800000000     6.627990     3.709100    10.610316  # Hw spce
   1915     374   10   0.423800000000     9.244057     6.648832   -15.262462  # Hw spce
   1916     374   11  -0.847600000000     9.522359     5.784326   -14.843919  # Ow spce
   1917     374   10   0.423800000000     9.799600     5.142061   -15.558504  # Hw spce
   1918     375   10   0.423800000000    -3.406080    -6.469730    13.192711  # Hw spce
   1919     375   11  -0.847600000000    -2.406815    -6.503624    13.174830  # Ow spce
   1920     375   10   0.423800000000    -2.080773    -7.108491    13.901351  # Hw spce
   1921     376   10   0.423800000000     5.001739   -10.521230   -17.726069  # Hw spce
   1922     376   11  -0.847600000000     5.423702    -9.625550   -17.866442  # Ow spce
   1923     376   10   0.423800000000     4.783618    -9.027445   -18.348689  # Hw spce
   1924     377   10   0.423800000000    -1.449988   -17.998800   -11.937053  # Hw spce
   1925     377   11  -0.847600000000    -1.319872   -17.056046   -12.244109  # Ow spce
   1926     377   10   0.423800000000    -1.786099   -16.433446   -11.615617  # Hw spce
   1927     378   10   0.423800000000    -6.546789    -1.402919   -20.053189  # Hw spce
   1928     378   11  -0.847600000000    -7.174014    -2.098199   -20.404150  # Ow spce
   1929     378   10   0.423800000000    -7.349445    -1.929716   -21.374117  # Hw spce
   1930     379   10   0.423800000000    -6.626606    13.585896     9.811745  # Hw spce
   1931     379   11  -0.847600000000    -6.895590    12.622755     9.814368  # Ow spce
   1932     379   10   0.423800000000    -7.523460    12.449969     9.055471  # Hw spce
   1933     380   10   0.423800000000     6.422222   -13.714428   -15.328259  # Hw spce
   1934     380   11  -0.847600000000     6.280563   -14.618233   -14.924440  # Ow spce
   1935     380   10   0.423800000000     5.330237   -14.704443   -14.625363  # Hw spce
   1936     381   10   0.423800000000    -1.253906   -11.216169   -22.628129  # Hw spce
   1937     381   11  -0.847600000000    -1.823294   -11.975292   -22.943614  # Ow spce
   1938     381   10   0.423800000000    -1.258242   -12.628988   -23.446999  # Hw spce
   1939     382   10   0.423800000000    -5.228778    -3.997813     3.305781  # Hw spce
   1940     382   11  -0.847600000000    -6.169476    -4.298617     3.148921  # Ow spce
   1941     382   10   0.423800000000    -6.215912    -4.815819     2.294318  # Hw spce
   1942     383   10   0.423800000000    -5.770562    15.074545    -9.625327  # Hw spce
   1943     383   11  -0.847600000000    -6.141708    15.323700    -8.730804  # Ow spce
   1944     383   10   0.423800000000    -6.927372    14.741361    -8.521968  # Hw spce
   1945     384   10   0.423800000000     9.063389    16.348904   -14.839158  # Hw spce
   1946     384   11  -0.847600000000     9.799829    16.842870   -15.301386  # Ow spce
   1947     384   10   0.423800000000     9.800123    17.797089   -15.002280  # Hw spce
   1948     385   10   0.423800000000     4.383187     8.650131    -9.362700  # Hw spce
   1949     385   11  -0.847600000000     5.105604     9.339187    -9.305128  # Ow spce
   1950     385   10   0.423800000000     4.696400    10.251623    -9.301487  # Hw spce
   1951     386   10   0.423800000000     9.751809   -11.043301   -12.537617  # Hw spce
   1952     386   11  -0.847600000000     9.738754   -10.608455   -13.438026  # Ow spce
   1953     386   10   0.423800000000     9.800062    -9.616210   -13.329897  # Hw spce
   1954     387   10   0.423800000000    -4.378412    -6.334509    23.500000  # Hw spce
   1955     387   11  -0.847600000000    -3.684981    -7.055031    23.499841  # Ow spce
   1956     387   10   0.423800000000    -2.774531    -6.641412    23.499893  # Hw spce
   1957     388   10   0.423800000000    -4.354580     2.300874   -16.005281  # Hw spce
   1958     388   11  -0.847600000000    -3.994703     1.748169   -16.756950  # Ow spce
   1959     388   10   0.423800000000    -4.539318     1.909735   -17.579927  # Hw spce
   1960     389   10   0.423800000000     1.986770   -17.273047     9.528741  # Hw spce
   1961     389   11  -0.847600000000     0.998720   -17.119611     9.543382  # Ow spce
   1962     389   10   0.423800000000     0.524536   -17.999998     9.535066  # Hw spce
   1963     390   10   0.423800000000    -2.078913     0.991013    14.068599  # Hw spce
   1964     390   11  -0.847600000000    -2.881286     0.461581    14.344096  # Ow spce
   1965     390   10   0.423800000000    -2.993281    -0.318545    13.728579  # Hw spce
   1966     391   10   0.423800000000    -7.508056     3.491820     4.059797  # Hw spce
   1967     391   11  -0.847600000000    -7.140489     2.581808     4.251556  # Ow spce
   1968     391   10   0.423800000000    -7.534201     2.235980     5.103256  # Hw spce
   1969     392   10   0.423800000000    -1.535319     5.366451    -2.239825  # Hw spce
   1970     392   11  -0.847600000000    -2.367367     5.824957    -2.552023  # Ow spce
   1971     392   10   0.423800000000    -2.877741     6.163886    -1.761679  # Hw spce
   1972     393   10   0.423800000000    -2.317185     8.086519    12.581066  # Hw spce
   1973     393   11  -0.847600000000    -1.698098     8.695263    13.077214  # Ow spce
   1974     393   10   0.423800000000    -0.862195     8.826979    12.544376  # Hw spce
   1975     394   10   0.423800000000     4.529421    17.196141    10.366550  # Hw spce
   1976     394   11  -0.847600000000     3.810788    16.639613    10.783496  # Ow spce
   1977     394   10   0.423800000000     4.060110    15.673111    10.722573  # Hw spce
   1978     395   10   0.423800000000    -6.315779    -2.229803    17.826682  # Hw spce
   1979     395   11  -0.847600000000    -5.555736    -2.873435    17.916536  # Ow spce
   1980     395   10   0.423800000000    -5.754004    -3.522949    18.650580  # Hw spce
   1981     396   10   0.423800000000     7.368526     7.655419   -23.499865  # Hw spce
   1982     396   11  -0.847600000000     7.788095     8.563142   -23.499882  # Ow spce
   1983     396   10   0.423800000000     7.072127     9.261275   -23.499943  # Hw spce
   1984     397   10   0.423800000000    -9.800000    12.234089    -9.823268  # Hw spce
   1985     397   11  -0.847600000000    -9.768866    12.051910    -8.840496  # Ow spce
   1986     397   10   0.423800000000    -9.800000    11.064829    -8.683332  # Hw spce
   1987     398   10   0.423800000000     7.646270    -4.807288    21.433453  # Hw spce
   1988     398   11  -0.847600000000     8.374040    -5.239377    20.900865  # Ow spce
   1989     398   10   0.423800000000     7.992668    -5.608435    20.053309  # Hw spce
   1990     399   10   0.423800000000     3.678823    -1.717612   -13.027398  # Hw spce
   1991     399   11  -0.847600000000     2.893172    -1.802722   -13.640185  # Ow spce
   1992     399   10   0.423800000000     2.067100    -1.969466   -13.101854  # Hw spce
   1993     400   10   0.423800000000    -0.638071    17.789432   -23.451205  # Hw spce
   1994     400   11  -0.847600000000     0.338285    18.000048   -23.499895  # Ow spce
   1995     400   10   0.423800000000     0.864088    17.149668   -23.480280  # Hw spce
   1996     401   10   0.423800000000    -0.438233     7.579727    -7.618774  # Hw spce
   1997     401   11  -0.847600000000     0.084508     6.727577    -7.594646  # Ow spce
   1998     401   10   0.423800000000     0.279483     6.482931    -6.644839  # Hw spce
   1999     402   10   0.423800000000    -9.221030     6.007040    23.068575  # Hw spce
   2000     402   11  -0.847600000000    -8.412186     6.551997    23.289467  # Ow spce
   2001     402   10   0.423800000000    -7.647368     5.943123    23.500000  # Hw spce
   2002     403   10   0.423800000000     2.880379    -2.163268     2.440510  # Hw spce
   2003     403   11  -0.847600000000     3.155047    -1.765700     1.565012  # Ow spce
   2004     403   10   0.423800000000     2.764011    -0.849478     1.477682  # Hw spce
   2005     404   10   0.423800000000     1.784581   -11.801608   -14.378396  # Hw spce
   2006     404   11  -0.847600000000     1.152003   -11.455686   -15.071350  # Ow spce
   2007     404   10   0.423800000000     1.339328   -11.902241   -15.946277  # Hw spce
   2008     405   10   0.423800000000     7.552353   -13.384732    12.699562  # Hw spce
   2009     405   11  -0.847600000000     7.594040   -13.785687    11.784413  # Ow spce
   2010     405   10   0.423800000000     6.684214   -14.104077    11.518248  # Hw spce
   2011     406   10   0.423800000000     1.888051    12.131458   -18.290124  # Hw spce
   2012     406   11  -0.847600000000     1.063531    12.697005   -18.308096  # Ow spce
   2013     406   10   0.423800000000     1.322124    13.662848   -18.324702  # Hw spce
   2014     407   10   0.423800000000     4.893516    -8.658874    21.138499  # Hw spce
   2015     407   11  -0.847600000000     3.901341    -8.537593    21.108827  # Ow spce
   2016     407   10   0.423800000000     3.461660    -9.253612    21.651042  # Hw spce
   2017     408   10   0.423800000000     1.327566     5.148648     7.551867  # Hw spce
   2018     408   11  -0.847600000000     0.802298     4.334584     7.304092  # Ow spce
   2019     408   10   0.423800000000     0.956327     3.618530     7.984930  # Hw spce
   2020     409   10   0.423800000000     9.306052    -9.101817   -15.726000  # Hw spce
   2021     409   11  -0.847600000000     9.792879    -9.286490   -16.579753  # Ow spce
   2022     409   10   0.423800000000     9.765228    -8.473755   -17.161730  # Hw spce
   2023     410   10   0.423800000000     5.907767    -7.275864   -19.733653  # Hw spce
   2024     410   11  -0.847600000000     6.324791    -6.686162   -19.042030  # Ow spce
   2025     410   10   0.423800000000     6.811448    -7.248840   -18.373779  # Hw spce
   2026     411   10   0.423800000000     8.599364    10.766702   -12.902134  # Hw spce
   2027     411   11  -0.847600000000     9.430326    10.638394   -12.360803  # Ow spce
   2028     411   10   0.423800000000     9.774786     9.709104   -12.494096  # Hw spce
   2029     412   10   0.423800000000     3.450832    -3.596047    19.251512  # Hw spce
   2030     412   11  -0.847600000000     3.142243    -4.365545    18.692365  # Ow spce
   2031     412   10   0.423800000000     3.569261    -4.313959    17.789595  # Hw spce
   2032     413   10   0.423800000000    -7.134018    16.927991    23.500000  # Hw spce
   2033     413   11  -0.847600000000    -6.927540    16.936181    22.521583  # Ow spce
   2034     413   10   0.423800000000    -6.964543    17.875657    22.180973  # Hw spce
   2035     414   10   0.423800000000    -0.379495    -3.332775   -23.052548  # Hw spce
   2036     414   11  -0.847600000000    -0.810839    -2.465082   -22.805461  # Ow spce
   2037     414   10   0.423800000000    -0.463815    -2.161082   -21.918241  # Hw spce
   2038     415   10   0.423800000000    -7.740872   -17.999997   -10.781624  # Hw spce
   2039     415   11  -0.847600000000    -7.645116   -17.993212    -9.786242  # Ow spce
   2040     415   10   0.423800000000    -7.448328   -17.062928    -9.476655  # Hw spce
   2041     416   10   0.423800000000    -6.914231    -7.443324   -15.140270  # Hw spce
   2042     416   11  -0.847600000000    -7.445101    -7.240623   -14.317415  # Ow spce
   2043     416   10   0.423800000000    -7.962053    -8.052430   -14.045882  # Hw spce
   2044     417   10   0.423800000000    -0.914746    11.325308   -18.982510  # Hw spce
   2045     417   11  -0.847600000000    -1.255208    10.386125   -18.937549  # Ow spce
   2046     417   10   0.423800000000    -0.758927     9.819820   -19.595580  # Hw spce
   2047     418   10   0.423800000000    -0.117592    -0.843102   -12.489162  # Hw spce
   2048     418   11  -0.847600000000    -0.322906    -0.546142   -13.421719  # Ow spce
   2049     418   10   0.423800000000    -0.776068     0.344904   -13.395627  # Hw spce
   2050     419   10   0.423800000000     1.907720   -10.654327   -11.799140  # Hw spce
   2051     419   11  -0.847600000000     2.087869   -11.634570   -11.717469  # Ow spce
   2052     419   10   0.423800000000     3.053075   -11.779057   -11.499524  # Hw spce
   2053     420   10   0.423800000000     1.833172   -13.691242   -23.149559  # Hw spce
   2054     420   11  -0.847600000000     0.913143   -13.866836   -23.499866  # Ow spce
   2055     420   10   0.423800000000     0.404442   -14.418434   -22.838835  # Hw spce
   2056     421   10   0.423800000000     5.285163   -15.290391    16.363476  # Hw spce
   2057     421   11  -0.847600000000     5.629850   -16.054364    16.908945  # Ow spce
   2058     421   10   0.423800000000     4.860147   -16.590763    17.255115  # Hw spce
   2059     422   10   0.423800000000     1.416761    15.651156    20.573674  # Hw spce
   2060     422   11  -0.847600000000     0.424924    15.663911    20.446801  # Ow spce
   2061     422   10   0.423800000000     0.181645    15.091253    19.663935  # Hw spce
   2062     423   10   0.423800000000    -9.798497   -15.043647    -6.237190  # Hw spce
   2063     423   11  -0.847600000000    -9.169933   -15.462918    -6.892262  # Ow spce
   2064     423   10   0.423800000000    -9.485853   -15.277664    -7.822786  # Hw spce
   2065     424   10   0.423800000000     9.565804   -12.612461    19.289813  # Hw spce
   2066     424   11  -0.847600000000     9.519567   -11.619805    19.178026  # Ow spce
   2067     424   10   0.423800000000     8.587630   -11.355377    18.929892  # Hw spce
   2068     425   10   0.423800000000    -7.610590    -6.804047    14.659001  # Hw spce
   2069     425   11  -0.847600000000    -7.258201    -7.708381    14.899834  # Ow spce
   2070     425   10   0.423800000000    -7.457148    -7.898446    15.861237  # Hw spce
   2071     426   10   0.423800000000     9.783800     1.966951   -18.002335  # Hw spce
   2072     426   11  -0.847600000000     9.712890     1.252820   -17.305924  # Ow spce
   2073     426   10   0.423800000000     9.714751     0.355491   -17.747281  # Hw spce
   2074     427   10   0.423800000000     6.621187    17.822071     7.367871  # Hw spce
   2075     427   11  -0.847600000000     6.677336    17.712484     6.375481  # Ow spce
   2076     427   10   0.423800000000     6.442655    16.771865     6.130204  # Hw spce
   2077     428   10   0.423800000000     9.799984     9.553371   -15.807045  # Hw spce
   2078     428   11  -0.847600000000     9.697132     9.084804   -14.929625  # Ow spce
   2079     428   10   0.423800000000     8.726990     9.027898   -14.693858  # Hw spce
   2080     429   10   0.423800000000     0.295283    -6.518871    14.508867  # Hw spce
   2081     429   11  -0.847600000000     0.634675    -5.872156    13.825806  # Ow spce
   2082     429   10   0.423800000000    -0.132003    -5.352169    13.449216  # Hw spce
   2083     430   10   0.423800000000    -9.231816   -17.980306     6.007400  # Hw spce
   2084     430   11  -0.847600000000    -9.789545   -17.505672     6.688326  # Ow spce
   2085     430   10   0.423800000000    -9.744250   -17.997570     7.557800  # Hw spce
   2086     431   10   0.423800000000     1.696886     4.989868    -5.222413  # Hw spce
   2087     431   11  -0.847600000000     2.312572     4.237069    -5.455277  # Ow spce
   2088     431   10   0.423800000000     3.220626     4.420489    -5.078722  # Hw spce
   2089     432   10   0.423800000000    -5.083277     0.843739    12.673918  # Hw spce
   2090     432   11  -0.847600000000    -5.308109     0.619678    13.622204  # Ow spce
   2091     432   10   0.423800000000    -5.284691     1.452054    14.175920  # Hw spce
   2092     433   10   0.423800000000    -3.317253    10.942661    16.125333  # Hw spce
   2093     433   11  -0.847600000000    -3.881800    11.766263    16.179806  # Ow spce
   2094     433   10   0.423800000000    -3.292096    12.573462    16.205832  # Hw spce
   2095     434   10   0.423800000000     3.760757     6.299986   -12.136029  # Hw spce
   2096     434   11  -0.847600000000     4.375980     6.920169   -12.622725  # Ow spce
   2097     434   10   0.423800000000     5.079029     6.389062   -13.095638  # Hw spce
   2098     435   10   0.423800000000    -3.020004    -6.760624   -18.675554  # Hw spce
   2099     435   11  -0.847600000000    -2.546170    -5.893179   -18.827282  # Ow spce
   2100     435   10   0.423800000000    -1.558601    -6.050068   -18.836917  # Hw spce
   2101     436   10   0.423800000000    -0.430637    -4.309504    23.389358  # Hw spce
   2102     436   11  -0.847600000000    -0.683881    -5.270564    23.499951  # Ow spce
   2103     436   10   0.423800000000     0.137661    -5.838976    23.455515  # Hw spce
   2104     437   10   0.423800000000    -6.644071   -14.173851   -17.998047  # Hw spce
   2105     437   11  -0.847600000000    -6.150292   -13.605772   -17.339665  # Ow spce
   2106     437   10   0.423800000000    -6.672545   -13.551432   -16.488607  # Hw spce
   2107     438   10   0.423800000000     4.896665     8.029464   -23.498741  # Hw spce
   2108     438   11  -0.847600000000     4.494634     8.863467   -23.120839  # Ow spce
   2109     438   10   0.423800000000     3.738701     8.622854   -22.512013  # Hw spce
   2110     439   10   0.423800000000    -6.058574   -18.000000    22.321284  # Hw spce
   2111     439   11  -0.847600000000    -5.156098   -17.889761    22.737680  # Ow spce
   2112     439   10   0.423800000000    -4.454813   -17.916501    22.025300  # Hw spce
   2113     440   10   0.423800000000     6.172508    -3.848277     9.625979  # Hw spce
   2114     440   11  -0.847600000000     5.236190    -3.981540     9.950860  # Ow spce
   2115     440   10   0.423800000000     4.681818    -4.375244     9.217601  # Hw spce
   2116     441   10   0.423800000000     0.091184   -15.404489    16.819265  # Hw spce
   2117     441   11  -0.847600000000     0.308055   -15.554281    17.783904  # Ow spce
   2118     441   10   0.423800000000     1.213135   -15.179169    17.984204  # Hw spce
   2119     442   10   0.423800000000     4.579800   -10.571808    11.755678  # Hw spce
   2120     442   11  -0.847600000000     5.276410    -9.911851    12.037089  # Ow spce
   2121     442   10   0.423800000000     4.947500    -8.984201    11.860216  # Hw spce
   2122     443   10   0.423800000000    -9.800000    10.137983    14.522006  # Hw spce
   2123     443   11  -0.847600000000    -9.303787     9.291571    14.715293  # Ow spce
   2124     443   10   0.423800000000    -9.800000     8.764397    15.405119  # Hw spce
   2125     444   10   0.423800000000     4.555010     1.030911    -8.102898  # Hw spce
   2126     444   11  -0.847600000000     4.906564     1.966370    -8.066475  # Ow spce
   2127     444   10   0.423800000000     4.695705     2.435317    -8.924162  # Hw spce
   2128     445   10   0.423800000000     8.306867    -3.278331   -21.021728  # Hw spce
   2129     445   11  -0.847600000000     9.195763    -3.735691   -20.995570  # Ow spce
   2130     445   10   0.423800000000     9.087535    -4.690620   -21.271972  # Hw spce
   2131     446   10   0.423800000000     5.567925    -8.166883   -13.774295  # Hw spce
   2132     446   11  -0.847600000000     5.044558    -7.315074   -13.796865  # Ow spce
   2133     446   10   0.423800000000     5.672914    -6.539193   -13.853217  # Hw spce
   2134     447   10   0.423800000000     5.308708    -2.438551    15.311042  # Hw spce
   2135     447   11  -0.847600000000     5.194579    -3.429610    15.380150  # Ow spce
   2136     447   10   0.423800000000     4.221384    -3.649061    15.448948  # Hw spce
   2137     448   10   0.423800000000    -7.182846     8.925058    19.586406  # Hw spce
   2138     448   11  -0.847600000000    -7.087723     8.440180    18.717013  # Ow spce
   2139     448   10   0.423800000000    -7.694186     7.645093    18.710708  # Hw spce
   2140     449   10   0.423800000000     8.288437    -3.194762   -14.929220  # Hw spce
   2141     449   11  -0.847600000000     7.342157    -3.333856   -15.221120  # Ow spce
   2142     449   10   0.423800000000     6.844088    -2.468838   -15.160548  # Hw spce
   2143     450   10   0.423800000000     1.136483     4.427284    16.257480  # Hw spce
   2144     450   11  -0.847600000000     1.232393     5.305658    16.725733  # Ow spce
   2145     450   10   0.423800000000     2.032436     5.787972    16.368936  # Hw spce
   2146     451   10   0.423800000000     9.799717   -17.875629   -12.280769  # Hw spce
   2147     451   11  -0.847600000000     9.330883   -18.000574   -11.406365  # Ow spce
   2148     451   10   0.423800000000     9.799917   -17.472742   -10.698269  # Hw spce
   2149     452   10   0.423800000000     2.205807    -8.373582    14.326497  # Hw spce
   2150     452   11  -0.847600000000     2.951221    -8.638504    13.714799  # Ow spce
   2151     452   10   0.423800000000     2.739351    -9.520408    13.293663  # Hw spce
   2152     453   10   0.423800000000     2.896914     6.569717    23.413558  # Hw spce
   2153     453   11  -0.847600000000     2.568680     5.796956    22.870325  # Ow spce
   2154     453   10   0.423800000000     1.984647     5.215518    23.436748  # Hw spce
   2155     454   10   0.423800000000     2.824541   -10.171623    19.188784  # Hw spce
   2156     454   11  -0.847600000000     3.453964   -10.186917    18.411872  # Ow spce
   2157     454   10   0.423800000000     4.325992    -9.778284    18.681287  # Hw spce
   2158     455   10   0.423800000000    -3.065285   -17.992318   -14.046414  # Hw spce
   2159     455   11  -0.847600000000    -2.842104   -17.411505   -14.829259  # Ow spce
   2160     455   10   0.423800000000    -2.879607   -17.954192   -15.668356  # Hw spce
   2161     456   10   0.423800000000    -9.799939     1.712819     9.525220  # Hw spce
   2162     456   11  -0.847600000000    -9.463309     0.879949     9.964547  # Ow spce
   2163     456   10   0.423800000000    -9.065811     0.276007     9.273715  # Hw spce
   2164     457   10   0.423800000000    -9.799741    -6.935552   -20.788037  # Hw spce
   2165     457   11  -0.847600000000    -9.226287    -7.754079   -20.822167  # Ow spce
   2166     457   10   0.423800000000    -9.799964    -8.556312   -20.987443  # Hw spce
   2167     458   10   0.423800000000    -4.733236     2.983884    22.733990  # Hw spce
   2168     458   11  -0.847600000000    -3.788254     2.982448    23.061109  # Ow spce
   2169     458   10   0.423800000000    -3.586132     3.857960    23.500000  # Hw spce
   2170     459   10   0.423800000000    -1.034300    13.758310    16.429234  # Hw spce
   2171     459   11  -0.847600000000    -0.808397    13.005778    17.047831  # Ow spce
   2172     459   10   0.423800000000    -0.135596    13.316671    17.719161  # Hw spce
   2173     460   10   0.423800000000     8.937627    12.639144    12.790126  # Hw spce
   2174     460   11  -0.847600000000     9.800000    12.484742    12.307972  # Ow spce
   2175     460   10   0.423800000000     9.636688    12.494508    11.321446  # Hw spce
   2176     461   10   0.423800000000     8.253087    14.789126    23.487768  # Hw spce
   2177     461   11  -0.847600000000     8.835115    13.976050    23.500000  # Ow spce
   2178     461   10   0.423800000000     9.795529    14.253179    23.471631  # Hw spce
   2179     462   10   0.423800000000     0.365097     0.273207    -6.708113  # Hw spce
   2180     462   11  -0.847600000000     0.242066    -0.549995    -7.262371  # Ow spce
   2181     462   10   0.423800000000     1.128228    -0.990472    -7.406234  # Hw spce
   2182     463   10   0.423800000000     7.257521     3.924789    13.445614  # Hw spce
   2183     463   11  -0.847600000000     6.897843     3.095116    13.018677  # Ow spce
   2184     463   10   0.423800000000     6.015311     2.864952    13.428751  # Hw spce
   2185     464   10   0.423800000000     7.014861    10.755934    21.406406  # Hw spce
   2186     464   11  -0.847600000000     7.532594     9.954444    21.107130  # Ow spce
   2187     464   10   0.423800000000     7.025808     9.479966    20.387382  # Hw spce
   2188     465   10   0.423800000000    -5.892845     2.395188   -20.289690  # Hw spce
   2189     465   11  -0.847600000000    -5.298425     3.188270   -20.156702  # Ow spce
   2190     465   10   0.423800000000    -5.788729     3.889168   -19.638683  # Hw spce
   2191     466   10   0.423800000000    -3.685967     3.955633    18.181936  # Hw spce
   2192     466   11  -0.847600000000    -3.163670     4.800129    18.300394  # Ow spce
   2193     466   10   0.423800000000    -2.217897     4.576798    18.536269  # Hw spce
   2194     467   10   0.423800000000    -4.805129   -15.342852     6.944473  # Hw spce
   2195     467   11  -0.847600000000    -5.106263   -16.225551     7.305252  # Ow spce
   2196     467   10   0.423800000000    -4.963358   -16.934279     6.614395  # Hw spce
   2197     468   10   0.423800000000    -9.225428    16.200518    -5.083293  # Hw spce
   2198     468   11  -0.847600000000    -8.389562    15.800416    -5.459121  # Ow spce
   2199     468   10   0.423800000000    -8.075624    16.350265    -6.233142  # Hw spce
   2200     469   10   0.423800000000     3.410012    17.123900    21.008461  # Hw spce
   2201     469   11  -0.847600000000     3.746187    18.000000    20.662867  # Ow spce
   2202     469   10   0.423800000000     3.712480    17.999141    19.663436  # Hw spce
   2203     470   10   0.423800000000     7.110435   -17.999999    22.086261  # Hw spce
   2204     470   11  -0.847600000000     7.680159   -17.999905    22.908097  # Ow spce
   2205     470   10   0.423800000000     7.411247   -17.240078    23.500000  # Hw spce
   2206     471   10   0.423800000000     1.581246     7.935742   -21.028923  # Hw spce
   2207     471   11  -0.847600000000     0.885374     7.506766   -20.452951  # Ow spce
   2208     471   10   0.423800000000     0.971979     7.846650   -19.516480  # Hw spce
   2209     472   10   0.423800000000    -9.798704   -16.496276    -3.830536  # Hw spce
   2210     472   11  -0.847600000000    -9.439367   -17.055976    -4.577271  # Ow spce
   2211     472   10   0.423800000000    -9.753152   -17.999127    -4.467709  # Hw spce
   2212     473   10   0.423800000000    -2.458158   -14.377628   -14.351679  # Hw spce
   2213     473   11  -0.847600000000    -2.307624   -14.866234   -13.492258  # Ow spce
   2214     473   10   0.423800000000    -2.617030   -14.299987   -12.728301  # Hw spce
   2215     474   10   0.423800000000     0.269008     1.719623    14.802001  # Hw spce
   2216     474   11  -0.847600000000     0.884515     1.186089    14.221921  # Ow spce
   2217     474   10   0.423800000000     0.348699     0.564494    13.650501  # Hw spce
   2218     475   10   0.423800000000     5.048251    -1.662908   -16.788468  # Hw spce
   2219     475   11  -0.847600000000     5.436917    -1.956885   -17.661690  # Ow spce
   2220     475   10   0.423800000000     6.432499    -2.008129   -17.583015  # Hw spce
   2221     476   10   0.423800000000    -2.367075    13.937815   -19.705724  # Hw spce
   2222     476   11  -0.847600000000    -2.078865    14.884394   -19.850378  # Ow spce
   2223     476   10   0.423800000000    -2.410656    15.452614   -19.097357  # Hw spce
   2224     477   10   0.423800000000    -7.101631    -6.409300    23.481240  # Hw spce
   2225     477   11  -0.847600000000    -7.242959    -7.399237    23.474073  # Ow spce
   2226     477   10   0.423800000000    -6.356807    -7.862328    23.457363  # Hw spce
   2227     478   10   0.423800000000    -2.213520   -18.000000    23.500000  # Hw spce
   2228     478   11  -0.847600000000    -1.217476   -17.911823    23.489053  # Ow spce
   2229     478   10   0.423800000000    -0.886560   -17.986570    22.548358  # Hw spce
   2230     479   10   0.423800000000     4.727615    -5.994736    21.214053  # Hw spce
   2231     479   11  -0.847600000000     4.934122    -6.094455    20.240703  # Ow spce
   2232     479   10   0.423800000000     5.324986    -5.241863    19.893843  # Hw spce
   2233     480   10   0.423800000000     8.939886   -17.824311   -14.674629  # Hw spce
   2234     480   11  -0.847600000000     9.799629   -18.000191   -15.154117  # Ow spce
   2235     480   10   0.423800000000     9.661893   -17.886273   -16.138013  # Hw spce
   2236     481   10   0.423800000000     4.965460    10.481808   -19.771590  # Hw spce
   2237     481   11  -0.847600000000     4.338522    10.676134   -19.017146  # Ow spce
   2238     481   10   0.423800000000     4.863114    10.841510   -18.182010  # Hw spce
   2239     482   10   0.423800000000     8.571227    17.129359    -8.421006  # Hw spce
   2240     482   11  -0.847600000000     9.512903    17.174225    -8.087487  # Ow spce
   2241     482   10   0.423800000000     9.800000    16.268103    -7.776815  # Hw spce
   2242     483   10   0.423800000000     4.482233    12.907537   -20.135230  # Hw spce
   2243     483   11  -0.847600000000     3.690164    13.516199   -20.088798  # Ow spce
   2244     483   10   0.423800000000     2.876095    13.028501   -20.404143  # Hw spce
   2245     484   10   0.423800000000    -1.743399     7.194088     4.780402  # Hw spce
   2246     484   11  -0.847600000000    -0.750510     7.266577     4.685975  # Ow spce
   2247     484   10   0.423800000000    -0.485635     8.230849     4.681493  # Hw spce
   2248     485   10   0.423800000000    -7.041955   -13.050481    14.496488  # Hw spce
   2249     485   11  -0.847600000000    -6.078321   -12.871062    14.694527  # Ow spce
   2250     485   10   0.423800000000    -5.535102   -13.679062    14.466388  # Hw spce
   2251     486   10   0.423800000000    -7.241904    10.348582   -18.500107  # Hw spce
   2252     486   11  -0.847600000000    -7.085428    10.306526   -19.486893  # Ow spce
   2253     486   10   0.423800000000    -6.742235     9.399698   -19.731600  # Hw spce
   2254     487   10   0.423800000000     7.233909   -17.975700    -4.444758  # Hw spce
   2255     487   11  -0.847600000000     7.948965   -17.415373    -4.862764  # Ow spce
   2256     487   10   0.423800000000     8.552019   -17.997202    -5.408475  # Hw spce
   2257     488   10   0.423800000000    -7.518897     7.357186    14.564225  # Hw spce
   2258     488   11  -0.847600000000    -6.995566     7.352122    15.416339  # Ow spce
   2259     488   10   0.423800000000    -7.551089     6.953960    16.146311  # Hw spce
   2260     489   10   0.423800000000     6.265443    14.613984   -19.737441  # Hw spce
   2261     489   11  -0.847600000000     5.515794    15.221581   -19.999841  # Ow spce
   2262     489   10   0.423800000000     5.172203    15.696202   -19.189483  # Hw spce
   2263     490   10   0.423800000000     1.419442   -14.738423    14.454304  # Hw spce
   2264     490   11  -0.847600000000     2.113619   -14.143092    14.858903  # Ow spce
   2265     490   10   0.423800000000     1.690033   -13.561016    15.552993  # Hw spce
   2266     491   10   0.423800000000     9.781122    14.309471    -2.000077  # Hw spce
   2267     491   11  -0.847600000000     9.464656    15.235634    -2.205192  # Ow spce
   2268     491   10   0.423800000000     8.498434    15.319345    -1.961455  # Hw spce
   2269     492   10   0.423800000000    -9.800000    -6.327353     9.710746  # Hw spce
   2270     492   11  -0.847600000000    -8.803375    -6.409421     9.712670  # Ow spce
   2271     492   10   0.423800000000    -8.394000    -5.498311     9.760531  # Hw spce
   2272     493   10   0.423800000000     5.464590    11.045882    19.220922  # Hw spce
   2273     493   11  -0.847600000000     4.667651    10.485172    18.996217  # Ow spce
   2274     493   10   0.423800000000     4.915663     9.517762    19.047272  # Hw spce
   2275     494   10   0.423800000000     9.779608     6.224511    12.403349  # Hw spce
   2276     494   11  -0.847600000000     9.145613     6.335555    11.638026  # Ow spce
   2277     494   10   0.423800000000     8.213272     6.149059    11.947800  # Hw spce
   2278     495   10   0.423800000000     1.415017   -17.372174   -20.883604  # Hw spce
   2279     495   11  -0.847600000000     2.163939   -17.755111   -20.342794  # Ow spce
   2280     495   10   0.423800000000     2.921097   -17.999989   -20.948390  # Hw spce
   2281     496   10   0.423800000000     2.296166   -10.167518   -23.481456  # Hw spce
   2282     496   11  -0.847600000000     1.304639   -10.297398   -23.479119  # Ow spce
   2283     496   10   0.423800000000     1.096605   -11.275518   -23.477579  # Hw spce
   2284     497   10   0.423800000000     8.338504     3.830318   -17.105934  # Hw spce
   2285     497   11  -0.847600000000     7.532976     3.347867   -16.761890  # Ow spce
   2286     497   10   0.423800000000     7.481488     3.451302   -15.768587  # Hw spce
   2287     498   10   0.423800000000     9.800000    -5.840475    23.157826  # Hw spce
   2288     498   11  -0.847600000000     9.745286    -4.862379    22.956989  # Ow spce
   2289     498   10   0.423800000000     9.011854    -4.451443    23.498477  # Hw spce
   2290     499   10   0.423800000000    -9.366915     0.238569   -21.091138  # Hw spce
   2291     499   11  -0.847600000000    -8.464600     0.191611   -20.662626  # Ow spce
   2292     499   10   0.423800000000    -7.831591     0.791475   -21.151976  # Hw spce
   2293     500   10   0.423800000000     5.444431   -12.860430   -18.492976  # Hw spce
   2294     500   11  -0.847600000000     6.023559   -12.994000   -17.688756  # Ow spce
   2295     500   10   0.423800000000     6.962134   -12.725569   -17.905597  # Hw spce
   2296     501   10   0.423800000000     6.471307     6.161216    20.805016  # Hw spce
   2297     501   11  -0.847600000000     6.938431     6.971257    20.450574  # Ow spce
   2298     501   10   0.423800000000     7.679085     6.688860    19.840915  # Hw spce
   2299     502   10   0.423800000000     5.247434   -12.106599    19.637817  # Hw spce
   2300     502   11  -0.847600000000     4.794196   -12.391063    20.482599  # Ow spce
   2301     502   10   0.423800000000     4.039484   -11.766247    20.682635  # Hw spce
   2302     503   10   0.423800000000    -2.481326     2.866832    -6.439182  # Hw spce
   2303     503   11  -0.847600000000    -2.645787     2.461296    -7.338344  # Ow spce
   2304     503   10   0.423800000000    -3.278677     3.038989    -7.853827  # Hw spce
   2305     504   10   0.423800000000     9.758782   -17.506456   -20.884840  # Hw spce
   2306     504   11  -0.847600000000     9.202687   -16.675629   -20.906857  # Ow spce
   2307     504   10   0.423800000000     9.800488   -15.874051   -20.896593  # Hw spce
   2308     505   10   0.423800000000     3.987444     6.163708   -22.105087  # Hw spce
   2309     505   11  -0.847600000000     2.990521     6.131747   -22.033500  # Ow spce
   2310     505   10   0.423800000000     2.584529     6.438437   -22.894379  # Hw spce
   2311     506   10   0.423800000000    -2.279957     1.104756   -18.458483  # Hw spce
   2312     506   11  -0.847600000000    -2.828875     0.271433   -18.523757  # Ow spce
   2313     506   10   0.423800000000    -2.426202    -0.340469   -19.204514  # Hw spce
   2314     507   10   0.423800000000    -0.963657    -1.770580    13.579496  # Hw spce
   2315     507   11  -0.847600000000    -0.847309    -2.698785    13.226086  # Ow spce
   2316     507   10   0.423800000000    -1.543897    -3.296372    13.623142  # Hw spce
   2317     508   10   0.423800000000    -4.629045     7.684385   -20.610320  # Hw spce
   2318     508   11  -0.847600000000    -4.102851     6.860685   -20.399042  # Ow spce
   2319     508   10   0.423800000000    -4.489106     6.082332   -20.893990  # Hw spce
   2320     509   10   0.423800000000     2.501260    -8.636071    10.921370  # Hw spce
   2321     509   11  -0.847600000000     1.795313    -9.341409    10.985687  # Ow spce
   2322     509   10   0.423800000000     1.007110    -9.075701    10.430588  # Hw spce
   2323     510   10   0.423800000000    -9.799942    17.686326   -19.204416  # Hw spce
   2324     510   11  -0.847600000000    -9.787091    17.249565   -20.103902  # Ow spce
   2325     510   10   0.423800000000    -9.799971    16.255912   -19.992160  # Hw spce
   2326     511   10   0.423800000000    -9.796929     6.021556    10.087393  # Hw spce
   2327     511   11  -0.847600000000    -9.221886     6.839219    10.114827  # Ow spce
   2328     511   10   0.423800000000    -9.800000     7.654526    10.082275  # Hw spce
   2329     512   10   0.423800000000    -1.966039    -4.962725    11.247583  # Hw spce
   2330     512   11  -0.847600000000    -2.845151    -5.349626    10.969247  # Ow spce
   2331     512   10   0.423800000000    -3.586571    -4.771215    11.309448  # Hw spce
   2332     513   10   0.423800000000     7.267290    15.212043    -4.440375  # Hw spce
   2333     513   11  -0.847600000000     6.508777    15.027697    -3.815335  # Ow spce
   2334     513   10   0.423800000000     5.665084    14.912979    -4.339761  # Hw spce
   2335     514   10   0.423800000000     5.027742   -17.999849   -23.474882  # Hw spce
   2336     514   11  -0.847600000000     5.815679   -17.463674   -23.172107  # Ow spce
   2337     514   10   0.423800000000     6.657056   -17.893377   -23.499886  # Hw spce
   2338     515   10   0.423800000000    -5.732210   -10.095794    -9.087643  # Hw spce
   2339     515   11  -0.847600000000    -6.094421   -10.946870    -9.467737  # Ow spce
   2340     515   10   0.423800000000    -7.093621   -10.908399    -9.478611  # Hw spce
   2341     516   10   0.423800000000    -9.769500    16.222138    11.630423  # Hw spce
   2342     516   11  -0.847600000000    -9.799999    16.466122    10.661124  # Ow spce
   2343     516   10   0.423800000000    -8.869152    16.603632    10.322577  # Hw spce
   2344     517   10   0.423800000000    -9.790833    18.000000     3.249055  # Hw spce
   2345     517   11  -0.847600000000    -9.774966    17.423003     4.065647  # Ow spce
   2346     517   10   0.423800000000    -9.800000    18.000000     4.882009  # Hw spce
   2347     518   10   0.423800000000    -3.201298   -15.863629    -9.242436  # Hw spce
   2348     518   11  -0.847600000000    -3.831475   -15.883638    -8.466242  # Ow spce
   2349     518   10   0.423800000000    -3.713864   -16.739983    -7.963411  # Hw spce
   2350     519   10   0.423800000000     8.652687    -7.012660   -22.084003  # Hw spce
   2351     519   11  -0.847600000000     8.755246    -6.541829   -22.960245  # Ow spce
   2352     519   10   0.423800000000     9.713238    -6.286823   -23.091484  # Hw spce
   2353     520   10   0.423800000000     5.603703    14.636899     8.548761  # Hw spce
   2354     520   11  -0.847600000000     6.499588    15.043588     8.369890  # Ow spce
   2355     520   10   0.423800000000     6.775292    15.600435     9.153413  # Hw spce
   2356     521   10   0.423800000000    -9.800022    -1.383161   -19.238450  # Hw spce
   2357     521   11  -0.847600000000    -9.430877    -1.534145   -18.321425  # Ow spce
   2358     521   10   0.423800000000    -8.434733    -1.449644   -18.345034  # Hw spce
   2359     522   10   0.423800000000    -5.570255     4.248470     8.072905  # Hw spce
   2360     522   11  -0.847600000000    -5.931334     4.460484     7.164791  # Ow spce
   2361     522   10   0.423800000000    -6.197972     3.612945     6.705899  # Hw spce
   2362     523   10   0.423800000000    -1.856068    15.978759   -11.480756  # Hw spce
   2363     523   11  -0.847600000000    -1.379121    15.120564   -11.670554  # Ow spce
   2364     523   10   0.423800000000    -1.876212    14.611282   -12.373071  # Hw spce
   2365     524   10   0.423800000000    -9.800000    12.532118    16.119366  # Hw spce
   2366     524   11  -0.847600000000    -9.252856    13.127501    15.531019  # Ow spce
   2367     524   10   0.423800000000    -9.799997    13.412369    14.743944  # Hw spce
   2368     525   10   0.423800000000     1.426131    -0.217333    20.758122  # Hw spce
   2369     525   11  -0.847600000000     1.575800    -0.685263    19.887122  # Ow spce
   2370     525   10   0.423800000000     2.546937    -0.902139    19.787833  # Hw spce
   2371     526   10   0.423800000000    -3.481026    17.998791   -23.499820  # Hw spce
   2372     526   11  -0.847600000000    -4.221618    17.488263   -23.062917  # Ow spce
   2373     526   10   0.423800000000    -4.557902    17.999865   -22.272236  # Hw spce
   2374     527   10   0.423800000000     5.637293    15.026840    23.288148  # Hw spce
   2375     527   11  -0.847600000000     4.757810    14.600661    23.500000  # Ow spce
   2376     527   10   0.423800000000     4.032794    15.059356    22.986241  # Hw spce
   2377     528   10   0.423800000000     1.636631     1.518163   -12.977533  # Hw spce
   2378     528   11  -0.847600000000     1.140889     2.378830   -13.093693  # Ow spce
   2379     528   10   0.423800000000     1.731764     3.045035   -13.548705  # Hw spce
   2380     529   10   0.423800000000     7.421201   -18.000000    19.019585  # Hw spce
   2381     529   11  -0.847600000000     6.804209   -17.800890    18.258221  # Ow spce
   2382     529   10   0.423800000000     7.273492   -17.979513    17.393428  # Hw spce
   2383     530   10   0.423800000000     2.239692    -3.917123    10.479268  # Hw spce
   2384     530   11  -0.847600000000     1.268851    -4.041096    10.684447  # Ow spce
   2385     530   10   0.423800000000     0.982171    -3.363613    11.361818  # Hw spce
   2386     531   10   0.423800000000     1.408260    13.621189   -12.377608  # Hw spce
   2387     531   11  -0.847600000000     0.520698    13.160939   -12.357565  # Ow spce
   2388     531   10   0.423800000000     0.280960    12.940228   -11.412149  # Hw spce
   2389     532   10   0.423800000000     5.695968    -5.459201    17.057202  # Hw spce
   2390     532   11  -0.847600000000     6.477813    -5.679655    17.640399  # Ow spce
   2391     532   10   0.423800000000     6.843921    -6.573939    17.383067  # Hw spce
   2392     533   10   0.423800000000     4.259385    13.212395   -10.618342  # Hw spce
   2393     533   11  -0.847600000000     3.573754    13.760450   -11.097451  # Ow spce
   2394     533   10   0.423800000000     3.998038    14.214517   -11.880908  # Hw spce
   2395     534   10   0.423800000000     9.800000   -13.306920    22.434814  # Hw spce
   2396     534   11  -0.847600000000     9.582042   -13.197330    23.404600  # Ow spce
   2397     534   10   0.423800000000     8.642218   -12.869262    23.500000  # Hw spce
   2398     535   10   0.423800000000    -9.244941    -9.984389   -16.717267  # Hw spce
   2399     535   11  -0.847600000000    -9.800035    -9.749605   -17.515231  # Ow spce
   2400     535   10   0.423800000000    -9.414857    -8.942976   -17.963546  # Hw spce
   2401     536   10   0.423800000000    -4.658820     4.696249    -6.541182  # Hw spce
   2402     536   11  -0.847600000000    -3.739588     5.087467    -6.496880  # Ow spce
   2403     536   10   0.423800000000    -3.553843     5.397427    -5.564452  # Hw spce
   2404     537   10   0.423800000000    -2.096198    -1.818769    -6.967572  # Hw spce
   2405     537   11  -0.847600000000    -2.401488    -2.763841    -7.084351  # Ow spce
   2406     537   10   0.423800000000    -3.368341    -2.772669    -7.339528  # Hw spce
   2407     538   10   0.423800000000     2.268081    17.999931   -19.854635  # Hw spce
   2408     538   11  -0.847600000000     2.241742    17.894564   -20.848719  # Ow spce
   2409     538   10   0.423800000000     1.300743    18.000058   -21.170265  # Hw spce
   2410     539   10   0.423800000000    -9.799986   -11.875171   -10.547591  # Hw spce
   2411     539   11  -0.847600000000    -9.265690   -12.699308   -10.359636  # Ow spce
   2412     539   10   0.423800000000    -9.799887   -13.318917    -9.784555  # Hw spce
   2413     540   10   0.423800000000     0.912836    -7.680824    16.634542  # Hw spce
   2414     540   11  -0.847600000000     0.662311    -8.343647    17.340165  # Ow spce
   2415     540   10   0.423800000000     1.429378    -8.964567    17.501615  # Hw spce
   2416     541   10   0.423800000000     0.015237     6.271747   -12.175068  # Hw spce
   2417     541   11  -0.847600000000     0.490876     5.525636   -11.709142  # Ow spce
   2418     541   10   0.423800000000     1.206266     5.162267   -12.305949  # Hw spce
   2419     542   10   0.423800000000     6.737128     8.950590   -21.007854  # Hw spce
   2420     542   11  -0.847600000000     7.483802     8.448519   -20.571503  # Ow spce
   2421     542   10   0.423800000000     7.437139     7.485288   -20.836096  # Hw spce
   2422     543   10   0.423800000000     0.536579    -8.244727   -11.442856  # Hw spce
   2423     543   11  -0.847600000000     1.053420    -7.402326   -11.595291  # Ow spce
   2424     543   10   0.423800000000     2.029161    -7.582909   -11.471529  # Hw spce
   2425     544   10   0.423800000000    -7.772079    12.468134    13.627714  # Hw spce
   2426     544   11  -0.847600000000    -7.556598    11.594913    13.190617  # Ow spce
   2427     544   10   0.423800000000    -7.380859    11.743682    12.217486  # Hw spce
   2428     545   10   0.423800000000     4.657757   -17.442678     2.756649  # Hw spce
   2429     545   11  -0.847600000000     4.922287   -16.478717     2.784966  # Ow spce
   2430     545   10   0.423800000000     4.111911   -15.906818     2.657596  # Hw spce
   2431     546   10   0.423800000000     9.537848   -12.029664    13.711200  # Hw spce
   2432     546   11  -0.847600000000     9.800000   -11.069198    13.617487  # Ow spce
   2433     546   10   0.423800000000     9.691938   -10.606803    14.497551  # Hw spce
   2434     547   10   0.423800000000    -5.817222    14.090189    14.826907  # Hw spce
   2435     547   11  -0.847600000000    -4.991159    14.653349    14.848607  # Ow spce
   2436     547   10   0.423800000000    -5.101495    15.430909    14.229554  # Hw spce
   2437     548   10   0.423800000000    -5.786972   -14.781091   -23.500030  # Hw spce
   2438     548   11  -0.847600000000    -6.405725   -13.995505   -23.499970  # Ow spce
   2439     548   10   0.423800000000    -5.871301   -13.150289   -23.499883  # Hw spce
   2440     549   10   0.423800000000    -7.925639   -16.438110     1.205456  # Hw spce
   2441     549   11  -0.847600000000    -8.243155   -15.563871     1.572729  # Ow spce
   2442     549   10   0.423800000000    -8.751902   -15.722840     2.418841  # Hw spce
   2443     550   10   0.423800000000     4.724978     2.024131     8.339678  # Hw spce
   2444     550   11  -0.847600000000     3.862376     1.630698     8.657684  # Ow spce
   2445     550   10   0.423800000000     4.012628     0.683772     8.941858  # Hw spce
   2446     551   10   0.423800000000     6.919596    -4.159385   -18.788581  # Hw spce
   2447     551   11  -0.847600000000     6.606034    -4.482399   -17.895642  # Ow spce
   2448     551   10   0.423800000000     5.606549    -4.466666   -17.867650  # Hw spce
   2449     552   10   0.423800000000     6.849438    11.943122     9.215590  # Hw spce
   2450     552   11  -0.847600000000     7.736429    12.235518     9.573014  # Ow spce
   2451     552   10   0.423800000000     7.855026    13.214984     9.409977  # Hw spce
   2452     553   10   0.423800000000     0.944287     1.490158     2.638236  # Hw spce
   2453     553   11  -0.847600000000     1.388911     0.921019     3.329894  # Ow spce
   2454     553   10   0.423800000000     2.119862     1.442032     3.770637  # Hw spce
   2455     554   10   0.423800000000    -9.588976   -10.241605    23.500000  # Hw spce
   2456     554   11  -0.847600000000    -9.799750    -9.419057    22.971806  # Ow spce
   2457     554   10   0.423800000000    -8.985943    -9.128474    22.468537  # Hw spce
   2458     555   10   0.423800000000     8.773567     2.392884    -9.295182  # Hw spce
   2459     555   11  -0.847600000000     9.731136     2.665619    -9.388334  # Ow spce
   2460     555   10   0.423800000000     9.790480     3.662655    -9.437287  # Hw spce
   2461     556   10   0.423800000000    -7.249452    13.305286   -10.813811  # Hw spce
   2462     556   11  -0.847600000000    -7.737606    12.676653   -11.419225  # Ow spce
   2463     556   10   0.423800000000    -7.077555    12.125937   -11.930150  # Hw spce
   2464     557   10   0.423800000000    -1.736908     4.566392    15.942074  # Hw spce
   2465     557   11  -0.847600000000    -1.190233     3.844727    15.517402  # Ow spce
   2466     557   10   0.423800000000    -0.880060     4.148026    14.616401  # Hw spce
   2467     558   10   0.423800000000     7.853020    14.678654    17.269887  # Hw spce
   2468     558   11  -0.847600000000     6.907175    14.644748    17.592729  # Ow spce
   2469     558   10   0.423800000000     6.741923    13.770492    18.049202  # Hw spce
   2470     559   10   0.423800000000    -2.701997     3.496306    -0.756825  # Hw spce
   2471     559   11  -0.847600000000    -2.563382     2.700423    -0.167456  # Ow spce
   2472     559   10   0.423800000000    -2.774336     1.866835    -0.677974  # Hw spce
   2473     560   10   0.423800000000     4.113357    -2.556280    -7.177927  # Hw spce
   2474     560   11  -0.847600000000     3.124587    -2.477002    -7.051250  # Ow spce
   2475     560   10   0.423800000000     2.660924    -3.166575    -7.607582  # Hw spce
   2476     561   10   0.423800000000     1.095134    -6.637667    11.449756  # Hw spce
   2477     561   11  -0.847600000000     0.218997    -6.262249    11.147358  # Ow spce
   2478     561   10   0.423800000000    -0.375242    -7.006609    10.842714  # Hw spce
   2479     562   10   0.423800000000     8.678898   -11.300582    11.299411  # Hw spce
   2480     562   11  -0.847600000000     7.750253   -11.159372    10.956369  # Ow spce
   2481     562   10   0.423800000000     7.649081   -11.614016    10.071461  # Hw spce
   2482     563   10   0.423800000000     5.914745     4.416933    16.670501  # Hw spce
   2483     563   11  -0.847600000000     5.100967     4.541783    16.102895  # Ow spce
   2484     563   10   0.423800000000     5.373778     4.637569    15.145607  # Hw spce
   2485     564   10   0.423800000000     6.953411     0.469651    -0.747391  # Hw spce
   2486     564   11  -0.847600000000     6.720498     1.361566    -0.359784  # Ow spce
   2487     564   10   0.423800000000     5.855157     1.678147    -0.748320  # Hw spce
   2488     565   10   0.423800000000     0.193337   -14.065912     9.246174  # Hw spce
   2489     565   11  -0.847600000000     0.997975   -14.621116     9.456669  # Ow spce
   2490     565   10   0.423800000000     1.823642   -14.069248     9.339559  # Hw spce
   2491     566   10   0.423800000000    -6.467375    -0.955022    20.166602  # Hw spce
   2492     566   11  -0.847600000000    -6.955018    -1.693400    20.632437  # Ow spce
   2493     566   10   0.423800000000    -6.294440    -2.327067    21.035056  # Hw spce
   2494     567   10   0.423800000000    -2.760366    -6.771384    18.654534  # Hw spce
   2495     567   11  -0.847600000000    -3.644995    -6.436612    18.979126  # Ow spce
   2496     567   10   0.423800000000    -4.356466    -6.682887    18.320979  # Hw spce
   2497     568   10   0.423800000000    -3.334211     7.775083   -13.184179  # Hw spce
   2498     568   11  -0.847600000000    -2.624880     8.378541   -12.819914  # Ow spce
   2499     568   10   0.423800000000    -1.971374     7.841029   -12.286988  # Hw spce
   2500     569   10   0.423800000000     2.432945    -3.712690    21.622341  # Hw spce
   2501     569   11  -0.847600000000     1.980859    -3.892579    22.495988  # Ow spce
   2502     569   10   0.423800000000     1.833320    -3.029423    22.978889  # Hw spce
   2503     570   10   0.423800000000     9.717458   -15.876636    23.500000  # Hw spce
   2504     570   11  -0.847600000000     9.693716   -15.803742    22.502943  # Ow spce
   2505     570   10   0.423800000000     8.766263   -15.574534    22.207488  # Hw spce
   2506     571   10   0.423800000000     2.429452    -0.407516    -5.135742  # Hw spce
   2507     571   11  -0.847600000000     3.212223    -0.793835    -4.647862  # Ow spce
   2508     571   10   0.423800000000     2.981731    -1.710174    -4.320452  # Hw spce
   2509     572   10   0.423800000000    -7.252849     2.940413    23.499308  # Hw spce
   2510     572   11  -0.847600000000    -7.154388     3.606541    22.759999  # Ow spce
   2511     572   10   0.423800000000    -7.380870     3.172588    21.887995  # Hw spce
   2512     573   10   0.423800000000     9.797550   -10.080699   -20.972425  # Hw spce
   2513     573   11  -0.847600000000     9.801533   -11.079400   -21.023216  # Ow spce
   2514     573   10   0.423800000000     8.992029   -11.391071   -21.520774  # Hw spce
   2515     574   10   0.423800000000     2.973652     6.717105    12.747679  # Hw spce
   2516     574   11  -0.847600000000     2.813222     6.720239    13.734722  # Ow spce
   2517     574   10   0.423800000000     3.138506     5.860290    14.128011  # Hw spce
   2518     575   10   0.423800000000     6.730425     0.979666    -5.748732  # Hw spce
   2519     575   11  -0.847600000000     6.133689     0.278275    -5.358915  # Ow spce
   2520     575   10   0.423800000000     5.389009     0.716434    -4.855460  # Hw spce
   2521     576   10   0.423800000000     6.762704    -6.447390    23.271856  # Hw spce
   2522     576   11  -0.847600000000     6.342706    -7.167434    22.719464  # Ow spce
   2523     576   10   0.423800000000     6.831093    -7.248673    21.850627  # Hw spce
   2524     577   10   0.423800000000    -5.104827     7.527535    19.984381  # Hw spce
   2525     577   11  -0.847600000000    -4.122653     7.417461    19.832007  # Ow spce
   2526     577   10   0.423800000000    -3.834050     6.516404    20.155741  # Hw spce
   2527     578   10   0.423800000000     2.732357    -5.617101    -8.097323  # Hw spce
   2528     578   11  -0.847600000000     2.613994    -5.584055    -9.089743  # Ow spce
   2529     578   10   0.423800000000     3.308610    -6.154946    -9.527456  # Hw spce
   2530     579   10   0.423800000000    -9.342735    -0.319423    -9.252419  # Hw spce
   2531     579   11  -0.847600000000    -9.799999     0.524012    -9.534423  # Ow spce
   2532     579   10   0.423800000000    -9.745502     0.616317   -10.528661  # Hw spce
   2533     580   10   0.423800000000    -4.200056   -12.647895   -21.164013  # Hw spce
   2534     580   11  -0.847600000000    -4.507624   -12.127477   -20.367416  # Ow spce
   2535     580   10   0.423800000000    -3.796308   -11.478025   -20.098642  # Hw spce
   2536     581   10   0.423800000000     3.700077    13.081844     9.554902  # Hw spce
   2537     581   11  -0.847600000000     4.394370    12.380936     9.391550  # Ow spce
   2538     581   10   0.423800000000     3.974823    11.475329     9.453659  # Hw spce
   2539     582   10   0.423800000000     3.632502   -16.734571    -8.326631  # Hw spce
   2540     582   11  -0.847600000000     3.772186   -17.165695    -9.218046  # Ow spce
   2541     582   10   0.423800000000     3.213778   -17.992993    -9.279348  # Hw spce
   2542     583   10   0.423800000000    -9.799974     2.797400   -13.988894  # Hw spce
   2543     583   11  -0.847600000000    -9.322257     1.990170   -13.642247  # Ow spce
   2544     583   10   0.423800000000    -9.495591     1.895657   -12.661929  # Hw spce
   2545     584   10   0.423800000000     6.701864    -1.388432     9.110004  # Hw spce
   2546     584   11  -0.847600000000     5.743276    -1.163131     9.284214  # Ow spce
   2547     584   10   0.423800000000     5.181257    -1.486178     8.522785  # Hw spce
   2548     585   10   0.423800000000    -0.401343   -18.000000    -9.409667  # Hw spce
   2549     585   11  -0.847600000000     0.594450   -17.981460    -9.499398  # Ow spce
   2550     585   10   0.423800000000     0.840091   -17.737610   -10.437586  # Hw spce
   2551     586   10   0.423800000000     0.770967     9.136828    21.037146  # Hw spce
   2552     586   11  -0.847600000000    -0.211576     9.107826    21.220906  # Ow spce
   2553     586   10   0.423800000000    -0.460945     9.867637    21.821325  # Hw spce
   2554     587   10   0.423800000000     2.518005     3.785554    12.681453  # Hw spce
   2555     587   11  -0.847600000000     3.509410     3.901080    12.620056  # Ow spce
   2556     587   10   0.423800000000     3.827569     3.581566    11.727484  # Hw spce
   2557     588   10   0.423800000000     7.085310    12.180579   -19.910565  # Hw spce
   2558     588   11  -0.847600000000     7.024208    11.836405   -18.973649  # Ow spce
   2559     588   10   0.423800000000     6.671547    12.556685   -18.376299  # Hw spce
   2560     589   10   0.423800000000     9.800000     8.719743    12.556313  # Hw spce
   2561     589   11  -0.847600000000     8.904195     9.161810    12.510360  # Ow spce
   2562     589   10   0.423800000000     9.007537    10.142481    12.676505  # Hw spce
   2563     590   10   0.423800000000     2.878327    -1.863804     7.155002  # Hw spce
   2564     590   11  -0.847600000000     2.241745    -2.598035     6.919062  # Ow spce
   2565     590   10   0.423800000000     2.236683    -2.729039     5.927693  # Hw spce
   2566     591   10   0.423800000000     0.955772    12.649823    15.262728  # Hw spce
   2567     591   11  -0.847600000000     1.768786    12.117852    15.026053  # Ow spce
   2568     591   10   0.423800000000     2.539600    12.736669    14.874690  # Hw spce
   2569     592   10   0.423800000000     8.564390     0.377904     9.603299  # Hw spce
   2570     592   11  -0.847600000000     9.547034     0.476956     9.446459  # Ow spce
   2571     592   10   0.423800000000     9.800000     1.441955     9.515621  # Hw spce
   2572     593   10   0.423800000000     7.117988   -13.513711    16.772309  # Hw spce
   2573     593   11  -0.847600000000     6.689828   -13.496814    17.675854  # Ow spce
   2574     593   10   0.423800000000     7.399141   -13.485394    18.380656  # Hw spce
   2575     594   10   0.423800000000    -2.156054     7.481019   -15.841841  # Hw spce
   2576     594   11  -0.847600000000    -1.949528     8.394435   -15.491101  # Ow spce
   2577     594   10   0.423800000000    -1.177358     8.341607   -14.857886  # Hw spce
   2578     595   10   0.423800000000     1.079009   -15.765565    11.927093  # Hw spce
   2579     595   11  -0.847600000000     0.194271   -15.318067    12.057417  # Ow spce
   2580     595   10   0.423800000000    -0.473465   -15.708886    11.423864  # Hw spce
   2581     596   10   0.423800000000     1.681675   -14.984195    20.684389  # Hw spce
   2582     596   11  -0.847600000000     1.724777   -15.906931    21.067404  # Ow spce
   2583     596   10   0.423800000000     0.818357   -16.327351    21.026792  # Hw spce
   2584     597   10   0.423800000000    -3.311722    -5.463194     6.008769  # Hw spce
   2585     597   11  -0.847600000000    -2.601489    -6.151775     6.155146  # Ow spce
   2586     597   10   0.423800000000    -1.702471    -5.740542     6.004635  # Hw spce
   2587     598   10   0.423800000000     5.073814    -7.075441   -11.039638  # Hw spce
   2588     598   11  -0.847600000000     6.050635    -7.188027   -11.221694  # Ow spce
   2589     598   10   0.423800000000     6.443999    -6.307577   -11.486407  # Hw spce
   2590     599   10   0.423800000000     3.239957    17.685996    16.152791  # Hw spce
   2591     599   11  -0.847600000000     3.806170    17.994749    16.917039  # Ow spce
   2592     599   10   0.423800000000     4.245732    17.205734    17.346269  # Hw spce
   2593     600   10   0.423800000000     5.672210    -8.466580   -23.401414  # Hw spce
   2594     600   11  -0.847600000000     6.305454    -9.146330   -23.031356  # Ow spce
   2595     600   10   0.423800000000     6.143804   -10.028292   -23.474089  # Hw spce
   2596     601   10   0.423800000000     9.544568    -0.088441    -9.082946  # Hw spce
   2597     601   11  -0.847600000000     9.368606    -0.387495   -10.020818  # Ow spce
   2598     601   10   0.423800000000     8.894066    -1.267613   -10.006540  # Hw spce
   2599     602   10   0.423800000000     2.410585     1.004906    -0.176110  # Hw spce
   2600     602   11  -0.847600000000     1.481623     0.922943     0.184877  # Ow spce
   2601     602   10   0.423800000000     0.894065     0.493930    -0.501215  # Hw spce
   2602     603   10   0.423800000000     2.227686    -7.265381     8.637349  # Hw spce
   2603     603   11  -0.847600000000     3.077385    -6.783654     8.851714  # Ow spce
   2604     603   10   0.423800000000     3.789546    -7.448369     9.077503  # Hw spce
   2605     604   10   0.423800000000    -6.405261    -0.250938     4.780300  # Hw spce
   2606     604   11  -0.847600000000    -5.813331    -1.013582     4.519545  # Ow spce
   2607     604   10   0.423800000000    -4.933480    -0.659387     4.202671  # Hw spce
   2608     605   10   0.423800000000    -1.310687   -18.000029   -18.520096  # Hw spce
   2609     605   11  -0.847600000000    -0.462694   -17.999065   -19.050101  # Ow spce
   2610     605   10   0.423800000000     0.319533   -17.979614   -18.427411  # Hw spce
   2611     606   10   0.423800000000     8.090317    16.939176     0.378722  # Hw spce
   2612     606   11  -0.847600000000     8.302792    17.881581     0.637037  # Ow spce
   2613     606   10   0.423800000000     8.154253    17.999630     1.618872  # Hw spce
   2614     607   10   0.423800000000    -6.742154     3.810911   -12.886138  # Hw spce
   2615     607   11  -0.847600000000    -5.865494     4.097301   -13.272723  # Ow spce
   2616     607   10   0.423800000000    -5.707011     5.061711   -13.061072  # Hw spce
   2617     608   10   0.423800000000     4.938113    17.999592   -21.357372  # Hw spce
   2618     608   11  -0.847600000000     4.426500    17.374826   -21.947219  # Ow spce
   2619     608   10   0.423800000000     4.103364    17.868307   -22.754721  # Hw spce
   2620     609   10   0.423800000000    -9.800000    -7.465608    17.531123  # Hw spce
   2621     609   11  -0.847600000000    -9.679489    -6.487637    17.701561  # Ow spce
   2622     609   10   0.423800000000    -9.788301    -6.303657    18.678450  # Hw spce
   2623     610   10   0.423800000000    -2.220455    -0.740234     3.020311  # Hw spce
   2624     610   11  -0.847600000000    -1.638642    -0.765750     3.833233  # Ow spce
   2625     610   10   0.423800000000    -1.053662     0.045124     3.850029  # Hw spce
   2626     611   10   0.423800000000     0.561713    -5.932203   -14.655025  # Hw spce
   2627     611   11  -0.847600000000     0.941441    -5.538115   -15.491984  # Ow spce
   2628     611   10   0.423800000000     1.705295    -6.100561   -15.808498  # Hw spce
   2629     612   10   0.423800000000     0.247101    11.778113   -16.131165  # Hw spce
   2630     612   11  -0.847600000000    -0.029134    10.829280   -16.284171  # Ow spce
   2631     612   10   0.423800000000    -0.888870    10.651103   -15.805520  # Hw spce
   2632     613   10   0.423800000000     6.282620    -3.713157     2.775169  # Hw spce
   2633     613   11  -0.847600000000     5.350731    -3.463888     2.511637  # Ow spce
   2634     613   10   0.423800000000     4.789120    -4.289151     2.452189  # Hw spce
   2635     614   10   0.423800000000    -9.799864     4.030292   -18.295783  # Hw spce
   2636     614   11  -0.847600000000    -9.753400     5.024990   -18.387528  # Ow spce
   2637     614   10   0.423800000000    -9.799635     5.272989   -19.355185  # Hw spce
   2638     615   10   0.423800000000    -4.474400    -8.820598   -18.124335  # Hw spce
   2639     615   11  -0.847600000000    -4.141691    -8.975011   -17.194033  # Ow spce
   2640     615   10   0.423800000000    -4.840822    -8.689822   -16.538378  # Hw spce
   2641     616   10   0.423800000000     1.628469     0.037273   -16.542669  # Hw spce
   2642     616   11  -0.847600000000     1.884537    -0.529167   -15.759359  # Ow spce
   2643     616   10   0.423800000000     1.624927    -0.064367   -14.912859  # Hw spce
   2644     617   10   0.423800000000     2.458503   -17.519734   -12.863745  # Hw spce
   2645     617   11  -0.847600000000     3.374619   -17.909884   -12.956022  # Ow spce
   2646     617   10   0.423800000000     3.791203   -17.999976   -12.051401  # Hw spce
   2647     618   10   0.423800000000     9.799959     0.735130   -12.212502  # Hw spce
   2648     618   11  -0.847600000000     9.663502     1.723548   -12.146109  # Ow spce
   2649     618   10   0.423800000000     8.687329     1.930404   -12.211654  # Hw spce
   2650     619   10   0.423800000000     6.152582    16.396035   -12.260878  # Hw spce
   2651     619   11  -0.847600000000     6.339120    15.414584   -12.305119  # Ow spce
   2652     619   10   0.423800000000     5.978752    15.045088   -13.161628  # Hw spce
   2653     620   10   0.423800000000     4.266818     3.378592   -17.463699  # Hw spce
   2654     620   11  -0.847600000000     5.074707     3.807538   -17.059571  # Ow spce
   2655     620   10   0.423800000000     4.905364     4.785036   -16.933795  # Hw spce
   2656     621   10   0.423800000000     7.215897    -3.804751     6.412840  # Hw spce
   2657     621   11  -0.847600000000     7.565648    -3.958528     5.488705  # Ow spce
   2658     621   10   0.423800000000     7.409464    -3.141927     4.933036  # Hw spce
   2659     622   10   0.423800000000     6.337821    17.662405    19.403172  # Hw spce
   2660     622   11  -0.847600000000     7.332418    17.680165    19.300892  # Ow spce
   2661     622   10   0.423800000000     7.683654    16.743897    19.294999  # Hw spce
   2662     623   10   0.423800000000     9.792379    17.992972    18.692812  # Hw spce
   2663     623   11  -0.847600000000     9.533864    18.000000    17.726830  # Ow spce
   2664     623   10   0.423800000000     9.800000    17.133628    17.304253  # Hw spce
   2665     624   10   0.423800000000     6.127865    15.206080    13.327070  # Hw spce
   2666     624   11  -0.847600000000     6.795423    15.484326    12.636458  # Ow spce
   2667     624   10   0.423800000000     6.318986    15.729989    11.792268  # Hw spce
   2668     625   10   0.423800000000     1.093430     2.238610    10.323290  # Hw spce
   2669     625   11  -0.847600000000     1.825748     1.965447    10.947062  # Ow spce
   2670     625   10   0.423800000000     1.573464     1.112521    11.404084  # Hw spce
   2671     626   10   0.423800000000    -2.350271     7.554109    18.074169  # Hw spce
   2672     626   11  -0.847600000000    -1.568107     7.366447    18.668308  # Ow spce
   2673     626   10   0.423800000000    -0.898997     6.812091    18.173352  # Hw spce
   2674     627   10   0.423800000000    -9.510063    14.782218     7.264806  # Hw spce
   2675     627   11  -0.847600000000    -8.754755    14.544882     7.875692  # Ow spce
   2676     627   10   0.423800000000    -7.995665    15.179169     7.729192  # Hw spce
   2677     628   10   0.423800000000    -5.277337     8.227047   -11.410379  # Hw spce
   2678     628   11  -0.847600000000    -5.552768     7.265749   -11.416915  # Ow spce
   2679     628   10   0.423800000000    -4.738237     6.685698   -11.425776  # Hw spce
   2680     629   10   0.423800000000    -7.890975   -15.291277   -14.928714  # Hw spce
   2681     629   11  -0.847600000000    -8.448310   -15.563714   -14.144395  # Ow spce
   2682     629   10   0.423800000000    -7.861825   -15.678848   -13.342660  # Hw spce
   2683     630   10   0.423800000000    -6.937303   -10.358629    23.500000  # Hw spce
   2684     630   11  -0.847600000000    -6.533152   -10.224722    22.595162  # Ow spce
   2685     630   10   0.423800000000    -6.873891   -10.927449    21.970605  # Hw spce
   2686     631   10   0.423800000000     5.926384    -1.817511    -3.675619  # Hw spce
   2687     631   11  -0.847600000000     6.523493    -2.472237    -3.212160  # Ow spce
   2688     631   10   0.423800000000     6.765277    -2.120634    -2.307774  # Hw spce
   2689     632   10   0.423800000000     9.800000    18.000000    13.113483  # Hw spce
   2690     632   11  -0.847600000000     9.533965    17.397542    12.360974  # Ow spce
   2691     632   10   0.423800000000     9.798038    17.814194    11.491109  # Hw spce
   2692     633   10   0.423800000000    -7.158015     2.233159    19.082631  # Hw spce
   2693     633   11  -0.847600000000    -7.064292     3.045812    18.507469  # Ow spce
   2694     633   10   0.423800000000    -7.292712     3.860047    19.041178  # Hw spce
   2695     634   10   0.423800000000    -7.259950     2.471450   -18.197992  # Hw spce
   2696     634   11  -0.847600000000    -6.905312     3.127151   -17.531442  # Ow spce
   2697     634   10   0.423800000000    -6.739637     2.661935   -16.661888  # Hw spce
   2698     635   10   0.423800000000    -9.800000   -17.102098    -1.405050  # Hw spce
   2699     635   11  -0.847600000000    -9.225131   -16.435614    -0.930367  # Ow spce
   2700     635   10   0.423800000000    -9.800000   -15.712831    -0.546817  # Hw spce
   2701     636   10   0.423800000000     2.540410     0.605764   -18.799915  # Hw spce
   2702     636   11  -0.847600000000     3.350278     0.880172   -18.281443  # Ow spce
   2703     636   10   0.423800000000     4.118610     0.288510   -18.525578  # Hw spce
   2704     637   10   0.423800000000     2.140031     2.046583    -4.258191  # Hw spce
   2705     637   11  -0.847600000000     2.793764     2.119147    -3.504953  # Ow spce
   2706     637   10   0.423800000000     3.708797     2.285145    -3.872592  # Hw spce
   2707     638   10   0.423800000000     0.591023    -0.232116    -3.332795  # Hw spce
   2708     638   11  -0.847600000000     0.653057    -1.205518    -3.553341  # Ow spce
   2709     638   10   0.423800000000    -0.180541    -1.494390    -4.024155  # Hw spce
   2710     639   10   0.423800000000     8.404296     8.573447    18.367005  # Hw spce
   2711     639   11  -0.847600000000     9.400324     8.524634    18.292540  # Ow spce
   2712     639   10   0.423800000000     9.688296     8.909835    17.415789  # Hw spce
   2713     640   10   0.423800000000     7.620105     9.853156    16.316423  # Hw spce
   2714     640   11  -0.847600000000     7.777395    10.181168    15.384936  # Ow spce
   2715     640   10   0.423800000000     7.849278     9.400374    14.764298  # Hw spce
   2716     641   10   0.423800000000    -6.335150    -4.325674    -3.495849  # Hw spce
   2717     641   11  -0.847600000000    -5.699707    -4.258496    -2.726629  # Ow spce
   2718     641   10   0.423800000000    -6.097707    -4.705468    -1.925497  # Hw spce
   2719     642   10   0.423800000000     9.800046    12.777270   -21.919031  # Hw spce
   2720     642   11  -0.847600000000     9.489677    13.125391   -21.034450  # Ow spce
   2721     642   10   0.423800000000     8.658550    13.666589   -21.162245  # Hw spce
   2722     643   10   0.423800000000    -2.121534     5.284635    11.743560  # Hw spce
   2723     643   11  -0.847600000000    -2.129061     4.404438    11.269010  # Ow spce
   2724     643   10   0.423800000000    -2.394110     4.542524    10.314714  # Hw spce
   2725     644   10   0.423800000000     4.219594   -16.658186   -18.799497  # Hw spce
   2726     644   11  -0.847600000000     5.034676   -17.003173   -18.334067  # Ow spce
   2727     644   10   0.423800000000     4.988119   -18.000372   -18.275539  # Hw spce
   2728     645   10   0.423800000000     6.744254    -8.540999    19.114599  # Hw spce
   2729     645   11  -0.847600000000     7.621781    -8.138129    19.374678  # Ow spce
   2730     645   10   0.423800000000     8.301020    -8.333618    18.667275  # Hw spce
   2731     646   10   0.423800000000     5.603840   -12.202355    -9.660217  # Hw spce
   2732     646   11  -0.847600000000     6.593351   -12.058292    -9.649529  # Ow spce
   2733     646   10   0.423800000000     6.921924   -11.932027   -10.585530  # Hw spce
   2734     647   10   0.423800000000     1.932939    14.497079    -9.361044  # Hw spce
   2735     647   11  -0.847600000000     1.507924    15.398898    -9.439053  # Ow spce
   2736     647   10   0.423800000000     1.251736    15.565396   -10.391233  # Hw spce
   2737     648   10   0.423800000000    -6.890873     3.202906    -5.978238  # Hw spce
   2738     648   11  -0.847600000000    -6.867724     2.653680    -6.813591  # Ow spce
   2739     648   10   0.423800000000    -5.937901     2.645579    -7.181506  # Hw spce
   2740     649   10   0.423800000000    -3.478639     5.789464     1.421798  # Hw spce
   2741     649   11  -0.847600000000    -3.492028     4.796055     1.535637  # Ow spce
   2742     649   10   0.423800000000    -2.611564     4.490174     1.897880  # Hw spce
   2743     650   10   0.423800000000    -7.271570    16.156240   -21.919797  # Hw spce
   2744     650   11  -0.847600000000    -6.760155    16.830445   -22.452621  # Ow spce
   2745     650   10   0.423800000000    -7.044000    17.751325   -22.185391  # Hw spce
   2746     651   10   0.423800000000     9.601890    10.232191    -9.899997  # Hw spce
   2747     651   11  -0.847600000000     9.800010    10.458627    -8.946333  # Ow spce
   2748     651   10   0.423800000000     9.462735    11.378278    -8.745117  # Hw spce
   2749     652   10   0.423800000000     5.418771     2.559127   -14.039078  # Hw spce
   2750     652   11  -0.847600000000     4.602459     3.021947   -14.384668  # Ow spce
   2751     652   10   0.423800000000     4.815864     3.981531   -14.568130  # Hw spce
   2752     653   10   0.423800000000    -6.140017    16.569830    -4.096258  # Hw spce
   2753     653   11  -0.847600000000    -6.734081    17.279024    -3.716610  # Ow spce
   2754     653   10   0.423800000000    -6.869037    17.999884    -4.396424  # Hw spce
   2755     654   10   0.423800000000    -3.879260   -15.488214    11.211687  # Hw spce
   2756     654   11  -0.847600000000    -3.080680   -15.905086    10.777536  # Ow spce
   2757     654   10   0.423800000000    -2.957358   -15.517147     9.864139  # Hw spce
   2758     655   10   0.423800000000     7.426387   -14.745559    -5.282997  # Hw spce
   2759     655   11  -0.847600000000     7.258035   -15.086854    -6.207753  # Ow spce
   2760     655   10   0.423800000000     6.272634   -15.134660    -6.371151  # Hw spce
   2761     656   10   0.423800000000     3.769743     7.711807    10.596650  # Hw spce
   2762     656   11  -0.847600000000     2.911732     8.186602    10.400725  # Ow spce
   2763     656   10   0.423800000000     3.066773     9.174416    10.414350  # Hw spce
   2764     657   10   0.423800000000     9.800000    -4.773422    17.205048  # Hw spce
   2765     657   11  -0.847600000000     9.227059    -5.417197    17.712288  # Ow spce
   2766     657   10   0.423800000000     9.800000    -6.139138    18.100283  # Hw spce
   2767     658   10   0.423800000000    -5.322295   -15.289289     2.382530  # Hw spce
   2768     658   11  -0.847600000000    -5.349133   -14.325690     2.116529  # Ow spce
   2769     658   10   0.423800000000    -6.298562   -14.045155     1.975518  # Hw spce
   2770     659   10   0.423800000000    -5.673958    13.512649   -15.762891  # Hw spce
   2771     659   11  -0.847600000000    -5.679493    12.514058   -15.815670  # Ow spce
   2772     659   10   0.423800000000    -6.581185    12.171339   -15.552051  # Hw spce
   2773     660   10   0.423800000000    -5.849009    -8.837271    20.608581  # Hw spce
   2774     660   11  -0.847600000000    -5.790241    -9.296856    19.722394  # Ow spce
   2775     660   10   0.423800000000    -4.831508    -9.479677    19.504665  # Hw spce
   2776     661   10   0.423800000000     4.115893    -3.641908    -2.813925  # Hw spce
   2777     661   11  -0.847600000000     4.609352    -4.482404    -2.590174  # Ow spce
   2778     661   10   0.423800000000     3.959916    -5.238358    -2.507911  # Hw spce
   2779     662   10   0.423800000000    -7.487575    -3.251794   -23.491456  # Hw spce
   2780     662   11  -0.847600000000    -8.292934    -3.657805   -23.059540  # Ow spce
   2781     662   10   0.423800000000    -9.119578    -3.307626   -23.500033  # Hw spce
   2782     663   10   0.423800000000     9.768689     9.637551    10.213288  # Hw spce
   2783     663   11  -0.847600000000     9.579222     9.309314     9.287889  # Ow spce
   2784     663   10   0.423800000000     9.799792     8.335793     9.227852  # Hw spce
   2785     664   10   0.423800000000    -2.434864   -11.557543   -10.953563  # Hw spce
   2786     664   11  -0.847600000000    -2.544325   -10.565902   -11.021881  # Ow spce
   2787     664   10   0.423800000000    -3.517448   -10.340421   -11.068675  # Hw spce
   2788     665   10   0.423800000000     5.354990     9.547640    14.681610  # Hw spce
   2789     665   11  -0.847600000000     4.934432     8.640425    14.691198  # Ow spce
   2790     665   10   0.423800000000     3.938890     8.734583    14.696646  # Hw spce
   2791     666   10   0.423800000000    -4.496518     3.433607    -3.961816  # Hw spce
   2792     666   11  -0.847600000000    -4.471636     3.163935    -2.999185  # Ow spce
   2793     666   10   0.423800000000    -4.802086     3.918980    -2.432872  # Hw spce
   2794     667   10   0.423800000000    -0.757723   -13.943473    -9.512374  # Hw spce
   2795     667   11  -0.847600000000    -0.850804   -14.938674    -9.482200  # Ow spce
   2796     667   10   0.423800000000     0.056786   -15.357664    -9.455237  # Hw spce
   2797     668   10   0.423800000000    -3.972951    16.634386     1.209797  # Hw spce
   2798     668   11  -0.847600000000    -4.906283    16.989850     1.260152  # Ow spce
   2799     668   10   0.423800000000    -4.879296    17.985018     1.354559  # Hw spce
   2800     669   10   0.423800000000     9.436367    -2.064219   -16.840793  # Hw spce
   2801     669   11  -0.847600000000     9.800119    -2.950203   -17.128397  # Ow spce
   2802     669   10   0.423800000000     9.044498    -3.587420   -17.280022  # Hw spce
   2803     670   10   0.423800000000    -3.745615    -1.008917    22.071146  # Hw spce
   2804     670   11  -0.847600000000    -4.019360    -1.030814    21.109593  # Ow spce
   2805     670   10   0.423800000000    -3.718246    -1.890428    20.696804  # Hw spce
   2806     671   10   0.423800000000     0.292137     6.312525     0.393432  # Hw spce
   2807     671   11  -0.847600000000    -0.055250     5.537134    -0.133911  # Ow spce
   2808     671   10   0.423800000000    -0.967996     5.293281     0.193854  # Hw spce
   2809     672   10   0.423800000000    -4.617407    -0.087501    -0.941547  # Hw spce
   2810     672   11  -0.847600000000    -5.485323     0.408381    -0.912885  # Ow spce
   2811     672   10   0.423800000000    -5.445970     1.185710    -1.540747  # Hw spce
   2812     673   10   0.423800000000     6.193475     0.105234    23.500000  # Hw spce
   2813     673   11  -0.847600000000     5.564605     0.882293    23.473521  # Ow spce
   2814     673   10   0.423800000000     6.082128     1.725010    23.325206  # Hw spce
   2815     674   10   0.423800000000    -1.801422    11.161435    19.148933  # Hw spce
   2816     674   11  -0.847600000000    -1.979295    10.650357    18.308005  # Ow spce
   2817     674   10   0.423800000000    -1.194388    10.066548    18.100430  # Hw spce
   2818     675   10   0.423800000000    -2.097168    -3.788140     7.596730  # Hw spce
   2819     675   11  -0.847600000000    -2.106532    -3.093164     8.315702  # Ow spce
   2820     675   10   0.423800000000    -1.939564    -3.527177     9.201000  # Hw spce
   2821     676   10   0.423800000000     7.058136    -6.167965   -15.901019  # Hw spce
   2822     676   11  -0.847600000000     7.271754    -7.137671   -15.782535  # Ow spce
   2823     676   10   0.423800000000     7.804447    -7.261760   -14.945373  # Hw spce
   2824     677   10   0.423800000000    -8.857620    -6.951873   -23.499431  # Hw spce
   2825     677   11  -0.847600000000    -9.799900    -6.627352   -23.417002  # Ow spce
   2826     677   10   0.423800000000    -9.799319    -5.679608   -23.097970  # Hw spce
   2827     678   10   0.423800000000    -9.634673    -0.698060   -15.974206  # Hw spce
   2828     678   11  -0.847600000000    -9.022162    -0.284767   -15.300397  # Ow spce
   2829     678   10   0.423800000000    -9.410187    -0.395034   -14.385368  # Hw spce
   2830     679   10   0.423800000000    -7.667066     1.706593    -8.984722  # Hw spce
   2831     679   11  -0.847600000000    -6.847396     1.283565    -9.370971  # Ow spce
   2832     679   10   0.423800000000    -6.758904     0.349998    -9.023665  # Hw spce
   2833     680   10   0.423800000000     7.109369     1.509253     7.423438  # Hw spce
   2834     680   11  -0.847600000000     7.035274     1.421768     6.430031  # Ow spce
   2835     680   10   0.423800000000     6.136592     1.744579     6.133107  # Hw spce
   2836     681   10   0.423800000000    -0.792216   -13.682596   -18.354667  # Hw spce
   2837     681   11  -0.847600000000    -0.786194   -13.374837   -17.403222  # Ow spce
   2838     681   10   0.423800000000    -1.707489   -13.089060   -17.139506  # Hw spce
   2839     682   10   0.423800000000     1.336615   -12.503474    19.551364  # Hw spce
   2840     682   11  -0.847600000000     2.144100   -12.819636    19.053360  # Ow spce
   2841     682   10   0.423800000000     2.060445   -12.568551    18.089017  # Hw spce
   2842     683   10   0.423800000000     4.439057   -15.598952    13.832609  # Hw spce
   2843     683   11  -0.847600000000     5.268976   -15.641920    13.276382  # Ow spce
   2844     683   10   0.423800000000     6.058612   -15.390015    13.835861  # Hw spce
   2845     684   10   0.423800000000     5.067409    -6.373196    11.256382  # Hw spce
   2846     684   11  -0.847600000000     4.161371    -6.551533    11.640165  # Ow spce
   2847     684   10   0.423800000000     3.488370    -5.961662    11.193934  # Hw spce
   2848     685   10   0.423800000000    -0.818857    12.696998    21.431968  # Hw spce
   2849     685   11  -0.847600000000    -1.731062    12.370406    21.679394  # Ow spce
   2850     685   10   0.423800000000    -1.691507    11.911977    22.567243  # Hw spce
   2851     686   10   0.423800000000    -7.418457    -4.531704    16.691988  # Hw spce
   2852     686   11  -0.847600000000    -7.276470    -5.347924    17.252010  # Ow spce
   2853     686   10   0.423800000000    -6.374348    -5.732963    17.057280  # Hw spce
   2854     687   10   0.423800000000    -5.648364    -4.444849    -6.451802  # Hw spce
   2855     687   11  -0.847600000000    -5.392249    -4.919615    -7.293825  # Ow spce
   2856     687   10   0.423800000000    -6.170764    -4.928635    -7.921385  # Hw spce
   2857     688   10   0.423800000000     6.871963    17.999322   -23.028555  # Hw spce
   2858     688   11  -0.847600000000     6.779585    17.042906   -22.751546  # Ow spce
   2859     688   10   0.423800000000     6.377118    16.516383   -23.500407  # Hw spce
   2860     689   10   0.423800000000     9.800004    15.115218     0.366443  # Hw spce
   2861     689   11  -0.847600000000     9.225541    14.304420     0.478687  # Ow spce
   2862     689   10   0.423800000000     9.799998    13.517509     0.704008  # Hw spce
   2863     690   10   0.423800000000    -1.193448     4.357784    22.967075  # Hw spce
   2864     690   11  -0.847600000000    -0.962188     5.171731    23.500000  # Ow spce
   2865     690   10   0.423800000000    -1.633887     5.890237    23.319531  # Hw spce
   2866     691   10   0.423800000000    -6.061844    18.000000    18.562571  # Hw spce
   2867     691   11  -0.847600000000    -6.859256    17.397168    18.535595  # Ow spce
   2868     691   10   0.423800000000    -6.808905    16.813932    17.724855  # Hw spce
   2869     692   10   0.423800000000     7.225145    -9.868955   -14.553889  # Hw spce
   2870     692   11  -0.847600000000     6.607131    -9.917089   -15.338581  # Ow spce
   2871     692   10   0.423800000000     6.914383   -10.636777   -15.961192  # Hw spce
   2872     693   10   0.423800000000     0.031457    -5.728371   -22.469266  # Hw spce
   2873     693   11  -0.847600000000     0.264207    -6.002035   -21.536027  # Ow spce
   2874     693   10   0.423800000000    -0.034368    -5.293497   -20.896632  # Hw spce
   2875     694   10   0.423800000000    -4.254273    10.254361   -14.086830  # Hw spce
   2876     694   11  -0.847600000000    -5.192226    10.563765   -13.930262  # Ow spce
   2877     694   10   0.423800000000    -5.381659    10.569916   -12.948388  # Hw spce
   2878     695   10   0.423800000000     6.153284     0.817203    20.800321  # Hw spce
   2879     695   11  -0.847600000000     5.466069     0.090763    20.795925  # Ow spce
   2880     695   10   0.423800000000     4.554612     0.493671    20.879056  # Hw spce
   2881     696   10   0.423800000000     1.013062    -6.255771   -18.729496  # Hw spce
   2882     696   11  -0.847600000000     1.101505    -5.261480   -18.669801  # Ow spce
   2883     696   10   0.423800000000     0.527251    -4.919841   -17.925815  # Hw spce
   2884     697   10   0.423800000000     6.880666   -17.999175   -10.649765  # Hw spce
   2885     697   11  -0.847600000000     5.904778   -17.780908   -10.651097  # Ow spce
   2886     697   10   0.423800000000     5.785287   -16.788073   -10.651522  # Hw spce
   2887     698   10   0.423800000000     1.972631    -0.954986   -10.818892  # Hw spce
   2888     698   11  -0.847600000000     2.018359    -0.503166    -9.927956  # Ow spce
   2889     698   10   0.423800000000     2.694742    -0.965124    -9.354284  # Hw spce
   2890     699   10   0.423800000000    -1.009385     2.166850   -22.112616  # Hw spce
   2891     699   11  -0.847600000000    -1.732092     2.223017   -21.423748  # Ow spce
   2892     699   10   0.423800000000    -1.745219     1.380664   -20.884982  # Hw spce
   2893     700   10   0.423800000000    -6.761192     2.701499     0.387089  # Hw spce
   2894     700   11  -0.847600000000    -6.477552     3.496399    -0.149273  # Ow spce
   2895     700   10   0.423800000000    -6.108394     4.196447     0.462000  # Hw spce
   2896     701   10   0.423800000000     8.212279   -15.852413   -16.028200  # Hw spce
   2897     701   11  -0.847600000000     8.823849   -15.069199   -16.140264  # Ow spce
   2898     701   10   0.423800000000     9.752903   -15.394330   -16.316754  # Hw spce
   2899     702   10   0.423800000000     4.531690    18.000383   -10.959305  # Hw spce
   2900     702   11  -0.847600000000     4.003908    17.525950   -11.663834  # Ow spce
   2901     702   10   0.423800000000     4.112303    18.000223   -12.537513  # Hw spce
   2902     703   10   0.423800000000     2.829884    -5.690610   -13.613471  # Hw spce
   2903     703   11  -0.847600000000     3.099502    -5.538476   -12.662598  # Ow spce
   2904     703   10   0.423800000000     3.580146    -4.664727   -12.588145  # Hw spce
   2905     704   10   0.423800000000     9.800000   -17.342557     0.402035  # Hw spce
   2906     704   11  -0.847600000000     9.225057   -16.595491     0.068369  # Ow spce
   2907     704   10   0.423800000000     9.800000   -15.897579    -0.358666  # Hw spce
   2908     705   10   0.423800000000    -6.532246   -17.204238     3.440425  # Hw spce
   2909     705   11  -0.847600000000    -6.512294   -17.102784     4.435065  # Ow spce
   2910     705   10   0.423800000000    -6.389453   -18.000000     4.859227  # Hw spce
   2911     706   10   0.423800000000     0.149924    -9.033075    19.687964  # Hw spce
   2912     706   11  -0.847600000000     0.144867    -9.916490    20.156529  # Ow spce
   2913     706   10   0.423800000000    -0.349082    -9.831967    21.021902  # Hw spce
   2914     707   10   0.423800000000    -7.047778    18.000000    11.313918  # Hw spce
   2915     707   11  -0.847600000000    -6.561256    17.998797    12.187586  # Ow spce
   2916     707   10   0.423800000000    -7.004387    17.358477    12.814982  # Hw spce
   2917     708   10   0.423800000000     9.771549    12.259891     8.119723  # Hw spce
   2918     708   11  -0.847600000000     9.798311    12.778618     7.265202  # Ow spce
   2919     708   10   0.423800000000     8.865137    12.987607     6.972783  # Hw spce
   2920     709   10   0.423800000000     4.384503    17.999998     3.656004  # Hw spce
   2921     709   11  -0.847600000000     5.135739    17.423501     3.977402  # Ow spce
   2922     709   10   0.423800000000     5.985595    17.950500     3.973307  # Hw spce
   2923     710   10   0.423800000000    -7.164676    -0.229914    -3.467332  # Hw spce
   2924     710   11  -0.847600000000    -6.981227    -0.703230    -4.328911  # Ow spce
   2925     710   10   0.423800000000    -6.443650    -1.526980    -4.148778  # Hw spce
   2926     711   10   0.423800000000     1.025051    -0.915891   -23.497934  # Hw spce
   2927     711   11  -0.847600000000     0.362412    -0.186448   -23.328163  # Ow spce
   2928     711   10   0.423800000000     0.605044     0.294868   -22.485867  # Hw spce
   2929     712   10   0.423800000000     6.685827    -4.242075    12.253276  # Hw spce
   2930     712   11  -0.847600000000     6.436403    -4.207995    13.221071  # Ow spce
   2931     712   10   0.423800000000     5.948908    -5.045087    13.469314  # Hw spce
   2932     713   10   0.423800000000     7.528363   -14.350275     8.862775  # Hw spce
   2933     713   11  -0.847600000000     6.913429   -14.613829     8.119541  # Ow spce
   2934     713   10   0.423800000000     7.403164   -14.566148     7.248975  # Hw spce
   2935     714   10   0.423800000000    -7.251738    15.717210     1.923347  # Hw spce
   2936     714   11  -0.847600000000    -7.695077    16.550998     2.252357  # Ow spce
   2937     714   10   0.423800000000    -7.100436    17.005144     2.915798  # Hw spce
   2938     715   10   0.423800000000    -4.283936    15.999475     5.143513  # Hw spce
   2939     715   11  -0.847600000000    -4.726653    16.199773     4.269510  # Ow spce
   2940     715   10   0.423800000000    -4.476103    17.121155     3.972389  # Hw spce
   2941     716   10   0.423800000000     3.350504     3.578647     6.591326  # Hw spce
   2942     716   11  -0.847600000000     3.733201     2.952740     5.911779  # Ow spce
   2943     716   10   0.423800000000     3.355187     2.037526     6.051375  # Hw spce
   2944     717   10   0.423800000000    -3.705897    -3.273247   -17.917657  # Hw spce
   2945     717   11  -0.847600000000    -4.519513    -2.695886   -17.986085  # Ow spce
   2946     717   10   0.423800000000    -4.248442    -1.766110   -18.235158  # Hw spce
   2947     718   10   0.423800000000    -3.591795    -7.253929    -9.025380  # Hw spce
   2948     718   11  -0.847600000000    -4.098509    -8.030381    -9.400031  # Ow spce
   2949     718   10   0.423800000000    -5.037022    -7.749991    -9.601458  # Hw spce
   2950     719   10   0.423800000000     5.073608    13.229292    12.039499  # Hw spce
   2951     719   11  -0.847600000000     5.709274    13.360469    11.278762  # Ow spce
   2952     719   10   0.423800000000     6.645722    13.215122    11.598044  # Hw spce
   2953     720   10   0.423800000000    -3.888382     0.836062     1.321345  # Hw spce
   2954     720   11  -0.847600000000    -3.683386     1.529344     2.012240  # Ow spce
   2955     720   10   0.423800000000    -4.129104     2.389385     1.763915  # Hw spce
   2956     721   10   0.423800000000    -9.799424    15.847425    17.328157  # Hw spce
   2957     721   11  -0.847600000000    -9.593243    14.869232    17.303092  # Ow spce
   2958     721   10   0.423800000000    -9.799999    14.462112    18.192758  # Hw spce
   2959     722   10   0.423800000000     1.307340    14.720695   -15.972626  # Hw spce
   2960     722   11  -0.847600000000     0.496698    14.221771   -15.666141  # Ow spce
   2961     722   10   0.423800000000     0.669345    13.827734   -14.763408  # Hw spce
   2962     723   10   0.423800000000     6.920750     3.728634   -12.418487  # Hw spce
   2963     723   11  -0.847600000000     7.076765     3.685889   -11.431658  # Ow spce
   2964     723   10   0.423800000000     6.563202     2.919440   -11.045902  # Hw spce
   2965     724   10   0.423800000000     5.524457     3.647856     1.179755  # Hw spce
   2966     724   11  -0.847600000000     6.082054     4.419102     0.872729  # Ow spce
   2967     724   10   0.423800000000     6.291477     4.312908    -0.099313  # Hw spce
   2968     725   10   0.423800000000     4.626663     4.554484    20.289544  # Hw spce
   2969     725   11  -0.847600000000     4.908511     4.025875    21.090253  # Ow spce
   2970     725   10   0.423800000000     4.574849     3.087116    21.004227  # Hw spce
   2971     726   10   0.423800000000     0.857605   -10.900181    15.778762  # Hw spce
   2972     726   11  -0.847600000000     0.310622   -10.135596    15.437853  # Ow spce
   2973     726   10   0.423800000000    -0.660605   -10.339911    15.560219  # Hw spce
   2974     727   10   0.423800000000    -4.035667    17.848332   -16.029492  # Hw spce
   2975     727   11  -0.847600000000    -3.508487    17.897758   -15.181177  # Ow spce
   2976     727   10   0.423800000000    -2.537547    17.999908   -15.397602  # Hw spce
   2977     728   10   0.423800000000     3.433760    11.518672    12.836167  # Hw spce
   2978     728   11  -0.847600000000     3.189500    10.767696    13.449660  # Ow spce
   2979     728   10   0.423800000000     2.741380    10.042525    12.926865  # Hw spce
   2980     729   10   0.423800000000     1.868677   -13.167177    12.229249  # Hw spce
   2981     729   11  -0.847600000000     1.968585   -12.189079    12.411849  # Ow spce
   2982     729   10   0.423800000000     1.748147   -12.004595    13.369645  # Hw spce
   2983     730   10   0.423800000000     9.759487   -14.665069   -18.707956  # Hw spce
   2984     730   11  -0.847600000000     9.251598   -13.803671   -18.714605  # Ow spce
   2985     730   10   0.423800000000     9.722833   -13.143396   -19.299391  # Hw spce
   2986     731   10   0.423800000000     3.153236     2.865593    15.777314  # Hw spce
   2987     731   11  -0.847600000000     2.839474     2.605896    14.864018  # Ow spce
   2988     731   10   0.423800000000     3.545478     2.061202    14.411398  # Hw spce
   2989     732   10   0.423800000000    -9.350127    -1.791937    21.342188  # Hw spce
   2990     732   11  -0.847600000000    -9.800000    -2.579300    21.763702  # Ow spce
   2991     732   10   0.423800000000    -9.656495    -2.554974    22.753052  # Hw spce
   2992     733   10   0.423800000000    -9.476406   -13.959915   -16.417915  # Hw spce
   2993     733   11  -0.847600000000    -9.131405   -13.023858   -16.348836  # Ow spce
   2994     733   10   0.423800000000    -9.699184   -12.505715   -15.709183  # Hw spce
   2995     734   10   0.423800000000     8.433596    18.000000    -5.989096  # Hw spce
   2996     734   11  -0.847600000000     8.565602    17.961410    -4.998598  # Ow spce
   2997     734   10   0.423800000000     9.344652    17.370544    -4.788934  # Hw spce
   2998     735   10   0.423800000000    -8.953850    14.902105    23.499998  # Hw spce
   2999     735   11  -0.847600000000    -8.883451    15.106894    22.523727  # Ow spce
   3000     735   10   0.423800000000    -9.799999    15.159813    22.127321  # Hw spce
   3001     736   10   0.423800000000    -2.195856     1.753062    16.446751  # Hw spce
   3002     736   11  -0.847600000000    -1.988170     1.648791    17.419373  # Ow spce
   3003     736   10   0.423800000000    -1.305493     0.927932    17.539014  # Hw spce
   3004     737   10   0.423800000000     5.241971   -17.999137    -6.582028  # Hw spce
   3005     737   11  -0.847600000000     6.121592   -17.865628    -7.038584  # Ow spce
   3006     737   10   0.423800000000     6.008912   -17.995438    -8.023699  # Hw spce
   3007     738   10   0.423800000000    -2.610127   -14.914112    20.792161  # Hw spce
   3008     738   11  -0.847600000000    -2.206370   -14.892050    19.877561  # Ow spce
   3009     738   10   0.423800000000    -1.211875   -14.820256    19.953884  # Hw spce
   3010     739   10   0.423800000000     5.329672   -12.391868   -23.499826  # Hw spce
   3011     739   11  -0.847600000000     4.436817   -12.830122   -23.396178  # Ow spce
   3012     739   10   0.423800000000     4.072841   -12.633809   -22.485693  # Hw spce
   3013     740   10   0.423800000000     3.634759    13.094184    19.880831  # Hw spce
   3014     740   11  -0.847600000000     3.033005    13.366437    19.129986  # Ow spce
   3015     740   10   0.423800000000     2.970693    14.363972    19.097709  # Hw spce
   3016     741   10   0.423800000000    -4.823089     4.169500     4.485898  # Hw spce
   3017     741   11  -0.847600000000    -3.883505     4.480274     4.629428  # Ow spce
   3018     741   10   0.423800000000    -3.865709     5.160610     5.362113  # Hw spce
   3019     742   10   0.423800000000     3.725749    -2.760637   -10.755851  # Hw spce
   3020     742   11  -0.847600000000     4.268139    -3.543963   -10.452183  # Ow spce
   3021     742   10   0.423800000000     4.503467    -3.432247    -9.486710  # Hw spce
   3022     743   10   0.423800000000    -9.799985    -5.801231   -18.175903  # Hw spce
   3023     743   11  -0.847600000000    -9.139013    -5.078775   -17.972990  # Ow spce
   3024     743   10   0.423800000000    -8.380040    -5.460041   -17.445170  # Hw spce
   3025     744   10   0.423800000000     5.985986    -0.939456    -7.537290  # Hw spce
   3026     744   11  -0.847600000000     6.928949    -0.935477    -7.870166  # Ow spce
   3027     744   10   0.423800000000     7.233735     0.008487    -7.996803  # Hw spce
   3028     745   10   0.423800000000     1.633612    -2.068339    13.430510  # Hw spce
   3029     745   11  -0.847600000000     1.596251    -2.897845    13.987757  # Ow spce
   3030     745   10   0.423800000000     1.635664    -2.650990    14.956007  # Hw spce
   3031     746   10   0.423800000000    -5.954614    16.345572   -15.473291  # Hw spce
   3032     746   11  -0.847600000000    -5.545329    16.333726   -14.560962  # Ow spce
   3033     746   10   0.423800000000    -4.902986    15.570267   -14.493698  # Hw spce
   3034     747   10   0.423800000000    -2.535449    14.338977   -22.962917  # Hw spce
   3035     747   11  -0.847600000000    -2.918548    15.145670   -23.412897  # Ow spce
   3036     747   10   0.423800000000    -2.210579    15.846533   -23.499909  # Hw spce
   3037     748   10   0.423800000000     2.524134     7.069968    18.984317  # Hw spce
   3038     748   11  -0.847600000000     2.294305     7.826651    18.372263  # Ow spce
   3039     748   10   0.423800000000     2.570086     8.691022    18.792747  # Hw spce
   3040     749   10   0.423800000000    -4.882486    -2.121124     1.622437  # Hw spce
   3041     749   11  -0.847600000000    -5.072898    -2.921895     1.054537  # Ow spce
   3042     749   10   0.423800000000    -5.134510    -2.643692     0.095992  # Hw spce
   3043     750   10   0.423800000000     2.222583     6.144166   -17.287599  # Hw spce
   3044     750   11  -0.847600000000     2.669963     5.580380   -17.981859  # Ow spce
   3045     750   10   0.423800000000     2.673853     6.067618   -18.855120  # Hw spce
   3046     751   10   0.423800000000     0.338084     2.686489   -10.528898  # Hw spce
   3047     751   11  -0.847600000000     0.792258     1.795586   -10.533224  # Ow spce
   3048     751   10   0.423800000000     0.198457     1.120871   -10.971585  # Hw spce
   3049     752   10   0.423800000000    -9.800000   -14.134823    14.381667  # Hw spce
   3050     752   11  -0.847600000000    -9.680728   -13.283711    13.870412  # Ow spce
   3051     752   10   0.423800000000    -9.677067   -12.511183    14.505382  # Hw spce
   3052     753   10   0.423800000000    -5.514005   -11.839159    19.970542  # Hw spce
   3053     753   11  -0.847600000000    -4.543887   -11.950434    19.754930  # Ow spce
   3054     753   10   0.423800000000    -4.221940   -12.827907    20.110446  # Hw spce
   3055     754   10   0.423800000000     7.342798    -9.844900    13.900846  # Hw spce
   3056     754   11  -0.847600000000     7.269719   -10.806289    13.635532  # Ow spce
   3057     754   10   0.423800000000     6.900622   -11.335729    14.399377  # Hw spce
   3058     755   10   0.423800000000     2.645020    -8.178446   -13.820146  # Hw spce
   3059     755   11  -0.847600000000     2.316996    -9.120380   -13.748321  # Ow spce
   3060     755   10   0.423800000000     1.320406    -9.133395   -13.829800  # Hw spce
   3061     756   10   0.423800000000     1.627714    -7.530202    21.365311  # Hw spce
   3062     756   11  -0.847600000000     2.170453    -6.708544    21.191204  # Ow spce
   3063     756   10   0.423800000000     1.563065    -5.954926    20.939927  # Hw spce
   3064     757   10   0.423800000000    -1.431963    -2.827261   -18.855910  # Hw spce
   3065     757   11  -0.847600000000    -0.943819    -3.485099   -19.429463  # Ow spce
   3066     757   10   0.423800000000    -0.037381    -3.125728   -19.651324  # Hw spce
   3067     758   10   0.423800000000    -9.788013    14.507427     2.813159  # Hw spce
   3068     758   11  -0.847600000000    -9.800000    13.616812     2.358559  # Ow spce
   3069     758   10   0.423800000000    -8.997191    13.533080     1.768231  # Hw spce
   3070     759   10   0.423800000000     9.800000    15.667863     6.388509  # Hw spce
   3071     759   11  -0.847600000000     8.944154    15.708315     6.904156  # Ow spce
   3072     759   10   0.423800000000     9.134274    15.573807     7.876659  # Hw spce
   3073     760   10   0.423800000000     9.799902    -5.568291   -14.537233  # Hw spce
   3074     760   11  -0.847600000000     9.384964    -5.385280   -15.428486  # Ow spce
   3075     760   10   0.423800000000     9.798864    -5.980372   -16.117364  # Hw spce
   3076     761   10   0.423800000000    -9.799948     7.778227   -20.063469  # Hw spce
   3077     761   11  -0.847600000000    -9.020868     8.388864   -19.921496  # Ow spce
   3078     761   10   0.423800000000    -9.278162     9.321657   -20.173879  # Hw spce
   3079     762   10   0.423800000000    -9.800072   -10.301793   -14.288715  # Hw spce
   3080     762   11  -0.847600000000    -9.269610   -10.102461   -13.464775  # Ow spce
   3081     762   10   0.423800000000    -9.799710   -10.359556   -12.656756  # Hw spce
   3082     763   10   0.423800000000     3.442736     4.158053   -23.499794  # Hw spce
   3083     763   11  -0.847600000000     3.094686     3.326204   -23.067488  # Ow spce
   3084     763   10   0.423800000000     2.133293     3.200541   -23.312298  # Hw spce
   3085     764   10   0.423800000000    -6.152706    12.707713    23.446729  # Hw spce
   3086     764   11  -0.847600000000    -6.732453    13.521930    23.477472  # Ow spce
   3087     764   10   0.423800000000    -6.157517    14.339818    23.500000  # Hw spce
   3088     765   10   0.423800000000    -1.623994    18.000000    17.394475  # Hw spce
   3089     765   11  -0.847600000000    -2.167982    17.695570    18.176395  # Ow spce
   3090     765   10   0.423800000000    -1.727047    16.905203    18.601714  # Hw spce
   3091     766   10   0.423800000000    -2.299277     1.814235   -12.064834  # Hw spce
   3092     766   11  -0.847600000000    -2.128078     2.771827   -12.296585  # Ow spce
   3093     766   10   0.423800000000    -1.398352     2.824457   -12.978295  # Hw spce
   3094     767   10   0.423800000000    -6.356977     7.416219   -23.499849  # Hw spce
   3095     767   11  -0.847600000000    -6.406649     8.396572   -23.308953  # Ow spce
   3096     767   10   0.423800000000    -6.204904     8.558700   -22.343027  # Hw spce
   3097     768   10   0.423800000000    -7.245913    18.000000     5.788630  # Hw spce
   3098     768   11  -0.847600000000    -6.455635    17.423058     5.995026  # Ow spce
   3099     768   10   0.423800000000    -5.677575    18.000000     6.243539  # Hw spce
   3100     769   10   0.423800000000    -7.601804   -13.918942     9.422240  # Hw spce
   3101     769   11  -0.847600000000    -6.970099   -13.154372     9.294250  # Ow spce
   3102     769   10   0.423800000000    -7.463730   -12.291892     9.405852  # Hw spce
   3103     770   10   0.423800000000     3.827114     1.044340   -15.832827  # Hw spce
   3104     770   11  -0.847600000000     4.629941     0.557322   -15.488904  # Ow spce
   3105     770   10   0.423800000000     4.336259    -0.192558   -14.896088  # Hw spce
   3106     771   10   0.423800000000     0.095593     5.026065     9.939496  # Hw spce
   3107     771   11  -0.847600000000     0.788811     4.790568    10.620664  # Ow spce
   3108     771   10   0.423800000000     1.386742     5.577406    10.773512  # Hw spce
   3109     772   10   0.423800000000     8.866800    -8.404171     9.470861  # Hw spce
   3110     772   11  -0.847600000000     9.800000    -8.762931     9.450148  # Ow spce
   3111     772   10   0.423800000000     9.772721    -9.762532     9.442762  # Hw spce
   3112     773   10   0.423800000000     7.356048    16.856297   -19.556760  # Hw spce
   3113     773   11  -0.847600000000     7.036509    17.678390   -20.027991  # Ow spce
   3114     773   10   0.423800000000     7.746284    18.000666   -20.654375  # Hw spce
   3115     774   10   0.423800000000    -3.012526   -17.327861   -23.500045  # Hw spce
   3116     774   11  -0.847600000000    -3.538713   -18.000006   -22.979135  # Ow spce
   3117     774   10   0.423800000000    -3.230769   -17.999638   -22.027731  # Hw spce
   3118     775   10   0.423800000000    -0.392505     5.924913   -14.978260  # Hw spce
   3119     775   11  -0.847600000000    -0.273901     5.069883   -14.473427  # Ow spce
   3120     775   10   0.423800000000     0.227648     4.415506   -15.039324  # Hw spce
   3121     776   10   0.423800000000    -3.621701    -7.165671   -21.586965  # Hw spce
   3122     776   11  -0.847600000000    -4.497269    -7.207528   -21.105686  # Ow spce
   3123     776   10   0.423800000000    -4.927826    -8.094344   -21.273547  # Hw spce
   3124     777   10   0.423800000000     4.225798    13.040713    16.695211  # Hw spce
   3125     777   11  -0.847600000000     4.299489    12.175821    17.191732  # Ow spce
   3126     777   10   0.423800000000     3.448991    11.659724    17.090265  # Hw spce
   3127     778   10   0.423800000000    -2.009870     7.552886    10.158094  # Hw spce
   3128     778   11  -0.847600000000    -2.798110     8.166594    10.112906  # Ow spce
   3129     778   10   0.423800000000    -2.482038     9.105783     9.978664  # Hw spce
   3130     779   10   0.423800000000     1.342197     8.601051    23.472478  # Hw spce
   3131     779   11  -0.847600000000     0.421297     8.211252    23.473002  # Ow spce
   3132     779   10   0.423800000000     0.481859     7.213088    23.473437  # Hw spce
   3133     780   10   0.423800000000    -4.526955    16.733679   -12.313086  # Hw spce
   3134     780   11  -0.847600000000    -4.241844    17.667631   -12.528600  # Ow spce
   3135     780   10   0.423800000000    -3.257358    17.683657   -12.703330  # Hw spce
   3136     781   10   0.423800000000     6.610562   -17.977169    10.788308  # Hw spce
   3137     781   11  -0.847600000000     6.482134   -16.985794    10.762211  # Ow spce
   3138     781   10   0.423800000000     7.335260   -16.546468    10.480842  # Hw spce
   3139     782   10   0.423800000000    -7.402948    -1.209228   -10.868662  # Hw spce
   3140     782   11  -0.847600000000    -7.603561    -0.475819   -11.518174  # Ow spce
   3141     782   10   0.423800000000    -8.211926    -0.820766   -12.232949  # Hw spce
   3142     783   10   0.423800000000    -0.990373   -12.814308    12.148382  # Hw spce
   3143     783   11  -0.847600000000    -1.625764   -12.834444    11.376454  # Ow spce
   3144     783   10   0.423800000000    -2.234067   -13.623088    11.465941  # Hw spce
   3145     784   10   0.423800000000    -2.988122    -3.559250     4.324172  # Hw spce
   3146     784   11  -0.847600000000    -2.794997    -3.190854     3.414784  # Ow spce
   3147     784   10   0.423800000000    -2.143923    -3.787025     2.945016  # Hw spce
   3148     785   10   0.423800000000     4.045142    -4.246606    -5.336132  # Hw spce
   3149     785   11  -0.847600000000     3.386461    -4.913802    -4.988298  # Ow spce
   3150     785   10   0.423800000000     2.661546    -5.049764    -5.663584  # Hw spce
   3151     786   10   0.423800000000     0.423530     7.984617    10.535149  # Hw spce
   3152     786   11  -0.847600000000     0.422841     8.967847    10.352780  # Ow spce
   3153     786   10   0.423800000000    -0.032537     9.144684     9.480221  # Hw spce
   3154     787   10   0.423800000000    -9.634097   -11.612686   -19.173977  # Hw spce
   3155     787   11  -0.847600000000    -9.800037   -12.474256   -18.694225  # Ow spce
   3156     787   10   0.423800000000    -9.531113   -13.238978   -19.279785  # Hw spce
   3157     788   10   0.423800000000     2.248936    16.030969   -12.635967  # Hw spce
   3158     788   11  -0.847600000000     1.415578    16.582181   -12.676940  # Ow spce
   3159     788   10   0.423800000000     1.654379    17.551821   -12.624290  # Hw spce
   3160     789   10   0.423800000000     9.747372   -12.169143    16.654976  # Hw spce
   3161     789   11  -0.847600000000     9.800000   -13.161787    16.764004  # Ow spce
   3162     789   10   0.423800000000     9.709272   -13.600573    15.870005  # Hw spce
   3163     790   10   0.423800000000     6.310940    -2.105313   -20.078171  # Hw spce
   3164     790   11  -0.847600000000     5.720842    -1.298269   -20.056618  # Ow spce
   3165     790   10   0.423800000000     4.763086    -1.585756   -20.049314  # Hw spce
   3166     791   10   0.423800000000    -4.419630     2.832286    16.072400  # Hw spce
   3167     791   11  -0.847600000000    -5.187194     3.472218    16.035881  # Ow spce
   3168     791   10   0.423800000000    -4.841976     4.398535    15.885013  # Hw spce
   3169     792   10   0.423800000000    -7.060726   -13.840608   -10.652730  # Hw spce
   3170     792   11  -0.847600000000    -7.206660   -14.232171    -9.744225  # Ow spce
   3171     792   10   0.423800000000    -6.948748   -13.562860    -9.047444  # Hw spce
   3172     793   10   0.423800000000    -5.056526    -0.905028    -7.690686  # Hw spce
   3173     793   11  -0.847600000000    -4.434809    -0.121935    -7.705954  # Ow spce
   3174     793   10   0.423800000000    -4.075767     0.000609    -8.631196  # Hw spce
   3175     794   10   0.423800000000     2.367590    -5.087790     7.130174  # Hw spce
   3176     794   11  -0.847600000000     1.735301    -5.593398     6.543172  # Ow spce
   3177     794   10   0.423800000000     0.992550    -4.989075     6.254876  # Hw spce
   3178     795   10   0.423800000000    -3.590823   -11.650276     9.954501  # Hw spce
   3179     795   11  -0.847600000000    -4.216533   -12.143705     9.350337  # Ow spce
   3180     795   10   0.423800000000    -4.071745   -13.127881     9.452483  # Hw spce
   3181     796   10   0.423800000000    -9.799949     1.725984   -17.022724  # Hw spce
   3182     796   11  -0.847600000000    -9.295580     1.128996   -17.646596  # Ow spce
   3183     796   10   0.423800000000    -9.799912     1.042434   -18.505756  # Hw spce
   3184     797   10   0.423800000000     2.075527    14.967966   -21.763395  # Hw spce
   3185     797   11  -0.847600000000     2.767588    15.405230   -22.337722  # Ow spce
   3186     797   10   0.423800000000     2.523798    15.288742   -23.300529  # Hw spce
   3187     798   10   0.423800000000    -3.770409     6.177932    -8.746556  # Hw spce
   3188     798   11  -0.847600000000    -3.665408     7.076952    -9.171688  # Ow spce
   3189     798   10   0.423800000000    -4.525960     7.581444    -9.101412  # Hw spce
   3190     799   10   0.423800000000     1.502178   -14.424202   -17.694552  # Hw spce
   3191     799   11  -0.847600000000     2.010265   -14.967844   -18.362609  # Ow spce
   3192     799   10   0.423800000000     1.386608   -15.601753   -18.820003  # Hw spce
   3193     800   10   0.423800000000     4.213190    17.999356    23.498153  # Hw spce
   3194     800   11  -0.847600000000     3.396471    17.422321    23.497602  # Ow spce
   3195     800   10   0.423800000000     2.580210    18.000000    23.499964  # Hw spce
   3196     801   10   0.423800000000    -1.492189     0.388587    20.810959  # Hw spce
   3197     801   11  -0.847600000000    -1.381377    -0.378392    20.178928  # Ow spce
   3198     801   10   0.423800000000    -2.126007    -0.370555    19.511497  # Hw spce
   3199     802   10   0.423800000000    -1.715420     7.625455   -21.140739  # Hw spce
   3200     802   11  -0.847600000000    -1.622216     6.740112   -20.685239  # Ow spce
   3201     802   10   0.423800000000    -1.192656     6.087649   -21.309555  # Hw spce
   3202     803   10   0.423800000000    -7.638165   -15.590242    11.425535  # Hw spce
   3203     803   11  -0.847600000000    -7.469264   -14.940319    12.166529  # Ow spce
   3204     803   10   0.423800000000    -7.911159   -15.265734    13.002492  # Hw spce
   3205     804   10   0.423800000000     7.574075     6.176197   -11.900757  # Hw spce
   3206     804   11  -0.847600000000     7.794714     6.545026   -12.803688  # Ow spce
   3207     804   10   0.423800000000     8.710262     6.946798   -12.784996  # Hw spce
   3208     805   10   0.423800000000    -5.614145   -18.000007   -14.270348  # Hw spce
   3209     805   11  -0.847600000000    -6.524501   -17.693232   -13.992605  # Ow spce
   3210     805   10   0.423800000000    -6.708923   -17.999519   -13.058702  # Hw spce
   3211     806   10   0.423800000000     7.533855    -3.487761    -5.418972  # Hw spce
   3212     806   11  -0.847600000000     6.554473    -3.339855    -5.556571  # Ow spce
   3213     806   10   0.423800000000     6.286524    -3.694087    -6.452519  # Hw spce
   3214     807   10   0.423800000000    -9.800007     8.132265   -23.499993  # Hw spce
   3215     807   11  -0.847600000000    -9.336265     8.630500   -22.767392  # Ow spce
   3216     807   10   0.423800000000    -9.799991     9.502761   -22.612093  # Hw spce
   3217     808   10   0.423800000000     9.799973     0.417545    20.963762  # Hw spce
   3218     808   11  -0.847600000000     9.603986     1.397795    20.990197  # Ow spce
   3219     808   10   0.423800000000     8.743179     1.578547    20.514445  # Hw spce
   3220     809   10   0.423800000000     9.799759    15.003427    15.703149  # Hw spce
   3221     809   11  -0.847600000000     9.695672    14.473496    14.861520  # Ow spce
   3222     809   10   0.423800000000     8.777114    14.079718    14.827030  # Hw spce
   3223     810   10   0.423800000000    -3.451928     0.906177   -14.131039  # Hw spce
   3224     810   11  -0.847600000000    -4.212032     1.121653   -13.518003  # Ow spce
   3225     810   10   0.423800000000    -4.366092     2.109700   -13.512602  # Hw spce
   3226     811   10   0.423800000000    -0.769062    -7.020443    20.869720  # Hw spce
   3227     811   11  -0.847600000000    -1.108769    -6.089080    21.000730  # Ow spce
   3228     811   10   0.423800000000    -2.097868    -6.112420    21.146116  # Hw spce
   3229     812   10   0.423800000000     5.757883    16.772252    -9.159823  # Hw spce
   3230     812   11  -0.847600000000     5.690165    15.840107    -9.515518  # Ow spce
   3231     812   10   0.423800000000     4.808191    15.720564    -9.971404  # Hw spce
   3232     813   10   0.423800000000     7.441217     1.433719   -20.889906  # Hw spce
   3233     813   11  -0.847600000000     7.718224     2.272895   -20.421878  # Ow spce
   3234     813   10   0.423800000000     8.701155     2.244267   -20.240141  # Hw spce
   3235     814   10   0.423800000000    -0.127801    -2.292873     2.328916  # Hw spce
   3236     814   11  -0.847600000000     0.519097    -1.951145     1.647195  # Ow spce
   3237     814   10   0.423800000000     0.270230    -1.017323     1.390211  # Hw spce
   3238     815   10   0.423800000000    -5.020814    11.704035   -19.301587  # Hw spce
   3239     815   11  -0.847600000000    -4.212797    12.267352   -19.474164  # Ow spce
   3240     815   10   0.423800000000    -3.433945    11.676986   -19.685960  # Hw spce
   3241     816   10   0.423800000000    -0.652929    -8.290632   -21.011683  # Hw spce
   3242     816   11  -0.847600000000     0.137026    -8.893249   -21.124923  # Ow spce
   3243     816   10   0.423800000000     0.751926    -8.510714   -21.814536  # Hw spce
   3244     817   10   0.423800000000    -7.142110    14.122785   -23.368353  # Hw spce
   3245     817   11  -0.847600000000    -7.115557    13.234413   -22.909997  # Ow spce
   3246     817   10   0.423800000000    -7.618328    13.289288   -22.047321  # Hw spce
   3247     818   10   0.423800000000     0.499987   -11.434645    -9.783305  # Hw spce
   3248     818   11  -0.847600000000     0.224324   -10.626050    -9.263512  # Ow spce
   3249     818   10   0.423800000000    -0.773332   -10.557902    -9.257370  # Hw spce
   3250     819   10   0.423800000000     2.244918     2.973216   -15.994416  # Hw spce
   3251     819   11  -0.847600000000     1.789716     3.374218   -16.789393  # Ow spce
   3252     819   10   0.423800000000     1.841343     2.737983   -17.559158  # Hw spce
   3253     820   10   0.423800000000    -2.707655    -0.872078     6.529102  # Hw spce
   3254     820   11  -0.847600000000    -3.073987    -1.795006     6.410757  # Ow spce
   3255     820   10   0.423800000000    -4.070085    -1.750970     6.334268  # Hw spce
   3256     821   10   0.423800000000     6.302180    16.672857    16.028237  # Hw spce
   3257     821   11  -0.847600000000     6.773979    17.024055    16.836980  # Ow spce
   3258     821   10   0.423800000000     6.580785    18.000000    16.938015  # Hw spce
   3259     822   10   0.423800000000     5.489595   -17.667203   -20.701888  # Hw spce
   3260     822   11  -0.847600000000     6.406515   -17.268401   -20.716557  # Ow spce
   3261     822   10   0.423800000000     7.087453   -17.999675   -20.756073  # Hw spce
   3262     823   10   0.423800000000     2.850140     2.841814   -20.217531  # Hw spce
   3263     823   11  -0.847600000000     2.139679     2.593546   -20.876021  # Ow spce
   3264     823   10   0.423800000000     1.385729     2.142286   -20.398609  # Hw spce
   3265     824   10   0.423800000000    -2.109938     5.385190     7.557828  # Hw spce
   3266     824   11  -0.847600000000    -1.367945     5.895975     7.123609  # Ow spce
   3267     824   10   0.423800000000    -1.012070     6.576265     7.764357  # Hw spce
   3268     825   10   0.423800000000     9.800000    -1.301881    11.533468  # Hw spce
   3269     825   11  -0.847600000000     9.295988    -1.977593    10.995523  # Ow spce
   3270     825   10   0.423800000000     9.800000    -2.177968    10.155391  # Hw spce
   3271     826   10   0.423800000000     8.949571    15.199708    10.464889  # Hw spce
   3272     826   11  -0.847600000000     9.799984    15.335134    10.973276  # Ow spce
   3273     826   10   0.423800000000     9.705373    14.947795    11.890346  # Hw spce
   3274     827   10   0.423800000000    -7.285601    -2.152943    10.467138  # Hw spce
   3275     827   11  -0.847600000000    -7.666267    -1.313648    10.855310  # Ow spce
   3276     827   10   0.423800000000    -7.025930    -0.935221    11.523713  # Hw spce
   3277     828   10   0.423800000000    -9.799994   -13.928798    17.554490  # Hw spce
   3278     828   11  -0.847600000000    -9.707259   -13.087155    17.022478  # Ow spce
   3279     828   10   0.423800000000    -9.800000   -12.297518    17.629003  # Hw spce
   3280     829   10   0.423800000000     5.986221    11.917148    15.168412  # Hw spce
   3281     829   11  -0.847600000000     5.889046    12.755746    14.632398  # Ow spce
   3282     829   10   0.423800000000     6.708836    12.892810    14.076378  # Hw spce
   3283     830   10   0.423800000000    -0.044058    -3.011985   -14.186284  # Hw spce
   3284     830   11  -0.847600000000    -0.898455    -3.243802   -13.721240  # Ow spce
   3285     830   10   0.423800000000    -1.027730    -4.235297   -13.736260  # Hw spce
   3286     831   10   0.423800000000     6.623197   -10.449094    20.906787  # Hw spce
   3287     831   11  -0.847600000000     7.003741   -11.010111    21.641937  # Ow spce
   3288     831   10   0.423800000000     7.107923   -11.952011    21.322609  # Hw spce
   3289     832   10   0.423800000000     6.280774   -15.531282    -1.764891  # Hw spce
   3290     832   11  -0.847600000000     7.083768   -14.941123    -1.848033  # Ow spce
   3291     832   10   0.423800000000     7.843653   -15.464573    -2.233487  # Hw spce
   3292     833   10   0.423800000000    -8.642323   -18.000000    14.156073  # Hw spce
   3293     833   11  -0.847600000000    -9.606447   -17.808994    14.340415  # Ow spce
   3294     833   10   0.423800000000    -9.800000   -16.848401    14.140922  # Hw spce
   3295     834   10   0.423800000000     4.916497   -17.865676    19.896882  # Hw spce
   3296     834   11  -0.847600000000     4.690287   -17.912787    20.869820  # Ow spce
   3297     834   10   0.423800000000     3.699980   -17.999978    20.977934  # Hw spce
   3298     835   10   0.423800000000     6.749823    -4.096930   -10.359692  # Hw spce
   3299     835   11  -0.847600000000     7.124222    -3.349527    -9.810863  # Ow spce
   3300     835   10   0.423800000000     7.017071    -3.562956    -8.839798  # Hw spce
   3301     836   10   0.423800000000    -2.570258    16.872119    15.373960  # Hw spce
   3302     836   11  -0.847600000000    -2.393682    16.034678    15.891177  # Ow spce
   3303     836   10   0.423800000000    -3.189828    15.817653    16.456024  # Hw spce
   3304     837   10   0.423800000000    -1.240753    -7.789421   -16.552658  # Hw spce
   3305     837   11  -0.847600000000    -0.293712    -7.479026   -16.470387  # Ow spce
   3306     837   10   0.423800000000     0.211363    -8.103988   -15.875137  # Hw spce
   3307     838   10   0.423800000000    -4.296531    16.296763    -6.251247  # Hw spce
   3308     838   11  -0.847600000000    -5.044310    16.958146    -6.309546  # Ow spce
   3309     838   10   0.423800000000    -4.667596    17.880191    -6.398529  # Hw spce
   3310     839   10   0.423800000000    -4.556514    14.791113   -17.790889  # Hw spce
   3311     839   11  -0.847600000000    -4.253646    15.440355   -17.093211  # Ow spce
   3312     839   10   0.423800000000    -3.345359    15.178999   -16.766549  # Hw spce
   3313     840   10   0.423800000000    -4.101771    -4.816297   -20.492846  # Hw spce
   3314     840   11  -0.847600000000    -5.065565    -4.797814   -20.758853  # Ow spce
   3315     840   10   0.423800000000    -5.332864    -3.859498   -20.978202  # Hw spce
   3316     841   10   0.423800000000    -8.557179     7.434028    -9.273982  # Hw spce
   3317     841   11  -0.847600000000    -8.804098     6.464994    -9.275871  # Ow spce
   3318     841   10   0.423800000000    -9.799991     6.374809    -9.283789  # Hw spce
   3319     842   10   0.423800000000     8.857415     3.847495     9.186114  # Hw spce
   3320     842   11  -0.847600000000     9.800000     4.171822     9.265775  # Ow spce
   3321     842   10   0.423800000000     9.799485     5.150041     9.473349  # Hw spce
   3322     843   10   0.423800000000    -5.713499   -16.911919    12.921850  # Hw spce
   3323     843   11  -0.847600000000    -6.289241   -17.690879    12.673372  # Ow spce
   3324     843   10   0.423800000000    -6.055536   -17.997144    11.750559  # Hw spce
   3325     844   10   0.423800000000     8.291167    -9.543376   -11.171328  # Hw spce
   3326     844   11  -0.847600000000     7.659575    -9.557320   -11.946504  # Ow spce
   3327     844   10   0.423800000000     7.677866    -8.670030   -12.407352  # Hw spce
   3328     845   10   0.423800000000    -9.799885    -7.718608   -15.818163  # Hw spce
   3329     845   11  -0.847600000000    -9.558460    -6.760411   -15.664627  # Ow spce
   3330     845   10   0.423800000000    -9.799913    -6.501581   -14.729369  # Hw spce
   3331     846   10   0.423800000000     0.509424    -8.440670    -1.146726  # Hw spce
   3332     846   11  -0.847600000000     0.761256    -7.538359    -1.496604  # Ow spce
   3333     846   10   0.423800000000     1.751974    -7.495485    -1.625600  # Hw spce
   3334     847   10   0.423800000000    -4.865857   -13.714147   -14.238851  # Hw spce
   3335     847   11  -0.847600000000    -5.766651   -14.148368   -14.234191  # Ow spce
   3336     847   10   0.423800000000    -6.460089   -13.474695   -13.978639  # Hw spce
   3337     848   10   0.423800000000    -4.039867    12.343129   -23.451565  # Hw spce
   3338     848   11  -0.847600000000    -3.769455    12.215179   -22.497360  # Ow spce
   3339     848   10   0.423800000000    -4.320535    12.809995   -21.912121  # Hw spce
   3340     849   10   0.423800000000    -1.501056    -6.642263   -12.899397  # Hw spce
   3341     849   11  -0.847600000000    -1.543787    -7.221524   -13.713419  # Ow spce
   3342     849   10   0.423800000000    -0.880683    -7.965216   -13.628478  # Hw spce
   3343     850   10   0.423800000000    -1.840309   -12.067681    23.461680  # Hw spce
   3344     850   11  -0.847600000000    -2.440886   -12.866329    23.500000  # Ow spce
   3345     850   10   0.423800000000    -2.697772   -13.135042    22.571667  # Hw spce
   3346     851   10   0.423800000000    -4.814477    -1.432627     8.762110  # Hw spce
   3347     851   11  -0.847600000000    -4.923037    -1.933812     9.620613  # Ow spce
   3348     851   10   0.423800000000    -4.283797    -2.702551     9.640914  # Hw spce
   3349     852   10   0.423800000000    -9.800000   -11.282941    21.237018  # Hw spce
   3350     852   11  -0.847600000000    -9.322678   -12.019040    20.757098  # Ow spce
   3351     852   10   0.423800000000    -8.549923   -11.639220    20.248585  # Hw spce
   3352     853   10   0.423800000000    -6.364879    -6.958679     9.761210  # Hw spce
   3353     853   11  -0.847600000000    -5.870038    -7.588599     9.162600  # Ow spce
   3354     853   10   0.423800000000    -5.080015    -7.960378     9.650086  # Hw spce
   3355     854   10   0.423800000000     3.633224     1.869509     1.825800  # Hw spce
   3356     854   11  -0.847600000000     4.368427     1.572342     2.435036  # Ow spce
   3357     854   10   0.423800000000     5.060975     1.081096     1.906780  # Hw spce
   3358     855   10   0.423800000000    -8.626174   -15.739219    16.291747  # Hw spce
   3359     855   11  -0.847600000000    -7.813495   -15.156738    16.275362  # Ow spce
   3360     855   10   0.423800000000    -7.162155   -15.512117    15.604943  # Hw spce
   3361     856   10   0.423800000000    -4.417080     8.610703    15.263687  # Hw spce
   3362     856   11  -0.847600000000    -4.347423     9.091619    14.389691  # Ow spce
   3363     856   10   0.423800000000    -5.260136     9.201865    13.996244  # Hw spce
   3364     857   10   0.423800000000    -0.193082    -6.650616     2.779734  # Hw spce
   3365     857   11  -0.847600000000    -0.577104    -5.781951     3.092703  # Ow spce
   3366     857   10   0.423800000000    -0.217833    -5.566571     4.000742  # Hw spce
   3367     858   10   0.423800000000     3.572887     8.581399   -14.635505  # Hw spce
   3368     858   11  -0.847600000000     4.169844     7.931622   -15.106071  # Ow spce
   3369     858   10   0.423800000000     3.833937     7.783710   -16.036280  # Hw spce
   3370     859   10   0.423800000000     5.422926   -13.120313     9.567043  # Hw spce
   3371     859   11  -0.847600000000     4.591809   -12.598732     9.759906  # Ow spce
   3372     859   10   0.423800000000     4.419250   -11.958016     9.011771  # Hw spce
   3373     860   10   0.423800000000     0.703694    15.992479    14.984428  # Hw spce
   3374     860   11  -0.847600000000     0.119215    16.795358    15.101775  # Ow spce
   3375     860   10   0.423800000000     0.306460    17.217153    15.988921  # Hw spce
   3376     861   10   0.423800000000     9.226743    13.857253    -8.966416  # Hw spce
   3377     861   11  -0.847600000000     8.320589    13.794079    -8.548212  # Ow spce
   3378     861   10   0.423800000000     7.657008    14.281963    -9.115334  # Hw spce
   3379     862   10   0.423800000000    -9.800000   -16.908382    11.396302  # Hw spce
   3380     862   11  -0.847600000000    -9.560440   -17.861430    11.581529  # Ow spce
   3381     862   10   0.423800000000    -8.585555   -18.000000    11.407182  # Hw spce
   3382     863   10   0.423800000000     7.040420     9.876450   -17.421766  # Hw spce
   3383     863   11  -0.847600000000     7.563708     9.395766   -18.125409  # Ow spce
   3384     863   10   0.423800000000     8.306168     8.881762   -17.695815  # Hw spce
   3385     864   10   0.423800000000    -1.790663     0.416737    -3.955561  # Hw spce
   3386     864   11  -0.847600000000    -1.737587     0.293674    -4.946540  # Ow spce
   3387     864   10   0.423800000000    -2.606434     0.561811    -5.362720  # Hw spce
   3388     865   10   0.423800000000     4.747305    -3.487287     6.648525  # Hw spce
   3389     865   11  -0.847600000000     4.356325    -4.054596     5.923752  # Ow spce
   3390     865   10   0.423800000000     4.987763    -4.087548     5.149027  # Hw spce
   3391     866   10   0.423800000000    -6.567313     7.881191    11.580366  # Hw spce
   3392     866   11  -0.847600000000    -7.204337     8.257331    12.253209  # Ow spce
   3393     866   10   0.423800000000    -7.141684     9.255361    12.249978  # Hw spce
   3394     867   10   0.423800000000    -6.108805   -18.000000     0.491582  # Hw spce
   3395     867   11  -0.847600000000    -5.240944   -17.800530     0.946588  # Ow spce
   3396     867   10   0.423800000000    -4.484475   -18.000000     0.323720  # Hw spce
   3397     868   10   0.423800000000     5.284930    15.395804    19.340402  # Hw spce
   3398     868   11  -0.847600000000     5.274909    15.593587    20.320597  # Ow spce
   3399     868   10   0.423800000000     5.262241    14.735347    20.833690  # Hw spce
   3400     869   10   0.423800000000    -8.379705   -12.523612   -12.690771  # Hw spce
   3401     869   11  -0.847600000000    -9.079753   -12.870772   -13.314800  # Ow spce
   3402     869   10   0.423800000000    -9.736672   -13.425013   -12.803651  # Hw spce
   3403     870   10   0.423800000000     6.798676     5.142176   -23.172533  # Hw spce
   3404     870   11  -0.847600000000     6.777199     5.034121   -22.178620  # Ow spce
   3405     870   10   0.423800000000     7.709825     5.068291   -21.819399  # Hw spce
   3406     871   10   0.423800000000    -3.482431    -8.942976    11.304584  # Hw spce
   3407     871   11  -0.847600000000    -2.871144    -8.153144    11.354533  # Ow spce
   3408     871   10   0.423800000000    -2.711800    -7.796253    10.434078  # Hw spce
   3409     872   10   0.423800000000    -7.100807    -2.370443   -16.441673  # Hw spce
   3410     872   11  -0.847600000000    -6.339209    -2.508741   -15.808552  # Ow spce
   3411     872   10   0.423800000000    -5.891269    -3.379548   -16.011147  # Hw spce
   3412     873   10   0.423800000000    -9.626184     2.225306    15.284695  # Hw spce
   3413     873   11  -0.847600000000    -9.800000     1.262419    15.491180  # Ow spce
   3414     873   10   0.423800000000    -9.598875     0.706932    14.684345  # Hw spce
   3415     874   10   0.423800000000     9.698748     2.785077   -14.731187  # Hw spce
   3416     874   11  -0.847600000000     9.173469     1.934161   -14.726205  # Ow spce
   3417     874   10   0.423800000000     9.799749     1.156130   -14.676802  # Hw spce
   3418     875   10   0.423800000000     3.124358    10.331912    23.189997  # Hw spce
   3419     875   11  -0.847600000000     3.871996     9.716838    22.939554  # Ow spce
   3420     875   10   0.423800000000     3.825295     8.889965    23.500000  # Hw spce
   3421     876   10   0.423800000000    -9.711091   -17.999945   -12.320529  # Hw spce
   3422     876   11  -0.847600000000    -9.205802   -17.991367   -13.183436  # Ow spce
   3423     876   10   0.423800000000    -9.799618   -17.654391   -13.914072  # Hw spce
   3424     877   10   0.423800000000    -9.799995    18.000001    -8.481610  # Hw spce
   3425     877   11  -0.847600000000    -9.298033    17.714736    -9.298102  # Ow spce
   3426     877   10   0.423800000000    -9.799996    18.000003   -10.114591  # Hw spce
   3427     878   10   0.423800000000     9.502048   -10.936097    21.696941  # Hw spce
   3428     878   11  -0.847600000000     9.800000   -10.138581    21.172352  # Ow spce
   3429     878   10   0.423800000000     9.005074    -9.698078    20.755160  # Hw spce
   3430     879   10   0.423800000000    -8.726768    15.748062    14.037230  # Hw spce
   3431     879   11  -0.847600000000    -7.845106    15.600848    14.485560  # Ow spce
   3432     879   10   0.423800000000    -7.994883    15.360287    15.444568  # Hw spce
   3433     880   10   0.423800000000    -7.436661     4.594606    12.800751  # Hw spce
   3434     880   11  -0.847600000000    -7.287866     5.546169    12.531702  # Ow spce
   3435     880   10   0.423800000000    -8.140721     5.929594    12.177268  # Hw spce
   3436     881   10   0.423800000000     4.038346     0.897802   -12.666211  # Hw spce
   3437     881   11  -0.847600000000     4.277586     1.312423   -11.788228  # Ow spce
   3438     881   10   0.423800000000     3.620422     1.022344   -11.092535  # Hw spce
   3439     882   10   0.423800000000    -1.609729     8.205324    -2.452594  # Hw spce
   3440     882   11  -0.847600000000    -0.737349     7.720055    -2.511469  # Ow spce
   3441     882   10   0.423800000000     0.005836     8.381482    -2.612417  # Hw spce
   3442     883   10   0.423800000000     8.550538     1.278176    13.484860  # Hw spce
   3443     883   11  -0.847600000000     8.575580     0.663335    12.696606  # Ow spce
   3444     883   10   0.423800000000     7.835194     0.898414    12.066872  # Hw spce
   3445     884   10   0.423800000000    -7.492271   -17.952169     9.029521  # Hw spce
   3446     884   11  -0.847600000000    -6.953276   -17.999536     8.188545  # Ow spce
   3447     884   10   0.423800000000    -7.325050   -17.357773     7.517781  # Hw spce
   3448     885   10   0.423800000000     0.930472     4.323149   -19.264330  # Hw spce
   3449     885   11  -0.847600000000     0.513707     4.746487   -20.068750  # Ow spce
   3450     885   10   0.423800000000     1.217246     4.914218   -20.759329  # Hw spce
   3451     886   10   0.423800000000     9.736313     4.982884    16.032374  # Hw spce
   3452     886   11  -0.847600000000     9.799912     4.294459    15.309862  # Ow spce
   3453     886   10   0.423800000000     9.418288     4.664150    14.462695  # Hw spce
   3454     887   10   0.423800000000    -1.550413   -13.297894    17.691182  # Hw spce
   3455     887   11  -0.847600000000    -0.634274   -12.897161    17.681045  # Ow spce
   3456     887   10   0.423800000000    -0.704821   -11.907225    17.558365  # Hw spce
   3457     888   10   0.423800000000    -9.799811    -3.041674   -21.109102  # Hw spce
   3458     888   11  -0.847600000000    -9.222748    -3.767895   -20.735470  # Ow spce
   3459     888   10   0.423800000000    -9.799885    -4.477596   -20.331445  # Hw spce
   3460     889   10   0.423800000000    -3.441131    -3.608147   -14.300432  # Hw spce
   3461     889   11  -0.847600000000    -3.598858    -4.531544   -13.950489  # Ow spce
   3462     889   10   0.423800000000    -4.579855    -4.725560   -13.952117  # Hw spce
   3463     890   10   0.423800000000     6.604988     0.232388   -13.008983  # Hw spce
   3464     890   11  -0.847600000000     7.529789    -0.147980   -13.017017  # Ow spce
   3465     890   10   0.423800000000     7.565823    -0.949272   -12.419830  # Hw spce
   3466     891   10   0.423800000000    -5.460548    -2.425283    23.499983  # Hw spce
   3467     891   11  -0.847600000000    -6.183089    -3.116611    23.499997  # Ow spce
   3468     891   10   0.423800000000    -5.772127    -4.028263    23.500000  # Hw spce
   3469     892   10   0.423800000000    -1.783133    10.789844   -23.019828  # Hw spce
   3470     892   11  -0.847600000000    -1.397523    10.552672   -22.128169  # Ow spce
   3471     892   10   0.423800000000    -1.718109    11.205684   -21.442021  # Hw spce
   3472     893   10   0.423800000000     6.480183   -14.842936    23.482801  # Hw spce
   3473     893   11  -0.847600000000     6.487703   -14.005324    22.936587  # Ow spce
   3474     893   10   0.423800000000     6.169829   -13.239772    23.495949  # Hw spce
   3475     894   10   0.423800000000    -0.817795     5.122165    -9.285357  # Hw spce
   3476     894   11  -0.847600000000    -1.374512     5.053139   -10.113186  # Ow spce
   3477     894   10   0.423800000000    -1.731401     4.122873   -10.198245  # Hw spce
   3478     895   10   0.423800000000     2.582155    10.193532   -16.678748  # Hw spce
   3479     895   11  -0.847600000000     2.742927     9.554289   -17.430759  # Ow spce
   3480     895   10   0.423800000000     2.009352     9.641293   -18.104775  # Hw spce
   3481     896   10   0.423800000000    -3.471920    12.691119   -16.976187  # Hw spce
   3482     896   11  -0.847600000000    -2.848983    11.915866   -17.080744  # Ow spce
   3483     896   10   0.423800000000    -3.279116    11.090866   -16.714191  # Hw spce
   3484     897   10   0.423800000000     0.839651    -6.112714    -4.304511  # Hw spce
   3485     897   11  -0.847600000000    -0.014457    -6.431710    -3.893729  # Ow spce
   3486     897   10   0.423800000000    -0.786972    -5.971209    -4.330945  # Hw spce
   3487     898   10   0.423800000000     4.485527   -10.379528   -13.054786  # Hw spce
   3488     898   11  -0.847600000000     4.748808    -9.929110   -12.201670  # Ow spce
   3489     898   10   0.423800000000     4.072211    -9.229674   -11.971444  # Hw spce
   3490     899   10   0.423800000000     8.693127     7.052464    14.605437  # Hw spce
   3491     899   11  -0.847600000000     7.838104     6.579664    14.818498  # Ow spce
   3492     899   10   0.423800000000     7.421103     6.993477    15.627738  # Hw spce
   3493     900   10   0.423800000000    -9.778303   -17.991023    17.118796  # Hw spce
   3494     900   11  -0.847600000000    -9.800000   -17.419557    17.939134  # Ow spce
   3495     900   10   0.423800000000    -9.741633   -18.000000    18.751340  # Hw spce
   3496     901   10   0.423800000000     1.571708     0.190147     8.642773  # Hw spce
   3497     901   11  -0.847600000000     0.778196     0.413425     8.076658  # Ow spce
   3498     901   10   0.423800000000     0.880070    -0.011867     7.177354  # Hw spce
   3499     902   10   0.423800000000    -7.901106     3.261287    -2.190894  # Hw spce
   3500     902   11  -0.847600000000    -7.117634     2.754607    -2.550684  # Ow spce
   3501     902   10   0.423800000000    -6.922291     3.060499    -3.482495  # Hw spce
   3502     903   10   0.423800000000    -6.200325     1.231508    16.794320  # Hw spce
   3503     903   11  -0.847600000000    -7.070566     1.384544    16.326068  # Ow spce
   3504     903   10   0.423800000000    -7.506893     0.504715    16.137603  # Hw spce
   3505     904   10   0.423800000000    -4.474646     6.351248     8.865346  # Hw spce
   3506     904   11  -0.847600000000    -4.926140     7.109380     9.335867  # Ow spce
   3507     904   10   0.423800000000    -5.913125     6.949659     9.354537  # Hw spce
   3508     905   10   0.423800000000     1.509552   -11.894874    23.482173  # Hw spce
   3509     905   11  -0.847600000000     2.021370   -11.947112    22.624669  # Ow spce
   3510     905   10   0.423800000000     1.592714   -11.353103    21.943930  # Hw spce
   3511     906   10   0.423800000000    -5.151463     5.529745   -16.956164  # Hw spce
   3512     906   11  -0.847600000000    -5.607957     5.725239   -16.088180  # Ow spce
   3513     906   10   0.423800000000    -4.933261     6.038616   -15.419914  # Hw spce
   3514     907   10   0.423800000000     2.296031     4.841287    -8.626011  # Hw spce
   3515     907   11  -0.847600000000     1.901270     5.652997    -9.056465  # Ow spce
   3516     907   10   0.423800000000     2.510217     5.975466    -9.781169  # Hw spce
   3517     908   10   0.423800000000    -2.036302    -3.804833    -4.175137  # Hw spce
   3518     908   11  -0.847600000000    -2.818974    -3.192204    -4.065089  # Ow spce
   3519     908   10   0.423800000000    -3.666432    -3.709043    -4.186294  # Hw spce
   3520     909   10   0.423800000000    -4.111254    16.865822    11.980537  # Hw spce
   3521     909   11  -0.847600000000    -3.210647    17.124696    12.329665  # Ow spce
   3522     909   10   0.423800000000    -3.277805    17.999975    12.808597  # Hw spce
   3523     910   10   0.423800000000    -6.420582     1.038381   -14.787804  # Hw spce
   3524     910   11  -0.847600000000    -7.140254     0.858983   -14.117068  # Ow spce
   3525     910   10   0.423800000000    -6.935063     1.347886   -13.269206  # Hw spce
   3526     911   10   0.423800000000     0.058179   -17.999999    16.918118  # Hw spce
   3527     911   11  -0.847600000000    -0.693496   -17.840674    16.278118  # Ow spce
   3528     911   10   0.423800000000    -1.565221   -18.000000    16.741486  # Hw spce
   3529     912   10   0.423800000000    -9.276757    13.065671    20.662244  # Hw spce
   3530     912   11  -0.847600000000    -9.800000    12.455994    20.066837  # Ow spce
   3531     912   10   0.423800000000    -9.758903    11.523522    20.425735  # Hw spce
   3532     913   10   0.423800000000    -7.469254    17.766986   -11.762164  # Hw spce
   3533     913   11  -0.847600000000    -7.734717    16.825680   -11.553662  # Ow spce
   3534     913   10   0.423800000000    -7.480691    16.608721   -10.611113  # Hw spce
   3535     914   10   0.423800000000     3.249993     5.513491     9.107905  # Hw spce
   3536     914   11  -0.847600000000     3.697080     4.627404     9.230233  # Ow spce
   3537     914   10   0.423800000000     3.004696     3.924190     9.391768  # Hw spce
   3538     915   10   0.423800000000    -9.800000   -14.239304    11.349926  # Hw spce
   3539     915   11  -0.847600000000    -9.426510   -13.312058    11.323107  # Ow spce
   3540     915   10   0.423800000000    -9.800000   -12.824988    10.533634  # Hw spce
   3541     916   10   0.423800000000     1.890057    11.514282    10.846608  # Hw spce
   3542     916   11  -0.847600000000     1.558438    11.860401     9.968981  # Ow spce
   3543     916   10   0.423800000000     1.505983    11.108056     9.312303  # Hw spce
   3544     917   10   0.423800000000     2.895448     4.554436     1.741167  # Hw spce
   3545     917   11  -0.847600000000     3.506448     5.119660     2.295424  # Ow spce
   3546     917   10   0.423800000000     2.997505     5.897055     2.665064  # Hw spce
   3547     918   10   0.423800000000    -0.414675     2.188816   -16.632433  # Hw spce
   3548     918   11  -0.847600000000    -0.435991     1.611045   -15.816512  # Ow spce
   3549     918   10   0.423800000000    -1.086702     0.864239   -15.953829  # Hw spce
   3550     919   10   0.423800000000     2.582982    13.996644    12.413268  # Hw spce
   3551     919   11  -0.847600000000     1.832988    14.310542    12.995484  # Ow spce
   3552     919   10   0.423800000000     1.508428    15.198969    12.670896  # Hw spce
   3553     920   10   0.423800000000     6.117506     4.234900     6.448764  # Hw spce
   3554     920   11  -0.847600000000     6.425787     3.912670     7.343823  # Ow spce
   3555     920   10   0.423800000000     5.890488     4.358655     8.061145  # Hw spce
   3556     921   10   0.423800000000     9.799973    -0.006015   -23.397211  # Hw spce
   3557     921   11  -0.847600000000     9.710110    -0.319032   -22.451724  # Ow spce
   3558     921   10   0.423800000000     9.742963     0.467892   -21.835549  # Hw spce
   3559     922   10   0.423800000000     9.800000   -15.932731    17.724445  # Hw spce
   3560     922   11  -0.847600000000     8.871871   -15.581939    17.599857  # Ow spce
   3561     922   10   0.423800000000     8.537870   -15.837679    16.692642  # Hw spce
   3562     923   10   0.423800000000     0.445481    -7.912243     6.236838  # Hw spce
   3563     923   11  -0.847600000000     1.271242    -8.115522     5.710724  # Ow spce
   3564     923   10   0.423800000000     1.244655    -7.618473     4.843409  # Hw spce
   3565     924   10   0.423800000000    -1.499322    -3.694374    16.477118  # Hw spce
   3566     924   11  -0.847600000000    -0.812148    -4.118831    15.887518  # Ow spce
   3567     924   10   0.423800000000    -0.001005    -4.341890    16.428158  # Hw spce
   3568     925   10   0.423800000000    -9.799984    18.000000     8.469545  # Hw spce
   3569     925   11  -0.847600000000    -9.023230    17.982922     7.839973  # Ow spce
   3570     925   10   0.423800000000    -8.170539    17.998420     8.362158  # Hw spce
   3571     926   10   0.423800000000     5.911225     7.678776    22.842784  # Hw spce
   3572     926   11  -0.847600000000     6.428206     8.236979    23.491736  # Ow spce
   3573     926   10   0.423800000000     6.295502     9.204922    23.278484  # Hw spce
   3574     927   10   0.423800000000    -7.855296   -12.145761   -20.847816  # Hw spce
   3575     927   11  -0.847600000000    -7.986058   -11.414584   -21.517354  # Ow spce
   3576     927   10   0.423800000000    -7.539024   -11.665108   -22.376073  # Hw spce
   3577     928   10   0.423800000000    -5.017274    -0.916580   -21.969969  # Hw spce
   3578     928   11  -0.847600000000    -5.239649    -1.592755   -22.672348  # Ow spce
   3579     928   10   0.423800000000    -5.548599    -1.124303   -23.500058  # Hw spce
   3580     929   10   0.423800000000     5.419881    12.440494    22.429792  # Hw spce
   3581     929   11  -0.847600000000     5.710207    12.292551    23.375215  # Ow spce
   3582     929   10   0.423800000000     6.652120    12.608894    23.488023  # Hw spce
   3583     930   10   0.423800000000    -5.296310    -2.577243   -12.893139  # Hw spce
   3584     930   11  -0.847600000000    -5.074133    -1.609527   -13.012144  # Ow spce
   3585     930   10   0.423800000000    -5.788977    -1.167622   -13.554103  # Hw spce
   3586     931   10   0.423800000000    -5.792112     9.246788    22.115568  # Hw spce
   3587     931   11  -0.847600000000    -5.484534     9.674458    22.965565  # Ow spce
   3588     931   10   0.423800000000    -6.278970     9.962989    23.500000  # Hw spce
   3589     932   10   0.423800000000    -4.385310    16.393691    23.485200  # Hw spce
   3590     932   11  -0.847600000000    -3.964138    17.300626    23.494307  # Ow spce
   3591     932   10   0.423800000000    -4.678871    18.000000    23.500000  # Hw spce
   3592     933   10   0.423800000000     9.800000    -5.863389     9.513499  # Hw spce
   3593     933   11  -0.847600000000     9.767521    -4.864221     9.488810  # Ow spce
   3594     933   10   0.423800000000     8.815037    -4.562648     9.446071  # Hw spce
   3595     934   10   0.423800000000     4.100654   -10.869904    23.500000  # Hw spce
   3596     934   11  -0.847600000000     4.973548   -10.661606    23.058787  # Ow spce
   3597     934   10   0.423800000000     5.388475    -9.865841    23.499914  # Hw spce
   3598     935   10   0.423800000000    -3.393907    10.098822   -10.460144  # Hw spce
   3599     935   11  -0.847600000000    -3.136133     9.133127   -10.491538  # Ow spce
   3600     935   10   0.423800000000    -2.285706     8.998446    -9.982977  # Hw spce
   3601     936   10   0.423800000000     2.659173    -5.469064     4.100914  # Hw spce
   3602     936   11  -0.847600000000     2.637972    -4.487016     3.913479  # Ow spce
   3603     936   10   0.423800000000     1.824625    -4.268042     3.374483  # Hw spce
   3604     937   10   0.423800000000    -6.566080   -10.156554   -17.597714  # Hw spce
   3605     937   11  -0.847600000000    -6.592893   -11.149307   -17.480571  # Ow spce
   3606     937   10   0.423800000000    -7.507341   -11.486723   -17.704034  # Hw spce
   3607     938   10   0.423800000000     6.969029     6.849930   -18.279308  # Hw spce
   3608     938   11  -0.847600000000     6.054090     6.811806   -17.877520  # Ow spce
   3609     938   10   0.423800000000     5.756609     7.735917   -17.637677  # Hw spce
   3610     939   10   0.423800000000     5.458912     1.531817    18.503305  # Hw spce
   3611     939   11  -0.847600000000     5.539865     2.521125    18.381995  # Ow spce
   3612     939   10   0.423800000000     4.632703     2.913698    18.230526  # Hw spce
   3613     940   10   0.423800000000    -5.454343   -15.164345    -6.659720  # Hw spce
   3614     940   11  -0.847600000000    -6.450318   -15.125232    -6.740362  # Ow spce
   3615     940   10   0.423800000000    -6.739619   -15.637470    -7.549014  # Hw spce
   3616     941   10   0.423800000000    -6.340347    10.891172   -23.459242  # Hw spce
   3617     941   11  -0.847600000000    -5.975784    11.040306   -22.540083  # Ow spce
   3618     941   10   0.423800000000    -6.714919    10.960232   -21.871302  # Hw spce
   3619     942   10   0.423800000000     8.270257    16.488081    14.387841  # Hw spce
   3620     942   11  -0.847600000000     8.585836    17.106268    15.107739  # Ow spce
   3621     942   10   0.423800000000     8.152041    18.000000    14.993440  # Hw spce
   3622     943   10   0.423800000000    -3.826819    14.866476    10.403699  # Hw spce
   3623     943   11  -0.847600000000    -3.028889    15.107782     9.851360  # Ow spce
   3624     943   10   0.423800000000    -2.587368    14.273467     9.521245  # Hw spce
   3625     944   10   0.423800000000     8.395502    -7.720329    15.226310  # Hw spce
   3626     944   11  -0.847600000000     9.206925    -7.654612    15.807064  # Ow spce
   3627     944   10   0.423800000000     9.800000    -6.923583    15.469635  # Hw spce
   3628     945   10   0.423800000000     4.567626   -12.282118    17.003566  # Hw spce
   3629     945   11  -0.847600000000     4.269188   -12.905434    16.280785  # Ow spce
   3630     945   10   0.423800000000     4.934678   -12.893406    15.534476  # Hw spce
   3631     946   10   0.423800000000     4.407101   -14.275831    18.721816  # Hw spce
   3632     946   11  -0.847600000000     3.708878   -14.976676    18.867766  # Ow spce
   3633     946   10   0.423800000000     3.979441   -15.562766    19.631504  # Hw spce
   3634     947   10   0.423800000000     4.150502    -0.313612    16.769261  # Hw spce
   3635     947   11  -0.847600000000     3.487022     0.053525    16.117337  # Ow spce
   3636     947   10   0.423800000000     3.621175    -0.379187    15.225843  # Hw spce
   3637     948   10   0.423800000000     5.594478    -1.556198    12.834578  # Hw spce
   3638     948   11  -0.847600000000     6.566369    -1.526261    12.601058  # Ow spce
   3639     948   10   0.423800000000     6.687548    -1.790327    11.644196  # Hw spce
   3640     949   10   0.423800000000    -9.799942    -8.568797   -10.912287  # Hw spce
   3641     949   11  -0.847600000000    -9.736763    -9.318409   -10.253431  # Ow spce
   3642     949   10   0.423800000000    -9.796120    -8.951941    -9.324895  # Hw spce
   3643     950   10   0.423800000000    -7.598937    -9.608769   -11.602483  # Hw spce
   3644     950   11  -0.847600000000    -6.906403    -9.044250   -11.153357  # Ow spce
   3645     950   10   0.423800000000    -7.316605    -8.570669   -10.373963  # Hw spce
   3646     951   10   0.423800000000     3.944436    -1.071090    23.500000  # Hw spce
   3647     951   11  -0.847600000000     4.181150    -1.775434    22.830773  # Ow spce
   3648     951   10   0.423800000000     3.707171    -1.590067    21.969969  # Hw spce
   3649     952   10   0.423800000000     4.368867    15.277697    15.276022  # Hw spce
   3650     952   11  -0.847600000000     3.904447    14.970257    14.445483  # Ow spce
   3651     952   10   0.423800000000     3.742561    15.753224    13.844855  # Hw spce
   3652     953   10   0.423800000000     2.617177     1.594329    19.380820  # Hw spce
   3653     953   11  -0.847600000000     2.299357     1.998770    18.523255  # Ow spce
   3654     953   10   0.423800000000     2.143026     1.274986    17.851171  # Hw spce
   3655     954   10   0.423800000000     3.264433    12.559824   -16.247566  # Hw spce
   3656     954   11  -0.847600000000     4.238699    12.442077   -16.055365  # Ow spce
   3657     954   10   0.423800000000     4.775903    12.898869   -16.764415  # Hw spce
   3658     955   10   0.423800000000     4.879715    -8.818385    -9.257937  # Hw spce
   3659     955   11  -0.847600000000     5.191182    -9.727387    -9.534888  # Ow spce
   3660     955   10   0.423800000000     6.055803    -9.646717   -10.030793  # Hw spce
   3661     956   10   0.423800000000     8.956608    -5.080480    -9.270292  # Hw spce
   3662     956   11  -0.847600000000     9.800004    -4.620213    -9.547488  # Ow spce
   3663     956   10   0.423800000000     9.604013    -3.661780    -9.754836  # Hw spce
   3664     957   10   0.423800000000    -3.826464   -10.362711    23.132207  # Hw spce
   3665     957   11  -0.847600000000    -4.103157   -10.681448    22.225649  # Ow spce
   3666     957   10   0.423800000000    -3.289378   -10.876348    21.678130  # Hw spce
   3667     958   10   0.423800000000    -9.799985     8.911460   -16.475239  # Hw spce
   3668     958   11  -0.847600000000    -9.643079     8.684096   -17.436325  # Ow spce
   3669     958   10   0.423800000000    -9.739857     7.697203   -17.565465  # Hw spce
   3670     959   10   0.423800000000    -8.565141   -13.265456     2.839100  # Hw spce
   3671     959   11  -0.847600000000    -9.549808   -13.410648     2.935792  # Ow spce
   3672     959   10   0.423800000000    -9.799406   -13.369298     3.903258  # Hw spce
   3673     960   10   0.423800000000     8.695102   -17.999997    -2.039298  # Hw spce
   3674     960   11  -0.847600000000     9.345195   -17.438071    -2.550785  # Ow spce
   3675     960   10   0.423800000000     9.799997   -17.999993    -3.241726  # Hw spce
   3676     961   10   0.423800000000     6.789707   -18.000069   -16.001620  # Hw spce
   3677     961   11  -0.847600000000     6.006063   -17.379520   -15.972968  # Ow spce
   3678     961   10   0.423800000000     5.178337   -17.897618   -15.757458  # Hw spce
   3679     962   10   0.423800000000     1.767016     5.029742     4.809906  # Hw spce
   3680     962   11  -0.847600000000     1.795888     4.133162     4.367967  # Ow spce
   3681     962   10   0.423800000000     1.210655     3.495598     4.868981  # Hw spce
   3682     963   10   0.423800000000     9.799968     9.592973   -20.022519  # Hw spce
   3683     963   11  -0.847600000000     9.223468    10.355857   -19.729849  # Ow spce
   3684     963   10   0.423800000000     9.799932    11.093688   -19.378718  # Hw spce
   3685     964   10   0.423800000000     7.968058   -10.038023    16.423647  # Hw spce
   3686     964   11  -0.847600000000     7.354039   -10.697609    16.857153  # Ow spce
   3687     964   10   0.423800000000     6.442581   -10.295959    16.946154  # Hw spce
   3688     965   10   0.423800000000     9.242110   -12.884736    -4.775331  # Hw spce
   3689     965   11  -0.847600000000     9.760054   -13.013407    -3.929650  # Ow spce
   3690     965   10   0.423800000000     9.721840   -13.975169    -3.658443  # Hw spce
   3691     966   10   0.423800000000     1.314769    -6.380609     0.804011  # Hw spce
   3692     966   11  -0.847600000000     0.456984    -6.004338     0.453832  # Ow spce
   3693     966   10   0.423800000000     0.366197    -5.052607     0.747029  # Hw spce
   3694     967   10   0.423800000000    -6.251165     6.294184   -19.133219  # Hw spce
   3695     967   11  -0.847600000000    -7.052661     5.925339   -18.662520  # Ow spce
   3696     967   10   0.423800000000    -7.790475     6.600062   -18.682009  # Hw spce
   3697     968   10   0.423800000000     8.191202    15.360615     3.564612  # Hw spce
   3698     968   11  -0.847600000000     9.061805    15.231914     4.039465  # Ow spce
   3699     968   10   0.423800000000     9.800000    15.160625     3.368655  # Hw spce
   3700     969   10   0.423800000000    -0.240426    -2.762896     6.263532  # Hw spce
   3701     969   11  -0.847600000000    -0.169598    -2.402229     5.333531  # Ow spce
   3702     969   10   0.423800000000    -0.093445    -3.161018     4.686662  # Hw spce
   3703     970   10   0.423800000000    -5.200219     3.057270    10.465883  # Hw spce
   3704     970   11  -0.847600000000    -5.468897     4.007640    10.622756  # Ow spce
   3705     970   10   0.423800000000    -5.284960     4.253258    11.574512  # Hw spce
   3706     971   10   0.423800000000    -5.078816   -14.709088    -3.348340  # Hw spce
   3707     971   11  -0.847600000000    -6.074784   -14.766005    -3.417679  # Ow spce
   3708     971   10   0.423800000000    -6.351399   -15.725890    -3.463540  # Hw spce
   3709     972   10   0.423800000000     4.130580     6.908726    21.265729  # Hw spce
   3710     972   11  -0.847600000000     4.029325     7.902150    21.212274  # Ow spce
   3711     972   10   0.423800000000     3.057782     8.136978    21.181304  # Hw spce
   3712     973   10   0.423800000000     2.455744   -17.987031   -15.768611  # Hw spce
   3713     973   11  -0.847600000000     2.195030   -17.542879   -16.625791  # Ow spce
   3714     973   10   0.423800000000     2.650256   -17.999917   -17.389914  # Hw spce
   3715     974   10   0.423800000000    -0.339103    -5.387253     8.471516  # Hw spce
   3716     974   11  -0.847600000000    -0.516565    -6.370468     8.429137  # Ow spce
   3717     974   10   0.423800000000    -1.502061    -6.528987     8.368571  # Hw spce
   3718     975   10   0.423800000000    -1.309428    17.723619    23.319085  # Hw spce
   3719     975   11  -0.847600000000    -0.348921    17.999979    23.286685  # Ow spce
   3720     975   10   0.423800000000     0.230626    17.186364    23.240250  # Hw spce
   3721     976   10   0.423800000000     0.864771    -0.385024    16.474861  # Hw spce
   3722     976   11  -0.847600000000     0.063384    -0.571886    15.906652  # Ow spce
   3723     976   10   0.423800000000    -0.540112    -1.212228    16.381787  # Hw spce
   3724     977   10   0.423800000000     2.480654   -18.000000    11.946073  # Hw spce
   3725     977   11  -0.847600000000     3.337395   -17.949681    12.459358  # Ow spce
   3726     977   10   0.423800000000     4.065746   -17.616898    11.860392  # Hw spce
   3727     978   10   0.423800000000    -5.808308     4.729964    -8.760988  # Hw spce
   3728     978   11  -0.847600000000    -6.588817     4.178921    -9.056210  # Ow spce
   3729     978   10   0.423800000000    -6.828941     4.418193    -9.997002  # Hw spce
   3730     979   10   0.423800000000    -3.006813    -7.920278    16.369949  # Hw spce
   3731     979   11  -0.847600000000    -2.010021    -7.840242    16.370134  # Ow spce
   3732     979   10   0.423800000000    -1.753237    -6.873774    16.368663  # Hw spce
   3733     980   10   0.423800000000     7.910304    14.146741    20.227119  # Hw spce
   3734     980   11  -0.847600000000     7.885388    13.876408    21.189563  # Ow spce
   3735     980   10   0.423800000000     8.268995    12.958162    21.287894  # Hw spce
   3736     981   10   0.423800000000    -2.613536    14.514754    22.836315  # Hw spce
   3737     981   11  -0.847600000000    -1.629778    14.666670    22.740711  # Ow spce
   3738     981   10   0.423800000000    -1.304182    15.230115    23.499999  # Hw spce
   3739     982   10   0.423800000000    -4.387874     1.244423    18.516206  # Hw spce
   3740     982   11  -0.847600000000    -4.685540     0.372706    18.905440  # Ow spce
   3741     982   10   0.423800000000    -4.337233    -0.378782    18.345129  # Hw spce
   3742     983   10   0.423800000000     5.008722     7.407529   -20.068944  # Hw spce
   3743     983   11  -0.847600000000     4.214426     8.011435   -20.135198  # Ow spce
   3744     983   10   0.423800000000     3.881631     8.226383   -19.217024  # Hw spce
   3745     984   10   0.423800000000     5.366029     4.028897     3.939486  # Hw spce
   3746     984   11  -0.847600000000     5.455463     5.001285     4.155041  # Ow spce
   3747     984   10   0.423800000000     4.673108     5.294170     4.704713  # Hw spce
   3748     985   10   0.423800000000    -8.170802     0.001982   -23.499708  # Hw spce
   3749     985   11  -0.847600000000    -8.707439    -0.841831   -23.499630  # Ow spce
   3750     985   10   0.423800000000    -9.681867    -0.617136   -23.499401  # Hw spce
   3751     986   10   0.423800000000     5.454445     7.532653    17.603146  # Hw spce
   3752     986   11  -0.847600000000     4.943120     7.115773    18.354650  # Ow spce
   3753     986   10   0.423800000000     5.161686     6.141321    18.406335  # Hw spce
   3754     987   10   0.423800000000     7.968831    11.557487    19.238989  # Hw spce
   3755     987   11  -0.847600000000     8.812421    11.030579    19.135428  # Ow spce
   3756     987   10   0.423800000000     9.452865    11.280636    19.861584  # Hw spce
   3757     988   10   0.423800000000     5.921925     5.056580    -3.636911  # Hw spce
   3758     988   11  -0.847600000000     5.751927     4.760686    -4.576883  # Ow spce
   3759     988   10   0.423800000000     5.623716     3.769127    -4.596161  # Hw spce
   3760     989   10   0.423800000000    -4.859165   -11.099247   -13.036913  # Hw spce
   3761     989   11  -0.847600000000    -5.677031   -11.348165   -12.518130  # Ow spce
   3762     989   10   0.423800000000    -5.516631   -12.209475   -12.036034  # Hw spce
   3763     990   10   0.423800000000    -1.408001    -9.853064     9.254107  # Hw spce
   3764     990   11  -0.847600000000    -1.269998    -8.986539     8.774430  # Ow spce
   3765     990   10   0.423800000000    -0.367247    -8.983775     8.344276  # Hw spce
   3766     991   10   0.423800000000    -9.799919    -2.844029   -14.702442  # Hw spce
   3767     991   11  -0.847600000000    -9.693658    -3.225461   -15.620712  # Ow spce
   3768     991   10   0.423800000000    -9.392796    -4.176773   -15.553719  # Hw spce
   3769     992   10   0.423800000000    -0.715172    10.620422    15.206256  # Hw spce
   3770     992   11  -0.847600000000    -1.104554    10.867800    14.319021  # Ow spce
   3771     992   10   0.423800000000    -1.299566    11.848459    14.302357  # Hw spce
   3772     993   10   0.423800000000    -2.570899     3.924971   -16.880804  # Hw spce
   3773     993   11  -0.847600000000    -2.717590     4.188795   -15.927452  # Ow spce
   3774     993   10   0.423800000000    -2.278704     3.521551   -15.325651  # Hw spce
   3775     994   10   0.423800000000    -0.640196    -5.446691    18.594465  # Hw spce
   3776     994   11  -0.847600000000    -0.049946    -6.253882    18.601391  # Ow spce
   3777     994   10   0.423800000000     0.899639    -5.973644    18.460840  # Hw spce
   3778     995   10   0.423800000000    -2.015941    13.207240   -14.687705  # Hw spce
   3779     995   11  -0.847600000000    -2.960979    13.441418   -14.459530  # Ow spce
   3780     995   10   0.423800000000    -3.445774    12.618811   -14.162391  # Hw spce
   3781     996   10   0.423800000000     8.853674    -6.000312   -12.096872  # Hw spce
   3782     996   11  -0.847600000000     9.790287    -6.347174   -12.146283  # Ow spce
   3783     996   10   0.423800000000     9.799973    -7.209949   -12.651778  # Hw spce
   3784     997   10   0.423800000000     8.683481     0.078758    23.278268  # Hw spce
   3785     997   11  -0.847600000000     9.506043     0.610933    23.478724  # Ow spce
   3786     997   10   0.423800000000     9.276522     1.584004    23.499998  # Hw spce
   3787     998   10   0.423800000000    -0.002544     2.999548    18.114215  # Hw spce
   3788     998   11  -0.847600000000     0.359828     3.820727    18.555069  # Ow spce
   3789     998   10   0.423800000000    -0.007752     3.890986    19.482402  # Hw spce
   3790     999   10   0.423800000000     2.523801    -9.649834    -9.166483  # Hw spce
   3791     999   11  -0.847600000000     1.976260    -8.824110    -9.302050  # Ow spce
   3792     999   10   0.423800000000     2.175459    -8.168743    -8.573480  # Hw spce
   3793    1000   10   0.423800000000    -4.011621   -17.993445   -11.552951  # Hw spce
   3794    1000   11  -0.847600000000    -3.933127   -17.854421   -10.565777  # Ow spce
   3795    1000   10   0.423800000000    -4.838444   -17.922590   -10.146548  # Hw spce
   3796    1001   10   0.423800000000     9.786478   -17.176845    14.659371  # Hw spce
   3797    1001   11  -0.847600000000     9.367068   -17.926591    15.171208  # Ow spce
   3798    1001   10   0.423800000000     9.800000   -18.000000    16.069640  # Hw spce
   3799    1002   10   0.423800000000     7.297780    18.000000    11.419423  # Hw spce
   3800    1002   11  -0.847600000000     7.504144    17.642564    10.508570  # Ow spce
   3801    1002   10   0.423800000000     6.840039    18.000000     9.851909  # Hw spce
   3802    1003   10   0.423800000000    -4.394448     6.564608    11.913116  # Hw spce
   3803    1003   11  -0.847600000000    -4.305523     6.606831    12.908259  # Ow spce
   3804    1003   10   0.423800000000    -5.212321     6.695057    13.320487  # Hw spce
   3805    1004   10   0.423800000000    -7.040317    14.471187    20.940330  # Hw spce
   3806    1004   11  -0.847600000000    -7.484353    15.224518    20.455227  # Ow spce
   3807    1004   10   0.423800000000    -7.640756    14.961694    19.503144  # Hw spce
   3808    1005   10   0.423800000000     4.593839   -14.929134   -17.009659  # Hw spce
   3809    1005   11  -0.847600000000     4.002008   -15.590381   -16.548693  # Ow spce
   3810    1005   10   0.423800000000     3.300104   -15.103688   -16.028636  # Hw spce
   3811    1006   12   1.000000000000     5.151761    10.128474   -15.803288  # Na Na
   3812    1007   12   1.000000000000    -4.400524     8.587457   -15.944265  # Na Na
   3813    1008   12   1.000000000000    -2.732633    -9.214185   -19.897654  # Na Na
   3814    1009   12   1.000000000000    -2.182034    -9.746541    18.392817  # Na Na
   3815    1010   12   1.000000000000    -5.912787   -15.751075     9.623531  # Na Na
   3816    1011   12   1.000000000000    -7.742302    10.315400   -13.731082  # Na Na
   3817    1012   12   1.000000000000     9.800005     6.877153   -17.689125  # Na Na
   3818    1013   12   1.000000000000    -1.554818   -12.104043    20.165201  # Na Na
   3819    1014   12   1.000000000000    -6.271451     8.242416   -17.566176  # Na Na
   3820    1015   12   1.000000000000     3.844034    -3.460314    12.733537  # Na Na
   3821    1016   12   1.000000000000    -1.069535     1.085867     1.212383  # Na Na
   3822    1017   12   1.000000000000     4.509912   -13.043765    12.820949  # Na Na
   3823    1018   12   1.000000000000    -6.689642     0.100992   -17.450504  # Na Na
   3824    1019   12   1.000000000000    -4.534116     9.335774    11.537183  # Na Na
   3825    1020   12   1.000000000000     0.950500    -4.050787   -11.703419  # Na Na
   3826    1021   12   1.000000000000    -2.453433    16.071972    20.844055  # Na Na
   3827    1022   12   1.000000000000     0.068181    -8.675211   -18.635400  # Na Na
   3828    1023   12   1.000000000000    -5.011664     0.205007   -11.017554  # Na Na
   3829    1024   12   1.000000000000    -0.174231     3.003916    12.374872  # Na Na
   3830    1025   12   1.000000000000    -5.991787    13.851345   -20.233841  # Na Na
   3831    1026   12   1.000000000000    -1.196141     2.499735     9.340658  # Na Na
   3832    1027   12   1.000000000000    -7.333355    11.402041    21.336225  # Na Na
   3833    1028   12   1.000000000000    -0.126921    13.548139   -20.749170  # Na Na
   3834    1029   12   1.000000000000     6.769928   -15.379457   -19.110246  # Na Na
   3835    1030   12   1.000000000000    -6.639426   -14.324954   -20.696733  # Na Na
   3836    1031   12   1.000000000000    -5.225827   -12.541873    23.500000  # Na Na
   3837    1032   12   1.000000000000    -5.713886     8.117755   -13.869543  # Na Na
   3838    1033   12   1.000000000000    -1.060411    13.796187   -17.579239  # Na Na
   3839    1034   12   1.000000000000    -7.257847     6.926234    21.103729  # Na Na
   3840    1035   12   1.000000000000     2.114020    14.690907    16.627775  # Na Na

Bonds

      1    1      13      19  # C12-C18
      2    2       1      13  # O0-C12
      3    1      13      21  # C12-C20
      4    2       2      14  # O1-C13
      5    1      14      20  # C13-C19
      6    1      14      19  # C13-C18
      7    2       3      15  # O2-C14
      8    1      16      24  # C15-C23
      9    2       4      16  # O3-C15
     10    1      16      22  # C15-C21
     11    1      17      22  # C16-C21
     12    1      17      23  # C16-C22
     13    2       5      17  # O4-C16
     14    2       6      18  # O5-C17
     15    3      25      55  # C24-H54
     16    4       7      31  # N6-C30
     17    5       7      25  # N6-C24
     18    6       7      64  # N6-H63
     19    6       8      65  # N7-H64
     20    4       8      32  # N7-C31
     21    5       8      26  # N7-C25
     22    5       9      27  # N8-C26
     23    6       9      66  # N8-H65
     24    4       9      33  # N8-C32
     25    6      10      67  # N9-H66
     26    5      10      28  # N9-C27
     27    4      10      34  # N9-C33
     28    3      28      58  # C27-H57
     29    5      11      29  # N10-C28
     30    4      11      35  # N10-C34
     31    6      11      68  # N10-H67
     32    4      12      36  # N11-C35
     33    6      12      69  # N11-H68
     34    5      12      30  # N11-C29
     35    1      15      20  # C14-C19
     36    1      15      21  # C14-C20
     37    1      18      24  # C17-C23
     38    1      18      23  # C17-C22
     39    7      19      25  # C18-C24
     40    7      20      26  # C19-C25
     41    3      26      56  # C25-H55
     42    7      21      27  # C20-C26
     43    3      27      57  # C26-H56
     44    7      22      28  # C21-C27
     45    3      29      59  # C28-H58
     46    7      23      29  # C22-C28
     47    3      30      60  # C29-H59
     48    7      24      30  # C23-C29
     49    8      31      43  # C30-C42
     50    8      31      37  # C30-C36
     51    8      32      38  # C31-C37
     52    8      44     122  # C43-C40
     53    8      32      44  # C31-C43
     54    9      44      62  # C43-H61
     55    8      33      39  # C32-C38
     56    9      39      51  # C38-H50
     57    8      33      45  # C32-C44
     58    8      39     129  # C38-C47
     59    8      34      40  # C33-C39
     60    8      34      46  # C33-C45
     61   10      47      74  # C46-S73
     62    8      35      47  # C34-C46
     63    8      47     119  # C46-C37
     64    8      35      41  # C34-C40
     65    8      42     126  # C41-C44
     66    8      36      48  # C35-C47
     67    9      42      54  # C41-H53
     68    8      36      42  # C35-C41
     69    8      37      46  # C36-C45
     70    9      37      49  # C36-H48
     71    9      38      50  # C37-H49
     72    8      38     128  # C37-C46
     73    9      40      52  # C39-H51
     74    8      40      43  # C39-C42
     75    8      41     125  # C40-C43
     76    9      41      53  # C40-H52
     77    9      43      61  # C42-H60
     78    9      45      63  # C44-H62
     79    8      45     123  # C44-C41
     80   11      70      72  # S69-O71
     81   10      46      70  # C45-S69
     82   11      70      73  # S69-O72
     83   11      70      71  # S69-O70
     84    8      48     120  # C47-C38
     85   10      48      78  # C47-S77
     86   11      78      79  # S77-O78
     87   11      78      80  # S77-O79
     88   11      78      81  # S77-O80
     89   11      74      76  # S73-O75
     90   11      74      75  # S73-O74
     91   11      74      77  # S73-O76
     92    2      82      94  # O0-C12
     93    2      83      95  # O1-C13
     94    2      84      96  # O2-C14
     95    2      85      97  # O3-C15
     96    2      86      98  # O4-C16
     97    2      87      99  # O5-C17
     98    5      88     106  # N6-C24
     99    4      88     112  # N6-C30
    100    6      88     145  # N6-H63
    101    4      89     113  # N7-C31
    102    5      89     107  # N7-C25
    103    6      89     146  # N7-H64
    104    3     107     137  # C25-H55
    105    5      90     108  # N8-C26
    106    6      90     147  # N8-H65
    107    4      90     114  # N8-C32
    108    6      91     148  # N9-H66
    109    4      91     115  # N9-C33
    110    5      91     109  # N9-C27
    111    3     110     140  # C28-H58
    112    5      92     110  # N10-C28
    113    6      92     149  # N10-H67
    114    4      92     116  # N10-C34
    115    4      93     117  # N11-C35
    116    6      93     150  # N11-H68
    117    5      93     111  # N11-C29
    118    1      94     100  # C12-C18
    119    1      94     102  # C12-C20
    120    7     100     106  # C18-C24
    121    1      95     100  # C13-C18
    122    1      95     101  # C13-C19
    123    1      96     101  # C14-C19
    124    1      96     102  # C14-C20
    125    7     102     108  # C20-C26
    126    1      97     105  # C15-C23
    127    1      97     103  # C15-C21
    128    1      98     104  # C16-C22
    129    1      98     103  # C16-C21
    130    7     103     109  # C21-C27
    131    7     105     111  # C23-C29
    132    1      99     105  # C17-C23
    133    1      99     104  # C17-C22
    134    7     101     107  # C19-C25
    135    7     104     110  # C22-C28
    136    3     106     136  # C24-H54
    137    3     108     138  # C26-H56
    138    3     109     139  # C27-H57
    139    3     111     141  # C29-H59
    140    8     112     124  # C30-C42
    141    8     118     127  # C36-C45
    142    8     112     118  # C30-C36
    143    9     118     130  # C36-H48
    144    8     113     119  # C31-C37
    145    8     113     125  # C31-C43
    146    9     125     143  # C43-H61
    147    9     120     132  # C38-H50
    148    8     114     126  # C32-C44
    149    8     114     120  # C32-C38
    150    9     121     133  # C39-H51
    151    8     115     121  # C33-C39
    152    8     121     124  # C39-C42
    153    8     115     127  # C33-C45
    154   10     128     155  # C46-S73
    155    8     116     128  # C34-C46
    156    8     116     122  # C34-C40
    157    8     117     123  # C35-C41
    158    8     117     129  # C35-C47
    159    9     123     135  # C41-H53
    160    9     119     131  # C37-H49
    161    9     122     134  # C40-H52
    162    9     124     142  # C42-H60
    163    9     126     144  # C44-H62
    164   10     127     151  # C45-S69
    165   11     159     160  # S77-O78
    166   10     129     159  # C47-S77
    167   11     159     161  # S77-O79
    168   11     159     162  # S77-O80
    169   11     151     153  # S69-O71
    170   11     151     154  # S69-O72
    171   11     151     152  # S69-O70
    172   11     155     157  # S73-O75
    173   11     155     158  # S73-O76
    174   11     155     156  # S73-O74
    175    1     175     181  # C12-C18
    176    2     163     175  # O0-C12
    177    1     175     183  # C12-C20
    178    2     164     176  # O1-C13
    179    1     176     182  # C13-C19
    180    1     176     181  # C13-C18
    181    2     165     177  # O2-C14
    182    1     178     186  # C15-C23
    183    2     166     178  # O3-C15
    184    1     178     184  # C15-C21
    185    1     179     184  # C16-C21
    186    1     179     185  # C16-C22
    187    2     167     179  # O4-C16
    188    2     168     180  # O5-C17
    189    3     187     217  # C24-H54
    190    4     169     193  # N6-C30
    191    5     169     187  # N6-C24
    192    6     169     226  # N6-H63
    193    6     170     227  # N7-H64
    194    4     170     194  # N7-C31
    195    5     170     188  # N7-C25
    196    5     171     189  # N8-C26
    197    6     171     228  # N8-H65
    198    4     171     195  # N8-C32
    199    6     172     229  # N9-H66
    200    5     172     190  # N9-C27
    201    4     172     196  # N9-C33
    202    3     190     220  # C27-H57
    203    5     173     191  # N10-C28
    204    4     173     197  # N10-C34
    205    6     173     230  # N10-H67
    206    4     174     198  # N11-C35
    207    6     174     231  # N11-H68
    208    5     174     192  # N11-C29
    209    1     177     182  # C14-C19
    210    1     177     183  # C14-C20
    211    1     180     186  # C17-C23
    212    1     180     185  # C17-C22
    213    7     181     187  # C18-C24
    214    7     182     188  # C19-C25
    215    3     188     218  # C25-H55
    216    7     183     189  # C20-C26
    217    3     189     219  # C26-H56
    218    7     184     190  # C21-C27
    219    3     191     221  # C28-H58
    220    7     185     191  # C22-C28
    221    3     192     222  # C29-H59
    222    7     186     192  # C23-C29
    223    8     193     205  # C30-C42
    224    8     193     199  # C30-C36
    225    8     194     200  # C31-C37
    226    8     206     284  # C43-C40
    227    8     194     206  # C31-C43
    228    9     206     224  # C43-H61
    229    8     195     201  # C32-C38
    230    9     201     213  # C38-H50
    231    8     195     207  # C32-C44
    232    8     201     291  # C38-C47
    233    8     196     202  # C33-C39
    234    8     196     208  # C33-C45
    235   10     209     236  # C46-S73
    236    8     197     209  # C34-C46
    237    8     209     281  # C46-C37
    238    8     197     203  # C34-C40
    239    8     204     288  # C41-C44
    240    8     198     210  # C35-C47
    241    9     204     216  # C41-H53
    242    8     198     204  # C35-C41
    243    8     199     208  # C36-C45
    244    9     199     211  # C36-H48
    245    9     200     212  # C37-H49
    246    8     200     290  # C37-C46
    247    9     202     214  # C39-H51
    248    8     202     205  # C39-C42
    249    8     203     287  # C40-C43
    250    9     203     215  # C40-H52
    251    9     205     223  # C42-H60
    252    9     207     225  # C44-H62
    253    8     207     285  # C44-C41
    254   11     232     234  # S69-O71
    255   10     208     232  # C45-S69
    256   11     232     235  # S69-O72
    257   11     232     233  # S69-O70
    258    8     210     282  # C47-C38
    259   10     210     240  # C47-S77
    260   11     240     241  # S77-O78
    261   11     240     242  # S77-O79
    262   11     240     243  # S77-O80
    263   11     236     238  # S73-O75
    264   11     236     237  # S73-O74
    265   11     236     239  # S73-O76
    266    2     244     256  # O0-C12
    267    2     245     257  # O1-C13
    268    2     246     258  # O2-C14
    269    2     247     259  # O3-C15
    270    2     248     260  # O4-C16
    271    2     249     261  # O5-C17
    272    5     250     268  # N6-C24
    273    4     250     274  # N6-C30
    274    6     250     307  # N6-H63
    275    4     251     275  # N7-C31
    276    5     251     269  # N7-C25
    277    6     251     308  # N7-H64
    278    3     269     299  # C25-H55
    279    5     252     270  # N8-C26
    280    6     252     309  # N8-H65
    281    4     252     276  # N8-C32
    282    6     253     310  # N9-H66
    283    4     253     277  # N9-C33
    284    5     253     271  # N9-C27
    285    3     272     302  # C28-H58
    286    5     254     272  # N10-C28
    287    6     254     311  # N10-H67
    288    4     254     278  # N10-C34
    289    4     255     279  # N11-C35
    290    6     255     312  # N11-H68
    291    5     255     273  # N11-C29
    292    1     256     262  # C12-C18
    293    1     256     264  # C12-C20
    294    7     262     268  # C18-C24
    295    1     257     262  # C13-C18
    296    1     257     263  # C13-C19
    297    1     258     263  # C14-C19
    298    1     258     264  # C14-C20
    299    7     264     270  # C20-C26
    300    1     259     267  # C15-C23
    301    1     259     265  # C15-C21
    302    1     260     266  # C16-C22
    303    1     260     265  # C16-C21
    304    7     265     271  # C21-C27
    305    7     267     273  # C23-C29
    306    1     261     267  # C17-C23
    307    1     261     266  # C17-C22
    308    7     263     269  # C19-C25
    309    7     266     272  # C22-C28
    310    3     268     298  # C24-H54
    311    3     270     300  # C26-H56
    312    3     271     301  # C27-H57
    313    3     273     303  # C29-H59
    314    8     274     286  # C30-C42
    315    8     280     289  # C36-C45
    316    8     274     280  # C30-C36
    317    9     280     292  # C36-H48
    318    8     275     281  # C31-C37
    319    8     275     287  # C31-C43
    320    9     287     305  # C43-H61
    321    9     282     294  # C38-H50
    322    8     276     288  # C32-C44
    323    8     276     282  # C32-C38
    324    9     283     295  # C39-H51
    325    8     277     283  # C33-C39
    326    8     283     286  # C39-C42
    327    8     277     289  # C33-C45
    328   10     290     317  # C46-S73
    329    8     278     290  # C34-C46
    330    8     278     284  # C34-C40
    331    8     279     285  # C35-C41
    332    8     279     291  # C35-C47
    333    9     285     297  # C41-H53
    334    9     281     293  # C37-H49
    335    9     284     296  # C40-H52
    336    9     286     304  # C42-H60
    337    9     288     306  # C44-H62
    338   10     289     313  # C45-S69
    339   11     321     322  # S77-O78
    340   10     291     321  # C47-S77
    341   11     321     323  # S77-O79
    342   11     321     324  # S77-O80
    343   11     313     315  # S69-O71
    344   11     313     316  # S69-O72
    345   11     313     314  # S69-O70
    346   11     317     319  # S73-O75
    347   11     317     320  # S73-O76
    348   11     317     318  # S73-O74
    349    1     337     343  # C12-C18
    350    2     325     337  # O0-C12
    351    1     337     345  # C12-C20
    352    2     326     338  # O1-C13
    353    1     338     344  # C13-C19
    354    1     338     343  # C13-C18
    355    2     327     339  # O2-C14
    356    1     340     348  # C15-C23
    357    2     328     340  # O3-C15
    358    1     340     346  # C15-C21
    359    1     341     346  # C16-C21
    360    1     341     347  # C16-C22
    361    2     329     341  # O4-C16
    362    2     330     342  # O5-C17
    363    3     349     379  # C24-H54
    364    4     331     355  # N6-C30
    365    5     331     349  # N6-C24
    366    6     331     388  # N6-H63
    367    6     332     389  # N7-H64
    368    4     332     356  # N7-C31
    369    5     332     350  # N7-C25
    370    5     333     351  # N8-C26
    371    6     333     390  # N8-H65
    372    4     333     357  # N8-C32
    373    6     334     391  # N9-H66
    374    5     334     352  # N9-C27
    375    4     334     358  # N9-C33
    376    3     352     382  # C27-H57
    377    5     335     353  # N10-C28
    378    4     335     359  # N10-C34
    379    6     335     392  # N10-H67
    380    4     336     360  # N11-C35
    381    6     336     393  # N11-H68
    382    5     336     354  # N11-C29
    383    1     339     344  # C14-C19
    384    1     339     345  # C14-C20
    385    1     342     348  # C17-C23
    386    1     342     347  # C17-C22
    387    7     343     349  # C18-C24
    388    7     344     350  # C19-C25
    389    3     350     380  # C25-H55
    390    7     345     351  # C20-C26
    391    3     351     381  # C26-H56
    392    7     346     352  # C21-C27
    393    3     353     383  # C28-H58
    394    7     347     353  # C22-C28
    395    3     354     384  # C29-H59
    396    7     348     354  # C23-C29
    397    8     355     367  # C30-C42
    398    8     355     361  # C30-C36
    399    8     356     362  # C31-C37
    400    8     368     446  # C43-C40
    401    8     356     368  # C31-C43
    402    9     368     386  # C43-H61
    403    8     357     363  # C32-C38
    404    9     363     375  # C38-H50
    405    8     357     369  # C32-C44
    406    8     363     453  # C38-C47
    407    8     358     364  # C33-C39
    408    8     358     370  # C33-C45
    409   10     371     398  # C46-S73
    410    8     359     371  # C34-C46
    411    8     371     443  # C46-C37
    412    8     359     365  # C34-C40
    413    8     366     450  # C41-C44
    414    8     360     372  # C35-C47
    415    9     366     378  # C41-H53
    416    8     360     366  # C35-C41
    417    8     361     370  # C36-C45
    418    9     361     373  # C36-H48
    419    9     362     374  # C37-H49
    420    8     362     452  # C37-C46
    421    9     364     376  # C39-H51
    422    8     364     367  # C39-C42
    423    8     365     449  # C40-C43
    424    9     365     377  # C40-H52
    425    9     367     385  # C42-H60
    426    9     369     387  # C44-H62
    427    8     369     447  # C44-C41
    428   11     394     396  # S69-O71
    429   10     370     394  # C45-S69
    430   11     394     397  # S69-O72
    431   11     394     395  # S69-O70
    432    8     372     444  # C47-C38
    433   10     372     402  # C47-S77
    434   11     402     403  # S77-O78
    435   11     402     404  # S77-O79
    436   11     402     405  # S77-O80
    437   11     398     400  # S73-O75
    438   11     398     399  # S73-O74
    439   11     398     401  # S73-O76
    440    2     406     418  # O0-C12
    441    2     407     419  # O1-C13
    442    2     408     420  # O2-C14
    443    2     409     421  # O3-C15
    444    2     410     422  # O4-C16
    445    2     411     423  # O5-C17
    446    5     412     430  # N6-C24
    447    4     412     436  # N6-C30
    448    6     412     469  # N6-H63
    449    4     413     437  # N7-C31
    450    5     413     431  # N7-C25
    451    6     413     470  # N7-H64
    452    3     431     461  # C25-H55
    453    5     414     432  # N8-C26
    454    6     414     471  # N8-H65
    455    4     414     438  # N8-C32
    456    6     415     472  # N9-H66
    457    4     415     439  # N9-C33
    458    5     415     433  # N9-C27
    459    3     434     464  # C28-H58
    460    5     416     434  # N10-C28
    461    6     416     473  # N10-H67
    462    4     416     440  # N10-C34
    463    4     417     441  # N11-C35
    464    6     417     474  # N11-H68
    465    5     417     435  # N11-C29
    466    1     418     424  # C12-C18
    467    1     418     426  # C12-C20
    468    7     424     430  # C18-C24
    469    1     419     424  # C13-C18
    470    1     419     425  # C13-C19
    471    1     420     425  # C14-C19
    472    1     420     426  # C14-C20
    473    7     426     432  # C20-C26
    474    1     421     429  # C15-C23
    475    1     421     427  # C15-C21
    476    1     422     428  # C16-C22
    477    1     422     427  # C16-C21
    478    7     427     433  # C21-C27
    479    7     429     435  # C23-C29
    480    1     423     429  # C17-C23
    481    1     423     428  # C17-C22
    482    7     425     431  # C19-C25
    483    7     428     434  # C22-C28
    484    3     430     460  # C24-H54
    485    3     432     462  # C26-H56
    486    3     433     463  # C27-H57
    487    3     435     465  # C29-H59
    488    8     436     448  # C30-C42
    489    8     442     451  # C36-C45
    490    8     436     442  # C30-C36
    491    9     442     454  # C36-H48
    492    8     437     443  # C31-C37
    493    8     437     449  # C31-C43
    494    9     449     467  # C43-H61
    495    9     444     456  # C38-H50
    496    8     438     450  # C32-C44
    497    8     438     444  # C32-C38
    498    9     445     457  # C39-H51
    499    8     439     445  # C33-C39
    500    8     445     448  # C39-C42
    501    8     439     451  # C33-C45
    502   10     452     479  # C46-S73
    503    8     440     452  # C34-C46
    504    8     440     446  # C34-C40
    505    8     441     447  # C35-C41
    506    8     441     453  # C35-C47
    507    9     447     459  # C41-H53
    508    9     443     455  # C37-H49
    509    9     446     458  # C40-H52
    510    9     448     466  # C42-H60
    511    9     450     468  # C44-H62
    512   10     451     475  # C45-S69
    513   11     483     484  # S77-O78
    514   10     453     483  # C47-S77
    515   11     483     485  # S77-O79
    516   11     483     486  # S77-O80
    517   11     475     477  # S69-O71
    518   11     475     478  # S69-O72
    519   11     475     476  # S69-O70
    520   11     479     481  # S73-O75
    521   11     479     482  # S73-O76
    522   11     479     480  # S73-O74
    523    1     499     505  # C12-C18
    524    2     487     499  # O0-C12
    525    1     499     507  # C12-C20
    526    2     488     500  # O1-C13
    527    1     500     506  # C13-C19
    528    1     500     505  # C13-C18
    529    2     489     501  # O2-C14
    530    1     502     510  # C15-C23
    531    2     490     502  # O3-C15
    532    1     502     508  # C15-C21
    533    1     503     508  # C16-C21
    534    1     503     509  # C16-C22
    535    2     491     503  # O4-C16
    536    2     492     504  # O5-C17
    537    3     511     541  # C24-H54
    538    4     493     517  # N6-C30
    539    5     493     511  # N6-C24
    540    6     493     550  # N6-H63
    541    6     494     551  # N7-H64
    542    4     494     518  # N7-C31
    543    5     494     512  # N7-C25
    544    5     495     513  # N8-C26
    545    6     495     552  # N8-H65
    546    4     495     519  # N8-C32
    547    6     496     553  # N9-H66
    548    5     496     514  # N9-C27
    549    4     496     520  # N9-C33
    550    3     514     544  # C27-H57
    551    5     497     515  # N10-C28
    552    4     497     521  # N10-C34
    553    6     497     554  # N10-H67
    554    4     498     522  # N11-C35
    555    6     498     555  # N11-H68
    556    5     498     516  # N11-C29
    557    1     501     506  # C14-C19
    558    1     501     507  # C14-C20
    559    1     504     510  # C17-C23
    560    1     504     509  # C17-C22
    561    7     505     511  # C18-C24
    562    7     506     512  # C19-C25
    563    3     512     542  # C25-H55
    564    7     507     513  # C20-C26
    565    3     513     543  # C26-H56
    566    7     508     514  # C21-C27
    567    3     515     545  # C28-H58
    568    7     509     515  # C22-C28
    569    3     516     546  # C29-H59
    570    7     510     516  # C23-C29
    571    8     517     529  # C30-C42
    572    8     517     523  # C30-C36
    573    8     518     524  # C31-C37
    574    8     530     608  # C43-C40
    575    8     518     530  # C31-C43
    576    9     530     548  # C43-H61
    577    8     519     525  # C32-C38
    578    9     525     537  # C38-H50
    579    8     519     531  # C32-C44
    580    8     525     615  # C38-C47
    581    8     520     526  # C33-C39
    582    8     520     532  # C33-C45
    583   10     533     560  # C46-S73
    584    8     521     533  # C34-C46
    585    8     533     605  # C46-C37
    586    8     521     527  # C34-C40
    587    8     528     612  # C41-C44
    588    8     522     534  # C35-C47
    589    9     528     540  # C41-H53
    590    8     522     528  # C35-C41
    591    8     523     532  # C36-C45
    592    9     523     535  # C36-H48
    593    9     524     536  # C37-H49
    594    8     524     614  # C37-C46
    595    9     526     538  # C39-H51
    596    8     526     529  # C39-C42
    597    8     527     611  # C40-C43
    598    9     527     539  # C40-H52
    599    9     529     547  # C42-H60
    600    9     531     549  # C44-H62
    601    8     531     609  # C44-C41
    602   11     556     558  # S69-O71
    603   10     532     556  # C45-S69
    604   11     556     559  # S69-O72
    605   11     556     557  # S69-O70
    606    8     534     606  # C47-C38
    607   10     534     564  # C47-S77
    608   11     564     565  # S77-O78
    609   11     564     566  # S77-O79
    610   11     564     567  # S77-O80
    611   11     560     562  # S73-O75
    612   11     560     561  # S73-O74
    613   11     560     563  # S73-O76
    614    2     568     580  # O0-C12
    615    2     569     581  # O1-C13
    616    2     570     582  # O2-C14
    617    2     571     583  # O3-C15
    618    2     572     584  # O4-C16
    619    2     573     585  # O5-C17
    620    5     574     592  # N6-C24
    621    4     574     598  # N6-C30
    622    6     574     631  # N6-H63
    623    4     575     599  # N7-C31
    624    5     575     593  # N7-C25
    625    6     575     632  # N7-H64
    626    3     593     623  # C25-H55
    627    5     576     594  # N8-C26
    628    6     576     633  # N8-H65
    629    4     576     600  # N8-C32
    630    6     577     634  # N9-H66
    631    4     577     601  # N9-C33
    632    5     577     595  # N9-C27
    633    3     596     626  # C28-H58
    634    5     578     596  # N10-C28
    635    6     578     635  # N10-H67
    636    4     578     602  # N10-C34
    637    4     579     603  # N11-C35
    638    6     579     636  # N11-H68
    639    5     579     597  # N11-C29
    640    1     580     586  # C12-C18
    641    1     580     588  # C12-C20
    642    7     586     592  # C18-C24
    643    1     581     586  # C13-C18
    644    1     581     587  # C13-C19
    645    1     582     587  # C14-C19
    646    1     582     588  # C14-C20
    647    7     588     594  # C20-C26
    648    1     583     591  # C15-C23
    649    1     583     589  # C15-C21
    650    1     584     590  # C16-C22
    651    1     584     589  # C16-C21
    652    7     589     595  # C21-C27
    653    7     591     597  # C23-C29
    654    1     585     591  # C17-C23
    655    1     585     590  # C17-C22
    656    7     587     593  # C19-C25
    657    7     590     596  # C22-C28
    658    3     592     622  # C24-H54
    659    3     594     624  # C26-H56
    660    3     595     625  # C27-H57
    661    3     597     627  # C29-H59
    662    8     598     610  # C30-C42
    663    8     604     613  # C36-C45
    664    8     598     604  # C30-C36
    665    9     604     616  # C36-H48
    666    8     599     605  # C31-C37
    667    8     599     611  # C31-C43
    668    9     611     629  # C43-H61
    669    9     606     618  # C38-H50
    670    8     600     612  # C32-C44
    671    8     600     606  # C32-C38
    672    9     607     619  # C39-H51
    673    8     601     607  # C33-C39
    674    8     607     610  # C39-C42
    675    8     601     613  # C33-C45
    676   10     614     641  # C46-S73
    677    8     602     614  # C34-C46
    678    8     602     608  # C34-C40
    679    8     603     609  # C35-C41
    680    8     603     615  # C35-C47
    681    9     609     621  # C41-H53
    682    9     605     617  # C37-H49
    683    9     608     620  # C40-H52
    684    9     610     628  # C42-H60
    685    9     612     630  # C44-H62
    686   10     613     637  # C45-S69
    687   11     645     646  # S77-O78
    688   10     615     645  # C47-S77
    689   11     645     647  # S77-O79
    690   11     645     648  # S77-O80
    691   11     637     639  # S69-O71
    692   11     637     640  # S69-O72
    693   11     637     638  # S69-O70
    694   11     641     643  # S73-O75
    695   11     641     644  # S73-O76
    696   11     641     642  # S73-O74
    697    1     661     667  # C12-C18
    698    2     649     661  # O0-C12
    699    1     661     669  # C12-C20
    700    2     650     662  # O1-C13
    701    1     662     668  # C13-C19
    702    1     662     667  # C13-C18
    703    2     651     663  # O2-C14
    704    1     664     672  # C15-C23
    705    2     652     664  # O3-C15
    706    1     664     670  # C15-C21
    707    1     665     670  # C16-C21
    708    1     665     671  # C16-C22
    709    2     653     665  # O4-C16
    710    2     654     666  # O5-C17
    711    3     673     703  # C24-H54
    712    4     655     679  # N6-C30
    713    5     655     673  # N6-C24
    714    6     655     712  # N6-H63
    715    6     656     713  # N7-H64
    716    4     656     680  # N7-C31
    717    5     656     674  # N7-C25
    718    5     657     675  # N8-C26
    719    6     657     714  # N8-H65
    720    4     657     681  # N8-C32
    721    6     658     715  # N9-H66
    722    5     658     676  # N9-C27
    723    4     658     682  # N9-C33
    724    3     676     706  # C27-H57
    725    5     659     677  # N10-C28
    726    4     659     683  # N10-C34
    727    6     659     716  # N10-H67
    728    4     660     684  # N11-C35
    729    6     660     717  # N11-H68
    730    5     660     678  # N11-C29
    731    1     663     668  # C14-C19
    732    1     663     669  # C14-C20
    733    1     666     672  # C17-C23
    734    1     666     671  # C17-C22
    735    7     667     673  # C18-C24
    736    7     668     674  # C19-C25
    737    3     674     704  # C25-H55
    738    7     669     675  # C20-C26
    739    3     675     705  # C26-H56
    740    7     670     676  # C21-C27
    741    3     677     707  # C28-H58
    742    7     671     677  # C22-C28
    743    3     678     708  # C29-H59
    744    7     672     678  # C23-C29
    745    8     679     691  # C30-C42
    746    8     679     685  # C30-C36
    747    8     680     686  # C31-C37
    748    8     692     770  # C43-C40
    749    8     680     692  # C31-C43
    750    9     692     710  # C43-H61
    751    8     681     687  # C32-C38
    752    9     687     699  # C38-H50
    753    8     681     693  # C32-C44
    754    8     687     777  # C38-C47
    755    8     682     688  # C33-C39
    756    8     682     694  # C33-C45
    757   10     695     722  # C46-S73
    758    8     683     695  # C34-C46
    759    8     695     767  # C46-C37
    760    8     683     689  # C34-C40
    761    8     690     774  # C41-C44
    762    8     684     696  # C35-C47
    763    9     690     702  # C41-H53
    764    8     684     690  # C35-C41
    765    8     685     694  # C36-C45
    766    9     685     697  # C36-H48
    767    9     686     698  # C37-H49
    768    8     686     776  # C37-C46
    769    9     688     700  # C39-H51
    770    8     688     691  # C39-C42
    771    8     689     773  # C40-C43
    772    9     689     701  # C40-H52
    773    9     691     709  # C42-H60
    774    9     693     711  # C44-H62
    775    8     693     771  # C44-C41
    776   11     718     720  # S69-O71
    777   10     694     718  # C45-S69
    778   11     718     721  # S69-O72
    779   11     718     719  # S69-O70
    780    8     696     768  # C47-C38
    781   10     696     726  # C47-S77
    782   11     726     727  # S77-O78
    783   11     726     728  # S77-O79
    784   11     726     729  # S77-O80
    785   11     722     724  # S73-O75
    786   11     722     723  # S73-O74
    787   11     722     725  # S73-O76
    788    2     730     742  # O0-C12
    789    2     731     743  # O1-C13
    790    2     732     744  # O2-C14
    791    2     733     745  # O3-C15
    792    2     734     746  # O4-C16
    793    2     735     747  # O5-C17
    794    5     736     754  # N6-C24
    795    4     736     760  # N6-C30
    796    6     736     793  # N6-H63
    797    4     737     761  # N7-C31
    798    5     737     755  # N7-C25
    799    6     737     794  # N7-H64
    800    3     755     785  # C25-H55
    801    5     738     756  # N8-C26
    802    6     738     795  # N8-H65
    803    4     738     762  # N8-C32
    804    6     739     796  # N9-H66
    805    4     739     763  # N9-C33
    806    5     739     757  # N9-C27
    807    3     758     788  # C28-H58
    808    5     740     758  # N10-C28
    809    6     740     797  # N10-H67
    810    4     740     764  # N10-C34
    811    4     741     765  # N11-C35
    812    6     741     798  # N11-H68
    813    5     741     759  # N11-C29
    814    1     742     748  # C12-C18
    815    1     742     750  # C12-C20
    816    7     748     754  # C18-C24
    817    1     743     748  # C13-C18
    818    1     743     749  # C13-C19
    819    1     744     749  # C14-C19
    820    1     744     750  # C14-C20
    821    7     750     756  # C20-C26
    822    1     745     753  # C15-C23
    823    1     745     751  # C15-C21
    824    1     746     752  # C16-C22
    825    1     746     751  # C16-C21
    826    7     751     757  # C21-C27
    827    7     753     759  # C23-C29
    828    1     747     753  # C17-C23
    829    1     747     752  # C17-C22
    830    7     749     755  # C19-C25
    831    7     752     758  # C22-C28
    832    3     754     784  # C24-H54
    833    3     756     786  # C26-H56
    834    3     757     787  # C27-H57
    835    3     759     789  # C29-H59
    836    8     760     772  # C30-C42
    837    8     766     775  # C36-C45
    838    8     760     766  # C30-C36
    839    9     766     778  # C36-H48
    840    8     761     767  # C31-C37
    841    8     761     773  # C31-C43
    842    9     773     791  # C43-H61
    843    9     768     780  # C38-H50
    844    8     762     774  # C32-C44
    845    8     762     768  # C32-C38
    846    9     769     781  # C39-H51
    847    8     763     769  # C33-C39
    848    8     769     772  # C39-C42
    849    8     763     775  # C33-C45
    850   10     776     803  # C46-S73
    851    8     764     776  # C34-C46
    852    8     764     770  # C34-C40
    853    8     765     771  # C35-C41
    854    8     765     777  # C35-C47
    855    9     771     783  # C41-H53
    856    9     767     779  # C37-H49
    857    9     770     782  # C40-H52
    858    9     772     790  # C42-H60
    859    9     774     792  # C44-H62
    860   10     775     799  # C45-S69
    861   11     807     808  # S77-O78
    862   10     777     807  # C47-S77
    863   11     807     809  # S77-O79
    864   11     807     810  # S77-O80
    865   11     799     801  # S69-O71
    866   11     799     802  # S69-O72
    867   11     799     800  # S69-O70
    868   11     803     805  # S73-O75
    869   11     803     806  # S73-O76
    870   11     803     804  # S73-O74
    871   12     811     812  # Hw-Ow
    872   12     812     813  # Ow-Hw
    873   12     814     815  # Hw-Ow
    874   12     815     816  # Ow-Hw
    875   12     817     818  # Hw-Ow
    876   12     818     819  # Ow-Hw
    877   12     820     821  # Hw-Ow
    878   12     821     822  # Ow-Hw
    879   12     823     824  # Hw-Ow
    880   12     824     825  # Ow-Hw
    881   12     826     827  # Hw-Ow
    882   12     827     828  # Ow-Hw
    883   12     829     830  # Hw-Ow
    884   12     830     831  # Ow-Hw
    885   12     832     833  # Hw-Ow
    886   12     833     834  # Ow-Hw
    887   12     835     836  # Hw-Ow
    888   12     836     837  # Ow-Hw
    889   12     838     839  # Hw-Ow
    890   12     839     840  # Ow-Hw
    891   12     841     842  # Hw-Ow
    892   12     842     843  # Ow-Hw
    893   12     844     845  # Hw-Ow
    894   12     845     846  # Ow-Hw
    895   12     847     848  # Hw-Ow
    896   12     848     849  # Ow-Hw
    897   12     850     851  # Hw-Ow
    898   12     851     852  # Ow-Hw
    899   12     853     854  # Hw-Ow
    900   12     854     855  # Ow-Hw
    901   12     856     857  # Hw-Ow
    902   12     857     858  # Ow-Hw
    903   12     859     860  # Hw-Ow
    904   12     860     861  # Ow-Hw
    905   12     862     863  # Hw-Ow
    906   12     863     864  # Ow-Hw
    907   12     865     866  # Hw-Ow
    908   12     866     867  # Ow-Hw
    909   12     868     869  # Hw-Ow
    910   12     869     870  # Ow-Hw
    911   12     871     872  # Hw-Ow
    912   12     872     873  # Ow-Hw
    913   12     874     875  # Hw-Ow
    914   12     875     876  # Ow-Hw
    915   12     877     878  # Hw-Ow
    916   12     878     879  # Ow-Hw
    917   12     880     881  # Hw-Ow
    918   12     881     882  # Ow-Hw
    919   12     883     884  # Hw-Ow
    920   12     884     885  # Ow-Hw
    921   12     886     887  # Hw-Ow
    922   12     887     888  # Ow-Hw
    923   12     889     890  # Hw-Ow
    924   12     890     891  # Ow-Hw
    925   12     892     893  # Hw-Ow
    926   12     893     894  # Ow-Hw
    927   12     895     896  # Hw-Ow
    928   12     896     897  # Ow-Hw
    929   12     898     899  # Hw-Ow
    930   12     899     900  # Ow-Hw
    931   12     901     902  # Hw-Ow
    932   12     902     903  # Ow-Hw
    933   12     904     905  # Hw-Ow
    934   12     905     906  # Ow-Hw
    935   12     907     908  # Hw-Ow
    936   12     908     909  # Ow-Hw
    937   12     910     911  # Hw-Ow
    938   12     911     912  # Ow-Hw
    939   12     913     914  # Hw-Ow
    940   12     914     915  # Ow-Hw
    941   12     916     917  # Hw-Ow
    942   12     917     918  # Ow-Hw
    943   12     919     920  # Hw-Ow
    944   12     920     921  # Ow-Hw
    945   12     922     923  # Hw-Ow
    946   12     923     924  # Ow-Hw
    947   12     925     926  # Hw-Ow
    948   12     926     927  # Ow-Hw
    949   12     928     929  # Hw-Ow
    950   12     929     930  # Ow-Hw
    951   12     931     932  # Hw-Ow
    952   12     932     933  # Ow-Hw
    953   12     934     935  # Hw-Ow
    954   12     935     936  # Ow-Hw
    955   12     937     938  # Hw-Ow
    956   12     938     939  # Ow-Hw
    957   12     940     941  # Hw-Ow
    958   12     941     942  # Ow-Hw
    959   12     943     944  # Hw-Ow
    960   12     944     945  # Ow-Hw
    961   12     946     947  # Hw-Ow
    962   12     947     948  # Ow-Hw
    963   12     949     950  # Hw-Ow
    964   12     950     951  # Ow-Hw
    965   12     952     953  # Hw-Ow
    966   12     953     954  # Ow-Hw
    967   12     955     956  # Hw-Ow
    968   12     956     957  # Ow-Hw
    969   12     958     959  # Hw-Ow
    970   12     959     960  # Ow-Hw
    971   12     961     962  # Hw-Ow
    972   12     962     963  # Ow-Hw
    973   12     964     965  # Hw-Ow
    974   12     965     966  # Ow-Hw
    975   12     967     968  # Hw-Ow
    976   12     968     969  # Ow-Hw
    977   12     970     971  # Hw-Ow
    978   12     971     972  # Ow-Hw
    979   12     973     974  # Hw-Ow
    980   12     974     975  # Ow-Hw
    981   12     976     977  # Hw-Ow
    982   12     977     978  # Ow-Hw
    983   12     979     980  # Hw-Ow
    984   12     980     981  # Ow-Hw
    985   12     982     983  # Hw-Ow
    986   12     983     984  # Ow-Hw
    987   12     985     986  # Hw-Ow
    988   12     986     987  # Ow-Hw
    989   12     988     989  # Hw-Ow
    990   12     989     990  # Ow-Hw
    991   12     991     992  # Hw-Ow
    992   12     992     993  # Ow-Hw
    993   12     994     995  # Hw-Ow
    994   12     995     996  # Ow-Hw
    995   12     997     998  # Hw-Ow
    996   12     998     999  # Ow-Hw
    997   12    1000    1001  # Hw-Ow
    998   12    1001    1002  # Ow-Hw
    999   12    1003    1004  # Hw-Ow
   1000   12    1004    1005  # Ow-Hw
   1001   12    1006    1007  # Hw-Ow
   1002   12    1007    1008  # Ow-Hw
   1003   12    1009    1010  # Hw-Ow
   1004   12    1010    1011  # Ow-Hw
   1005   12    1012    1013  # Hw-Ow
   1006   12    1013    1014  # Ow-Hw
   1007   12    1015    1016  # Hw-Ow
   1008   12    1016    1017  # Ow-Hw
   1009   12    1018    1019  # Hw-Ow
   1010   12    1019    1020  # Ow-Hw
   1011   12    1021    1022  # Hw-Ow
   1012   12    1022    1023  # Ow-Hw
   1013   12    1024    1025  # Hw-Ow
   1014   12    1025    1026  # Ow-Hw
   1015   12    1027    1028  # Hw-Ow
   1016   12    1028    1029  # Ow-Hw
   1017   12    1030    1031  # Hw-Ow
   1018   12    1031    1032  # Ow-Hw
   1019   12    1033    1034  # Hw-Ow
   1020   12    1034    1035  # Ow-Hw
   1021   12    1036    1037  # Hw-Ow
   1022   12    1037    1038  # Ow-Hw
   1023   12    1039    1040  # Hw-Ow
   1024   12    1040    1041  # Ow-Hw
   1025   12    1042    1043  # Hw-Ow
   1026   12    1043    1044  # Ow-Hw
   1027   12    1045    1046  # Hw-Ow
   1028   12    1046    1047  # Ow-Hw
   1029   12    1048    1049  # Hw-Ow
   1030   12    1049    1050  # Ow-Hw
   1031   12    1051    1052  # Hw-Ow
   1032   12    1052    1053  # Ow-Hw
   1033   12    1054    1055  # Hw-Ow
   1034   12    1055    1056  # Ow-Hw
   1035   12    1057    1058  # Hw-Ow
   1036   12    1058    1059  # Ow-Hw
   1037   12    1060    1061  # Hw-Ow
   1038   12    1061    1062  # Ow-Hw
   1039   12    1063    1064  # Hw-Ow
   1040   12    1064    1065  # Ow-Hw
   1041   12    1066    1067  # Hw-Ow
   1042   12    1067    1068  # Ow-Hw
   1043   12    1069    1070  # Hw-Ow
   1044   12    1070    1071  # Ow-Hw
   1045   12    1072    1073  # Hw-Ow
   1046   12    1073    1074  # Ow-Hw
   1047   12    1075    1076  # Hw-Ow
   1048   12    1076    1077  # Ow-Hw
   1049   12    1078    1079  # Hw-Ow
   1050   12    1079    1080  # Ow-Hw
   1051   12    1081    1082  # Hw-Ow
   1052   12    1082    1083  # Ow-Hw
   1053   12    1084    1085  # Hw-Ow
   1054   12    1085    1086  # Ow-Hw
   1055   12    1087    1088  # Hw-Ow
   1056   12    1088    1089  # Ow-Hw
   1057   12    1090    1091  # Hw-Ow
   1058   12    1091    1092  # Ow-Hw
   1059   12    1093    1094  # Hw-Ow
   1060   12    1094    1095  # Ow-Hw
   1061   12    1096    1097  # Hw-Ow
   1062   12    1097    1098  # Ow-Hw
   1063   12    1099    1100  # Hw-Ow
   1064   12    1100    1101  # Ow-Hw
   1065   12    1102    1103  # Hw-Ow
   1066   12    1103    1104  # Ow-Hw
   1067   12    1105    1106  # Hw-Ow
   1068   12    1106    1107  # Ow-Hw
   1069   12    1108    1109  # Hw-Ow
   1070   12    1109    1110  # Ow-Hw
   1071   12    1111    1112  # Hw-Ow
   1072   12    1112    1113  # Ow-Hw
   1073   12    1114    1115  # Hw-Ow
   1074   12    1115    1116  # Ow-Hw
   1075   12    1117    1118  # Hw-Ow
   1076   12    1118    1119  # Ow-Hw
   1077   12    1120    1121  # Hw-Ow
   1078   12    1121    1122  # Ow-Hw
   1079   12    1123    1124  # Hw-Ow
   1080   12    1124    1125  # Ow-Hw
   1081   12    1126    1127  # Hw-Ow
   1082   12    1127    1128  # Ow-Hw
   1083   12    1129    1130  # Hw-Ow
   1084   12    1130    1131  # Ow-Hw
   1085   12    1132    1133  # Hw-Ow
   1086   12    1133    1134  # Ow-Hw
   1087   12    1135    1136  # Hw-Ow
   1088   12    1136    1137  # Ow-Hw
   1089   12    1138    1139  # Hw-Ow
   1090   12    1139    1140  # Ow-Hw
   1091   12    1141    1142  # Hw-Ow
   1092   12    1142    1143  # Ow-Hw
   1093   12    1144    1145  # Hw-Ow
   1094   12    1145    1146  # Ow-Hw
   1095   12    1147    1148  # Hw-Ow
   1096   12    1148    1149  # Ow-Hw
   1097   12    1150    1151  # Hw-Ow
   1098   12    1151    1152  # Ow-Hw
   1099   12    1153    1154  # Hw-Ow
   1100   12    1154    1155  # Ow-Hw
   1101   12    1156    1157  # Hw-Ow
   1102   12    1157    1158  # Ow-Hw
   1103   12    1159    1160  # Hw-Ow
   1104   12    1160    1161  # Ow-Hw
   1105   12    1162    1163  # Hw-Ow
   1106   12    1163    1164  # Ow-Hw
   1107   12    1165    1166  # Hw-Ow
   1108   12    1166    1167  # Ow-Hw
   1109   12    1168    1169  # Hw-Ow
   1110   12    1169    1170  # Ow-Hw
   1111   12    1171    1172  # Hw-Ow
   1112   12    1172    1173  # Ow-Hw
   1113   12    1174    1175  # Hw-Ow
   1114   12    1175    1176  # Ow-Hw
   1115   12    1177    1178  # Hw-Ow
   1116   12    1178    1179  # Ow-Hw
   1117   12    1180    1181  # Hw-Ow
   1118   12    1181    1182  # Ow-Hw
   1119   12    1183    1184  # Hw-Ow
   1120   12    1184    1185  # Ow-Hw
   1121   12    1186    1187  # Hw-Ow
   1122   12    1187    1188  # Ow-Hw
   1123   12    1189    1190  # Hw-Ow
   1124   12    1190    1191  # Ow-Hw
   1125   12    1192    1193  # Hw-Ow
   1126   12    1193    1194  # Ow-Hw
   1127   12    1195    1196  # Hw-Ow
   1128   12    1196    1197  # Ow-Hw
   1129   12    1198    1199  # Hw-Ow
   1130   12    1199    1200  # Ow-Hw
   1131   12    1201    1202  # Hw-Ow
   1132   12    1202    1203  # Ow-Hw
   1133   12    1204    1205  # Hw-Ow
   1134   12    1205    1206  # Ow-Hw
   1135   12    1207    1208  # Hw-Ow
   1136   12    1208    1209  # Ow-Hw
   1137   12    1210    1211  # Hw-Ow
   1138   12    1211    1212  # Ow-Hw
   1139   12    1213    1214  # Hw-Ow
   1140   12    1214    1215  # Ow-Hw
   1141   12    1216    1217  # Hw-Ow
   1142   12    1217    1218  # Ow-Hw
   1143   12    1219    1220  # Hw-Ow
   1144   12    1220    1221  # Ow-Hw
   1145   12    1222    1223  # Hw-Ow
   1146   12    1223    1224  # Ow-Hw
   1147   12    1225    1226  # Hw-Ow
   1148   12    1226    1227  # Ow-Hw
   1149   12    1228    1229  # Hw-Ow
   1150   12    1229    1230  # Ow-Hw
   1151   12    1231    1232  # Hw-Ow
   1152   12    1232    1233  # Ow-Hw
   1153   12    1234    1235  # Hw-Ow
   1154   12    1235    1236  # Ow-Hw
   1155   12    1237    1238  # Hw-Ow
   1156   12    1238    1239  # Ow-Hw
   1157   12    1240    1241  # Hw-Ow
   1158   12    1241    1242  # Ow-Hw
   1159   12    1243    1244  # Hw-Ow
   1160   12    1244    1245  # Ow-Hw
   1161   12    1246    1247  # Hw-Ow
   1162   12    1247    1248  # Ow-Hw
   1163   12    1249    1250  # Hw-Ow
   1164   12    1250    1251  # Ow-Hw
   1165   12    1252    1253  # Hw-Ow
   1166   12    1253    1254  # Ow-Hw
   1167   12    1255    1256  # Hw-Ow
   1168   12    1256    1257  # Ow-Hw
   1169   12    1258    1259  # Hw-Ow
   1170   12    1259    1260  # Ow-Hw
   1171   12    1261    1262  # Hw-Ow
   1172   12    1262    1263  # Ow-Hw
   1173   12    1264    1265  # Hw-Ow
   1174   12    1265    1266  # Ow-Hw
   1175   12    1267    1268  # Hw-Ow
   1176   12    1268    1269  # Ow-Hw
   1177   12    1270    1271  # Hw-Ow
   1178   12    1271    1272  # Ow-Hw
   1179   12    1273    1274  # Hw-Ow
   1180   12    1274    1275  # Ow-Hw
   1181   12    1276    1277  # Hw-Ow
   1182   12    1277    1278  # Ow-Hw
   1183   12    1279    1280  # Hw-Ow
   1184   12    1280    1281  # Ow-Hw
   1185   12    1282    1283  # Hw-Ow
   1186   12    1283    1284  # Ow-Hw
   1187   12    1285    1286  # Hw-Ow
   1188   12    1286    1287  # Ow-Hw
   1189   12    1288    1289  # Hw-Ow
   1190   12    1289    1290  # Ow-Hw
   1191   12    1291    1292  # Hw-Ow
   1192   12    1292    1293  # Ow-Hw
   1193   12    1294    1295  # Hw-Ow
   1194   12    1295    1296  # Ow-Hw
   1195   12    1297    1298  # Hw-Ow
   1196   12    1298    1299  # Ow-Hw
   1197   12    1300    1301  # Hw-Ow
   1198   12    1301    1302  # Ow-Hw
   1199   12    1303    1304  # Hw-Ow
   1200   12    1304    1305  # Ow-Hw
   1201   12    1306    1307  # Hw-Ow
   1202   12    1307    1308  # Ow-Hw
   1203   12    1309    1310  # Hw-Ow
   1204   12    1310    1311  # Ow-Hw
   1205   12    1312    1313  # Hw-Ow
   1206   12    1313    1314  # Ow-Hw
   1207   12    1315    1316  # Hw-Ow
   1208   12    1316    1317  # Ow-Hw
   1209   12    1318    1319  # Hw-Ow
   1210   12    1319    1320  # Ow-Hw
   1211   12    1321    1322  # Hw-Ow
   1212   12    1322    1323  # Ow-Hw
   1213   12    1324    1325  # Hw-Ow
   1214   12    1325    1326  # Ow-Hw
   1215   12    1327    1328  # Hw-Ow
   1216   12    1328    1329  # Ow-Hw
   1217   12    1330    1331  # Hw-Ow
   1218   12    1331    1332  # Ow-Hw
   1219   12    1333    1334  # Hw-Ow
   1220   12    1334    1335  # Ow-Hw
   1221   12    1336    1337  # Hw-Ow
   1222   12    1337    1338  # Ow-Hw
   1223   12    1339    1340  # Hw-Ow
   1224   12    1340    1341  # Ow-Hw
   1225   12    1342    1343  # Hw-Ow
   1226   12    1343    1344  # Ow-Hw
   1227   12    1345    1346  # Hw-Ow
   1228   12    1346    1347  # Ow-Hw
   1229   12    1348    1349  # Hw-Ow
   1230   12    1349    1350  # Ow-Hw
   1231   12    1351    1352  # Hw-Ow
   1232   12    1352    1353  # Ow-Hw
   1233   12    1354    1355  # Hw-Ow
   1234   12    1355    1356  # Ow-Hw
   1235   12    1357    1358  # Hw-Ow
   1236   12    1358    1359  # Ow-Hw
   1237   12    1360    1361  # Hw-Ow
   1238   12    1361    1362  # Ow-Hw
   1239   12    1363    1364  # Hw-Ow
   1240   12    1364    1365  # Ow-Hw
   1241   12    1366    1367  # Hw-Ow
   1242   12    1367    1368  # Ow-Hw
   1243   12    1369    1370  # Hw-Ow
   1244   12    1370    1371  # Ow-Hw
   1245   12    1372    1373  # Hw-Ow
   1246   12    1373    1374  # Ow-Hw
   1247   12    1375    1376  # Hw-Ow
   1248   12    1376    1377  # Ow-Hw
   1249   12    1378    1379  # Hw-Ow
   1250   12    1379    1380  # Ow-Hw
   1251   12    1381    1382  # Hw-Ow
   1252   12    1382    1383  # Ow-Hw
   1253   12    1384    1385  # Hw-Ow
   1254   12    1385    1386  # Ow-Hw
   1255   12    1387    1388  # Hw-Ow
   1256   12    1388    1389  # Ow-Hw
   1257   12    1390    1391  # Hw-Ow
   1258   12    1391    1392  # Ow-Hw
   1259   12    1393    1394  # Hw-Ow
   1260   12    1394    1395  # Ow-Hw
   1261   12    1396    1397  # Hw-Ow
   1262   12    1397    1398  # Ow-Hw
   1263   12    1399    1400  # Hw-Ow
   1264   12    1400    1401  # Ow-Hw
   1265   12    1402    1403  # Hw-Ow
   1266   12    1403    1404  # Ow-Hw
   1267   12    1405    1406  # Hw-Ow
   1268   12    1406    1407  # Ow-Hw
   1269   12    1408    1409  # Hw-Ow
   1270   12    1409    1410  # Ow-Hw
   1271   12    1411    1412  # Hw-Ow
   1272   12    1412    1413  # Ow-Hw
   1273   12    1414    1415  # Hw-Ow
   1274   12    1415    1416  # Ow-Hw
   1275   12    1417    1418  # Hw-Ow
   1276   12    1418    1419  # Ow-Hw
   1277   12    1420    1421  # Hw-Ow
   1278   12    1421    1422  # Ow-Hw
   1279   12    1423    1424  # Hw-Ow
   1280   12    1424    1425  # Ow-Hw
   1281   12    1426    1427  # Hw-Ow
   1282   12    1427    1428  # Ow-Hw
   1283   12    1429    1430  # Hw-Ow
   1284   12    1430    1431  # Ow-Hw
   1285   12    1432    1433  # Hw-Ow
   1286   12    1433    1434  # Ow-Hw
   1287   12    1435    1436  # Hw-Ow
   1288   12    1436    1437  # Ow-Hw
   1289   12    1438    1439  # Hw-Ow
   1290   12    1439    1440  # Ow-Hw
   1291   12    1441    1442  # Hw-Ow
   1292   12    1442    1443  # Ow-Hw
   1293   12    1444    1445  # Hw-Ow
   1294   12    1445    1446  # Ow-Hw
   1295   12    1447    1448  # Hw-Ow
   1296   12    1448    1449  # Ow-Hw
   1297   12    1450    1451  # Hw-Ow
   1298   12    1451    1452  # Ow-Hw
   1299   12    1453    1454  # Hw-Ow
   1300   12    1454    1455  # Ow-Hw
   1301   12    1456    1457  # Hw-Ow
   1302   12    1457    1458  # Ow-Hw
   1303   12    1459    1460  # Hw-Ow
   1304   12    1460    1461  # Ow-Hw
   1305   12    1462    1463  # Hw-Ow
   1306   12    1463    1464  # Ow-Hw
   1307   12    1465    1466  # Hw-Ow
   1308   12    1466    1467  # Ow-Hw
   1309   12    1468    1469  # Hw-Ow
   1310   12    1469    1470  # Ow-Hw
   1311   12    1471    1472  # Hw-Ow
   1312   12    1472    1473  # Ow-Hw
   1313   12    1474    1475  # Hw-Ow
   1314   12    1475    1476  # Ow-Hw
   1315   12    1477    1478  # Hw-Ow
   1316   12    1478    1479  # Ow-Hw
   1317   12    1480    1481  # Hw-Ow
   1318   12    1481    1482  # Ow-Hw
   1319   12    1483    1484  # Hw-Ow
   1320   12    1484    1485  # Ow-Hw
   1321   12    1486    1487  # Hw-Ow
   1322   12    1487    1488  # Ow-Hw
   1323   12    1489    1490  # Hw-Ow
   1324   12    1490    1491  # Ow-Hw
   1325   12    1492    1493  # Hw-Ow
   1326   12    1493    1494  # Ow-Hw
   1327   12    1495    1496  # Hw-Ow
   1328   12    1496    1497  # Ow-Hw
   1329   12    1498    1499  # Hw-Ow
   1330   12    1499    1500  # Ow-Hw
   1331   12    1501    1502  # Hw-Ow
   1332   12    1502    1503  # Ow-Hw
   1333   12    1504    1505  # Hw-Ow
   1334   12    1505    1506  # Ow-Hw
   1335   12    1507    1508  # Hw-Ow
   1336   12    1508    1509  # Ow-Hw
   1337   12    1510    1511  # Hw-Ow
   1338   12    1511    1512  # Ow-Hw
   1339   12    1513    1514  # Hw-Ow
   1340   12    1514    1515  # Ow-Hw
   1341   12    1516    1517  # Hw-Ow
   1342   12    1517    1518  # Ow-Hw
   1343   12    1519    1520  # Hw-Ow
   1344   12    1520    1521  # Ow-Hw
   1345   12    1522    1523  # Hw-Ow
   1346   12    1523    1524  # Ow-Hw
   1347   12    1525    1526  # Hw-Ow
   1348   12    1526    1527  # Ow-Hw
   1349   12    1528    1529  # Hw-Ow
   1350   12    1529    1530  # Ow-Hw
   1351   12    1531    1532  # Hw-Ow
   1352   12    1532    1533  # Ow-Hw
   1353   12    1534    1535  # Hw-Ow
   1354   12    1535    1536  # Ow-Hw
   1355   12    1537    1538  # Hw-Ow
   1356   12    1538    1539  # Ow-Hw
   1357   12    1540    1541  # Hw-Ow
   1358   12    1541    1542  # Ow-Hw
   1359   12    1543    1544  # Hw-Ow
   1360   12    1544    1545  # Ow-Hw
   1361   12    1546    1547  # Hw-Ow
   1362   12    1547    1548  # Ow-Hw
   1363   12    1549    1550  # Hw-Ow
   1364   12    1550    1551  # Ow-Hw
   1365   12    1552    1553  # Hw-Ow
   1366   12    1553    1554  # Ow-Hw
   1367   12    1555    1556  # Hw-Ow
   1368   12    1556    1557  # Ow-Hw
   1369   12    1558    1559  # Hw-Ow
   1370   12    1559    1560  # Ow-Hw
   1371   12    1561    1562  # Hw-Ow
   1372   12    1562    1563  # Ow-Hw
   1373   12    1564    1565  # Hw-Ow
   1374   12    1565    1566  # Ow-Hw
   1375   12    1567    1568  # Hw-Ow
   1376   12    1568    1569  # Ow-Hw
   1377   12    1570    1571  # Hw-Ow
   1378   12    1571    1572  # Ow-Hw
   1379   12    1573    1574  # Hw-Ow
   1380   12    1574    1575  # Ow-Hw
   1381   12    1576    1577  # Hw-Ow
   1382   12    1577    1578  # Ow-Hw
   1383   12    1579    1580  # Hw-Ow
   1384   12    1580    1581  # Ow-Hw
   1385   12    1582    1583  # Hw-Ow
   1386   12    1583    1584  # Ow-Hw
   1387   12    1585    1586  # Hw-Ow
   1388   12    1586    1587  # Ow-Hw
   1389   12    1588    1589  # Hw-Ow
   1390   12    1589    1590  # Ow-Hw
   1391   12    1591    1592  # Hw-Ow
   1392   12    1592    1593  # Ow-Hw
   1393   12    1594    1595  # Hw-Ow
   1394   12    1595    1596  # Ow-Hw
   1395   12    1597    1598  # Hw-Ow
   1396   12    1598    1599  # Ow-Hw
   1397   12    1600    1601  # Hw-Ow
   1398   12    1601    1602  # Ow-Hw
   1399   12    1603    1604  # Hw-Ow
   1400   12    1604    1605  # Ow-Hw
   1401   12    1606    1607  # Hw-Ow
   1402   12    1607    1608  # Ow-Hw
   1403   12    1609    1610  # Hw-Ow
   1404   12    1610    1611  # Ow-Hw
   1405   12    1612    1613  # Hw-Ow
   1406   12    1613    1614  # Ow-Hw
   1407   12    1615    1616  # Hw-Ow
   1408   12    1616    1617  # Ow-Hw
   1409   12    1618    1619  # Hw-Ow
   1410   12    1619    1620  # Ow-Hw
   1411   12    1621    1622  # Hw-Ow
   1412   12    1622    1623  # Ow-Hw
   1413   12    1624    1625  # Hw-Ow
   1414   12    1625    1626  # Ow-Hw
   1415   12    1627    1628  # Hw-Ow
   1416   12    1628    1629  # Ow-Hw
   1417   12    1630    1631  # Hw-Ow
   1418   12    1631    1632  # Ow-Hw
   1419   12    1633    1634  # Hw-Ow
   1420   12    1634    1635  # Ow-Hw
   1421   12    1636    1637  # Hw-Ow
   1422   12    1637    1638  # Ow-Hw
   1423   12    1639    1640  # Hw-Ow
   1424   12    1640    1641  # Ow-Hw
   1425   12    1642    1643  # Hw-Ow
   1426   12    1643    1644  # Ow-Hw
   1427   12    1645    1646  # Hw-Ow
   1428   12    1646    1647  # Ow-Hw
   1429   12    1648    1649  # Hw-Ow
   1430   12    1649    1650  # Ow-Hw
   1431   12    1651    1652  # Hw-Ow
   1432   12    1652    1653  # Ow-Hw
   1433   12    1654    1655  # Hw-Ow
   1434   12    1655    1656  # Ow-Hw
   1435   12    1657    1658  # Hw-Ow
   1436   12    1658    1659  # Ow-Hw
   1437   12    1660    1661  # Hw-Ow
   1438   12    1661    1662  # Ow-Hw
   1439   12    1663    1664  # Hw-Ow
   1440   12    1664    1665  # Ow-Hw
   1441   12    1666    1667  # Hw-Ow
   1442   12    1667    1668  # Ow-Hw
   1443   12    1669    1670  # Hw-Ow
   1444   12    1670    1671  # Ow-Hw
   1445   12    1672    1673  # Hw-Ow
   1446   12    1673    1674  # Ow-Hw
   1447   12    1675    1676  # Hw-Ow
   1448   12    1676    1677  # Ow-Hw
   1449   12    1678    1679  # Hw-Ow
   1450   12    1679    1680  # Ow-Hw
   1451   12    1681    1682  # Hw-Ow
   1452   12    1682    1683  # Ow-Hw
   1453   12    1684    1685  # Hw-Ow
   1454   12    1685    1686  # Ow-Hw
   1455   12    1687    1688  # Hw-Ow
   1456   12    1688    1689  # Ow-Hw
   1457   12    1690    1691  # Hw-Ow
   1458   12    1691    1692  # Ow-Hw
   1459   12    1693    1694  # Hw-Ow
   1460   12    1694    1695  # Ow-Hw
   1461   12    1696    1697  # Hw-Ow
   1462   12    1697    1698  # Ow-Hw
   1463   12    1699    1700  # Hw-Ow
   1464   12    1700    1701  # Ow-Hw
   1465   12    1702    1703  # Hw-Ow
   1466   12    1703    1704  # Ow-Hw
   1467   12    1705    1706  # Hw-Ow
   1468   12    1706    1707  # Ow-Hw
   1469   12    1708    1709  # Hw-Ow
   1470   12    1709    1710  # Ow-Hw
   1471   12    1711    1712  # Hw-Ow
   1472   12    1712    1713  # Ow-Hw
   1473   12    1714    1715  # Hw-Ow
   1474   12    1715    1716  # Ow-Hw
   1475   12    1717    1718  # Hw-Ow
   1476   12    1718    1719  # Ow-Hw
   1477   12    1720    1721  # Hw-Ow
   1478   12    1721    1722  # Ow-Hw
   1479   12    1723    1724  # Hw-Ow
   1480   12    1724    1725  # Ow-Hw
   1481   12    1726    1727  # Hw-Ow
   1482   12    1727    1728  # Ow-Hw
   1483   12    1729    1730  # Hw-Ow
   1484   12    1730    1731  # Ow-Hw
   1485   12    1732    1733  # Hw-Ow
   1486   12    1733    1734  # Ow-Hw
   1487   12    1735    1736  # Hw-Ow
   1488   12    1736    1737  # Ow-Hw
   1489   12    1738    1739  # Hw-Ow
   1490   12    1739    1740  # Ow-Hw
   1491   12    1741    1742  # Hw-Ow
   1492   12    1742    1743  # Ow-Hw
   1493   12    1744    1745  # Hw-Ow
   1494   12    1745    1746  # Ow-Hw
   1495   12    1747    1748  # Hw-Ow
   1496   12    1748    1749  # Ow-Hw
   1497   12    1750    1751  # Hw-Ow
   1498   12    1751    1752  # Ow-Hw
   1499   12    1753    1754  # Hw-Ow
   1500   12    1754    1755  # Ow-Hw
   1501   12    1756    1757  # Hw-Ow
   1502   12    1757    1758  # Ow-Hw
   1503   12    1759    1760  # Hw-Ow
   1504   12    1760    1761  # Ow-Hw
   1505   12    1762    1763  # Hw-Ow
   1506   12    1763    1764  # Ow-Hw
   1507   12    1765    1766  # Hw-Ow
   1508   12    1766    1767  # Ow-Hw
   1509   12    1768    1769  # Hw-Ow
   1510   12    1769    1770  # Ow-Hw
   1511   12    1771    1772  # Hw-Ow
   1512   12    1772    1773  # Ow-Hw
   1513   12    1774    1775  # Hw-Ow
   1514   12    1775    1776  # Ow-Hw
   1515   12    1777    1778  # Hw-Ow
   1516   12    1778    1779  # Ow-Hw
   1517   12    1780    1781  # Hw-Ow
   1518   12    1781    1782  # Ow-Hw
   1519   12    1783    1784  # Hw-Ow
   1520   12    1784    1785  # Ow-Hw
   1521   12    1786    1787  # Hw-Ow
   1522   12    1787    1788  # Ow-Hw
   1523   12    1789    1790  # Hw-Ow
   1524   12    1790    1791  # Ow-Hw
   1525   12    1792    1793  # Hw-Ow
   1526   12    1793    1794  # Ow-Hw
   1527   12    1795    1796  # Hw-Ow
   1528   12    1796    1797  # Ow-Hw
   1529   12    1798    1799  # Hw-Ow
   1530   12    1799    1800  # Ow-Hw
   1531   12    1801    1802  # Hw-Ow
   1532   12    1802    1803  # Ow-Hw
   1533   12    1804    1805  # Hw-Ow
   1534   12    1805    1806  # Ow-Hw
   1535   12    1807    1808  # Hw-Ow
   1536   12    1808    1809  # Ow-Hw
   1537   12    1810    1811  # Hw-Ow
   1538   12    1811    1812  # Ow-Hw
   1539   12    1813    1814  # Hw-Ow
   1540   12    1814    1815  # Ow-Hw
   1541   12    1816    1817  # Hw-Ow
   1542   12    1817    1818  # Ow-Hw
   1543   12    1819    1820  # Hw-Ow
   1544   12    1820    1821  # Ow-Hw
   1545   12    1822    1823  # Hw-Ow
   1546   12    1823    1824  # Ow-Hw
   1547   12    1825    1826  # Hw-Ow
   1548   12    1826    1827  # Ow-Hw
   1549   12    1828    1829  # Hw-Ow
   1550   12    1829    1830  # Ow-Hw
   1551   12    1831    1832  # Hw-Ow
   1552   12    1832    1833  # Ow-Hw
   1553   12    1834    1835  # Hw-Ow
   1554   12    1835    1836  # Ow-Hw
   1555   12    1837    1838  # Hw-Ow
   1556   12    1838    1839  # Ow-Hw
   1557   12    1840    1841  # Hw-Ow
   1558   12    1841    1842  # Ow-Hw
   1559   12    1843    1844  # Hw-Ow
   1560   12    1844    1845  # Ow-Hw
   1561   12    1846    1847  # Hw-Ow
   1562   12    1847    1848  # Ow-Hw
   1563   12    1849    1850  # Hw-Ow
   1564   12    1850    1851  # Ow-Hw
   1565   12    1852    1853  # Hw-Ow
   1566   12    1853    1854  # Ow-Hw
   1567   12    1855    1856  # Hw-Ow
   1568   12    1856    1857  # Ow-Hw
   1569   12    1858    1859  # Hw-Ow
   1570   12    1859    1860  # Ow-Hw
   1571   12    1861    1862  # Hw-Ow
   1572   12    1862    1863  # Ow-Hw
   1573   12    1864    1865  # Hw-Ow
   1574   12    1865    1866  # Ow-Hw
   1575   12    1867    1868  # Hw-Ow
   1576   12    1868    1869  # Ow-Hw
   1577   12    1870    1871  # Hw-Ow
   1578   12    1871    1872  # Ow-Hw
   1579   12    1873    1874  # Hw-Ow
   1580   12    1874    1875  # Ow-Hw
   1581   12    1876    1877  # Hw-Ow
   1582   12    1877    1878  # Ow-Hw
   1583   12    1879    1880  # Hw-Ow
   1584   12    1880    1881  # Ow-Hw
   1585   12    1882    1883  # Hw-Ow
   1586   12    1883    1884  # Ow-Hw
   1587   12    1885    1886  # Hw-Ow
   1588   12    1886    1887  # Ow-Hw
   1589   12    1888    1889  # Hw-Ow
   1590   12    1889    1890  # Ow-Hw
   1591   12    1891    1892  # Hw-Ow
   1592   12    1892    1893  # Ow-Hw
   1593   12    1894    1895  # Hw-Ow
   1594   12    1895    1896  # Ow-Hw
   1595   12    1897    1898  # Hw-Ow
   1596   12    1898    1899  # Ow-Hw
   1597   12    1900    1901  # Hw-Ow
   1598   12    1901    1902  # Ow-Hw
   1599   12    1903    1904  # Hw-Ow
   1600   12    1904    1905  # Ow-Hw
   1601   12    1906    1907  # Hw-Ow
   1602   12    1907    1908  # Ow-Hw
   1603   12    1909    1910  # Hw-Ow
   1604   12    1910    1911  # Ow-Hw
   1605   12    1912    1913  # Hw-Ow
   1606   12    1913    1914  # Ow-Hw
   1607   12    1915    1916  # Hw-Ow
   1608   12    1916    1917  # Ow-Hw
   1609   12    1918    1919  # Hw-Ow
   1610   12    1919    1920  # Ow-Hw
   1611   12    1921    1922  # Hw-Ow
   1612   12    1922    1923  # Ow-Hw
   1613   12    1924    1925  # Hw-Ow
   1614   12    1925    1926  # Ow-Hw
   1615   12    1927    1928  # Hw-Ow
   1616   12    1928    1929  # Ow-Hw
   1617   12    1930    1931  # Hw-Ow
   1618   12    1931    1932  # Ow-Hw
   1619   12    1933    1934  # Hw-Ow
   1620   12    1934    1935  # Ow-Hw
   1621   12    1936    1937  # Hw-Ow
   1622   12    1937    1938  # Ow-Hw
   1623   12    1939    1940  # Hw-Ow
   1624   12    1940    1941  # Ow-Hw
   1625   12    1942    1943  # Hw-Ow
   1626   12    1943    1944  # Ow-Hw
   1627   12    1945    1946  # Hw-Ow
   1628   12    1946    1947  # Ow-Hw
   1629   12    1948    1949  # Hw-Ow
   1630   12    1949    1950  # Ow-Hw
   1631   12    1951    1952  # Hw-Ow
   1632   12    1952    1953  # Ow-Hw
   1633   12    1954    1955  # Hw-Ow
   1634   12    1955    1956  # Ow-Hw
   1635   12    1957    1958  # Hw-Ow
   1636   12    1958    1959  # Ow-Hw
   1637   12    1960    1961  # Hw-Ow
   1638   12    1961    1962  # Ow-Hw
   1639   12    1963    1964  # Hw-Ow
   1640   12    1964    1965  # Ow-Hw
   1641   12    1966    1967  # Hw-Ow
   1642   12    1967    1968  # Ow-Hw
   1643   12    1969    1970  # Hw-Ow
   1644   12    1970    1971  # Ow-Hw
   1645   12    1972    1973  # Hw-Ow
   1646   12    1973    1974  # Ow-Hw
   1647   12    1975    1976  # Hw-Ow
   1648   12    1976    1977  # Ow-Hw
   1649   12    1978    1979  # Hw-Ow
   1650   12    1979    1980  # Ow-Hw
   1651   12    1981    1982  # Hw-Ow
   1652   12    1982    1983  # Ow-Hw
   1653   12    1984    1985  # Hw-Ow
   1654   12    1985    1986  # Ow-Hw
   1655   12    1987    1988  # Hw-Ow
   1656   12    1988    1989  # Ow-Hw
   1657   12    1990    1991  # Hw-Ow
   1658   12    1991    1992  # Ow-Hw
   1659   12    1993    1994  # Hw-Ow
   1660   12    1994    1995  # Ow-Hw
   1661   12    1996    1997  # Hw-Ow
   1662   12    1997    1998  # Ow-Hw
   1663   12    1999    2000  # Hw-Ow
   1664   12    2000    2001  # Ow-Hw
   1665   12    2002    2003  # Hw-Ow
   1666   12    2003    2004  # Ow-Hw
   1667   12    2005    2006  # Hw-Ow
   1668   12    2006    2007  # Ow-Hw
   1669   12    2008    2009  # Hw-Ow
   1670   12    2009    2010  # Ow-Hw
   1671   12    2011    2012  # Hw-Ow
   1672   12    2012    2013  # Ow-Hw
   1673   12    2014    2015  # Hw-Ow
   1674   12    2015    2016  # Ow-Hw
   1675   12    2017    2018  # Hw-Ow
   1676   12    2018    2019  # Ow-Hw
   1677   12    2020    2021  # Hw-Ow
   1678   12    2021    2022  # Ow-Hw
   1679   12    2023    2024  # Hw-Ow
   1680   12    2024    2025  # Ow-Hw
   1681   12    2026    2027  # Hw-Ow
   1682   12    2027    2028  # Ow-Hw
   1683   12    2029    2030  # Hw-Ow
   1684   12    2030    2031  # Ow-Hw
   1685   12    2032    2033  # Hw-Ow
   1686   12    2033    2034  # Ow-Hw
   1687   12    2035    2036  # Hw-Ow
   1688   12    2036    2037  # Ow-Hw
   1689   12    2038    2039  # Hw-Ow
   1690   12    2039    2040  # Ow-Hw
   1691   12    2041    2042  # Hw-Ow
   1692   12    2042    2043  # Ow-Hw
   1693   12    2044    2045  # Hw-Ow
   1694   12    2045    2046  # Ow-Hw
   1695   12    2047    2048  # Hw-Ow
   1696   12    2048    2049  # Ow-Hw
   1697   12    2050    2051  # Hw-Ow
   1698   12    2051    2052  # Ow-Hw
   1699   12    2053    2054  # Hw-Ow
   1700   12    2054    2055  # Ow-Hw
   1701   12    2056    2057  # Hw-Ow
   1702   12    2057    2058  # Ow-Hw
   1703   12    2059    2060  # Hw-Ow
   1704   12    2060    2061  # Ow-Hw
   1705   12    2062    2063  # Hw-Ow
   1706   12    2063    2064  # Ow-Hw
   1707   12    2065    2066  # Hw-Ow
   1708   12    2066    2067  # Ow-Hw
   1709   12    2068    2069  # Hw-Ow
   1710   12    2069    2070  # Ow-Hw
   1711   12    2071    2072  # Hw-Ow
   1712   12    2072    2073  # Ow-Hw
   1713   12    2074    2075  # Hw-Ow
   1714   12    2075    2076  # Ow-Hw
   1715   12    2077    2078  # Hw-Ow
   1716   12    2078    2079  # Ow-Hw
   1717   12    2080    2081  # Hw-Ow
   1718   12    2081    2082  # Ow-Hw
   1719   12    2083    2084  # Hw-Ow
   1720   12    2084    2085  # Ow-Hw
   1721   12    2086    2087  # Hw-Ow
   1722   12    2087    2088  # Ow-Hw
   1723   12    2089    2090  # Hw-Ow
   1724   12    2090    2091  # Ow-Hw
   1725   12    2092    2093  # Hw-Ow
   1726   12    2093    2094  # Ow-Hw
   1727   12    2095    2096  # Hw-Ow
   1728   12    2096    2097  # Ow-Hw
   1729   12    2098    2099  # Hw-Ow
   1730   12    2099    2100  # Ow-Hw
   1731   12    2101    2102  # Hw-Ow
   1732   12    2102    2103  # Ow-Hw
   1733   12    2104    2105  # Hw-Ow
   1734   12    2105    2106  # Ow-Hw
   1735   12    2107    2108  # Hw-Ow
   1736   12    2108    2109  # Ow-Hw
   1737   12    2110    2111  # Hw-Ow
   1738   12    2111    2112  # Ow-Hw
   1739   12    2113    2114  # Hw-Ow
   1740   12    2114    2115  # Ow-Hw
   1741   12    2116    2117  # Hw-Ow
   1742   12    2117    2118  # Ow-Hw
   1743   12    2119    2120  # Hw-Ow
   1744   12    2120    2121  # Ow-Hw
   1745   12    2122    2123  # Hw-Ow
   1746   12    2123    2124  # Ow-Hw
   1747   12    2125    2126  # Hw-Ow
   1748   12    2126    2127  # Ow-Hw
   1749   12    2128    2129  # Hw-Ow
   1750   12    2129    2130  # Ow-Hw
   1751   12    2131    2132  # Hw-Ow
   1752   12    2132    2133  # Ow-Hw
   1753   12    2134    2135  # Hw-Ow
   1754   12    2135    2136  # Ow-Hw
   1755   12    2137    2138  # Hw-Ow
   1756   12    2138    2139  # Ow-Hw
   1757   12    2140    2141  # Hw-Ow
   1758   12    2141    2142  # Ow-Hw
   1759   12    2143    2144  # Hw-Ow
   1760   12    2144    2145  # Ow-Hw
   1761   12    2146    2147  # Hw-Ow
   1762   12    2147    2148  # Ow-Hw
   1763   12    2149    2150  # Hw-Ow
   1764   12    2150    2151  # Ow-Hw
   1765   12    2152    2153  # Hw-Ow
   1766   12    2153    2154  # Ow-Hw
   1767   12    2155    2156  # Hw-Ow
   1768   12    2156    2157  # Ow-Hw
   1769   12    2158    2159  # Hw-Ow
   1770   12    2159    2160  # Ow-Hw
   1771   12    2161    2162  # Hw-Ow
   1772   12    2162    2163  # Ow-Hw
   1773   12    2164    2165  # Hw-Ow
   1774   12    2165    2166  # Ow-Hw
   1775   12    2167    2168  # Hw-Ow
   1776   12    2168    2169  # Ow-Hw
   1777   12    2170    2171  # Hw-Ow
   1778   12    2171    2172  # Ow-Hw
   1779   12    2173    2174  # Hw-Ow
   1780   12    2174    2175  # Ow-Hw
   1781   12    2176    2177  # Hw-Ow
   1782   12    2177    2178  # Ow-Hw
   1783   12    2179    2180  # Hw-Ow
   1784   12    2180    2181  # Ow-Hw
   1785   12    2182    2183  # Hw-Ow
   1786   12    2183    2184  # Ow-Hw
   1787   12    2185    2186  # Hw-Ow
   1788   12    2186    2187  # Ow-Hw
   1789   12    2188    2189  # Hw-Ow
   1790   12    2189    2190  # Ow-Hw
   1791   12    2191    2192  # Hw-Ow
   1792   12    2192    2193  # Ow-Hw
   1793   12    2194    2195  # Hw-Ow
   1794   12    2195    2196  # Ow-Hw
   1795   12    2197    2198  # Hw-Ow
   1796   12    2198    2199  # Ow-Hw
   1797   12    2200    2201  # Hw-Ow
   1798   12    2201    2202  # Ow-Hw
   1799   12    2203    2204  # Hw-Ow
   1800   12    2204    2205  # Ow-Hw
   1801   12    2206    2207  # Hw-Ow
   1802   12    2207    2208  # Ow-Hw
   1803   12    2209    2210  # Hw-Ow
   1804   12    2210    2211  # Ow-Hw
   1805   12    2212    2213  # Hw-Ow
   1806   12    2213    2214  # Ow-Hw
   1807   12    2215    2216  # Hw-Ow
   1808   12    2216    2217  # Ow-Hw
   1809   12    2218    2219  # Hw-Ow
   1810   12    2219    2220  # Ow-Hw
   1811   12    2221    2222  # Hw-Ow
   1812   12    2222    2223  # Ow-Hw
   1813   12    2224    2225  # Hw-Ow
   1814   12    2225    2226  # Ow-Hw
   1815   12    2227    2228  # Hw-Ow
   1816   12    2228    2229  # Ow-Hw
   1817   12    2230    2231  # Hw-Ow
   1818   12    2231    2232  # Ow-Hw
   1819   12    2233    2234  # Hw-Ow
   1820   12    2234    2235  # Ow-Hw
   1821   12    2236    2237  # Hw-Ow
   1822   12    2237    2238  # Ow-Hw
   1823   12    2239    2240  # Hw-Ow
   1824   12    2240    2241  # Ow-Hw
   1825   12    2242    2243  # Hw-Ow
   1826   12    2243    2244  # Ow-Hw
   1827   12    2245    2246  # Hw-Ow
   1828   12    2246    2247  # Ow-Hw
   1829   12    2248    2249  # Hw-Ow
   1830   12    2249    2250  # Ow-Hw
   1831   12    2251    2252  # Hw-Ow
   1832   12    2252    2253  # Ow-Hw
   1833   12    2254    2255  # Hw-Ow
   1834   12    2255    2256  # Ow-Hw
   1835   12    2257    2258  # Hw-Ow
   1836   12    2258    2259  # Ow-Hw
   1837   12    2260    2261  # Hw-Ow
   1838   12    2261    2262  # Ow-Hw
   1839   12    2263    2264  # Hw-Ow
   1840   12    2264    2265  # Ow-Hw
   1841   12    2266    2267  # Hw-Ow
   1842   12    2267    2268  # Ow-Hw
   1843   12    2269    2270  # Hw-Ow
   1844   12    2270    2271  # Ow-Hw
   1845   12    2272    2273  # Hw-Ow
   1846   12    2273    2274  # Ow-Hw
   1847   12    2275    2276  # Hw-Ow
   1848   12    2276    2277  # Ow-Hw
   1849   12    2278    2279  # Hw-Ow
   1850   12    2279    2280  # Ow-Hw
   1851   12    2281    2282  # Hw-Ow
   1852   12    2282    2283  # Ow-Hw
   1853   12    2284    2285  # Hw-Ow
   1854   12    2285    2286  # Ow-Hw
   1855   12    2287    2288  # Hw-Ow
   1856   12    2288    2289  # Ow-Hw
   1857   12    2290    2291  # Hw-Ow
   1858   12    2291    2292  # Ow-Hw
   1859   12    2293    2294  # Hw-Ow
   1860   12    2294    2295  # Ow-Hw
   1861   12    2296    2297  # Hw-Ow
   1862   12    2297    2298  # Ow-Hw
   1863   12    2299    2300  # Hw-Ow
   1864   12    2300    2301  # Ow-Hw
   1865   12    2302    2303  # Hw-Ow
   1866   12    2303    2304  # Ow-Hw
   1867   12    2305    2306  # Hw-Ow
   1868   12    2306    2307  # Ow-Hw
   1869   12    2308    2309  # Hw-Ow
   1870   12    2309    2310  # Ow-Hw
   1871   12    2311    2312  # Hw-Ow
   1872   12    2312    2313  # Ow-Hw
   1873   12    2314    2315  # Hw-Ow
   1874   12    2315    2316  # Ow-Hw
   1875   12    2317    2318  # Hw-Ow
   1876   12    2318    2319  # Ow-Hw
   1877   12    2320    2321  # Hw-Ow
   1878   12    2321    2322  # Ow-Hw
   1879   12    2323    2324  # Hw-Ow
   1880   12    2324    2325  # Ow-Hw
   1881   12    2326    2327  # Hw-Ow
   1882   12    2327    2328  # Ow-Hw
   1883   12    2329    2330  # Hw-Ow
   1884   12    2330    2331  # Ow-Hw
   1885   12    2332    2333  # Hw-Ow
   1886   12    2333    2334  # Ow-Hw
   1887   12    2335    2336  # Hw-Ow
   1888   12    2336    2337  # Ow-Hw
   1889   12    2338    2339  # Hw-Ow
   1890   12    2339    2340  # Ow-Hw
   1891   12    2341    2342  # Hw-Ow
   1892   12    2342    2343  # Ow-Hw
   1893   12    2344    2345  # Hw-Ow
   1894   12    2345    2346  # Ow-Hw
   1895   12    2347    2348  # Hw-Ow
   1896   12    2348    2349  # Ow-Hw
   1897   12    2350    2351  # Hw-Ow
   1898   12    2351    2352  # Ow-Hw
   1899   12    2353    2354  # Hw-Ow
   1900   12    2354    2355  # Ow-Hw
   1901   12    2356    2357  # Hw-Ow
   1902   12    2357    2358  # Ow-Hw
   1903   12    2359    2360  # Hw-Ow
   1904   12    2360    2361  # Ow-Hw
   1905   12    2362    2363  # Hw-Ow
   1906   12    2363    2364  # Ow-Hw
   1907   12    2365    2366  # Hw-Ow
   1908   12    2366    2367  # Ow-Hw
   1909   12    2368    2369  # Hw-Ow
   1910   12    2369    2370  # Ow-Hw
   1911   12    2371    2372  # Hw-Ow
   1912   12    2372    2373  # Ow-Hw
   1913   12    2374    2375  # Hw-Ow
   1914   12    2375    2376  # Ow-Hw
   1915   12    2377    2378  # Hw-Ow
   1916   12    2378    2379  # Ow-Hw
   1917   12    2380    2381  # Hw-Ow
   1918   12    2381    2382  # Ow-Hw
   1919   12    2383    2384  # Hw-Ow
   1920   12    2384    2385  # Ow-Hw
   1921   12    2386    2387  # Hw-Ow
   1922   12    2387    2388  # Ow-Hw
   1923   12    2389    2390  # Hw-Ow
   1924   12    2390    2391  # Ow-Hw
   1925   12    2392    2393  # Hw-Ow
   1926   12    2393    2394  # Ow-Hw
   1927   12    2395    2396  # Hw-Ow
   1928   12    2396    2397  # Ow-Hw
   1929   12    2398    2399  # Hw-Ow
   1930   12    2399    2400  # Ow-Hw
   1931   12    2401    2402  # Hw-Ow
   1932   12    2402    2403  # Ow-Hw
   1933   12    2404    2405  # Hw-Ow
   1934   12    2405    2406  # Ow-Hw
   1935   12    2407    2408  # Hw-Ow
   1936   12    2408    2409  # Ow-Hw
   1937   12    2410    2411  # Hw-Ow
   1938   12    2411    2412  # Ow-Hw
   1939   12    2413    2414  # Hw-Ow
   1940   12    2414    2415  # Ow-Hw
   1941   12    2416    2417  # Hw-Ow
   1942   12    2417    2418  # Ow-Hw
   1943   12    2419    2420  # Hw-Ow
   1944   12    2420    2421  # Ow-Hw
   1945   12    2422    2423  # Hw-Ow
   1946   12    2423    2424  # Ow-Hw
   1947   12    2425    2426  # Hw-Ow
   1948   12    2426    2427  # Ow-Hw
   1949   12    2428    2429  # Hw-Ow
   1950   12    2429    2430  # Ow-Hw
   1951   12    2431    2432  # Hw-Ow
   1952   12    2432    2433  # Ow-Hw
   1953   12    2434    2435  # Hw-Ow
   1954   12    2435    2436  # Ow-Hw
   1955   12    2437    2438  # Hw-Ow
   1956   12    2438    2439  # Ow-Hw
   1957   12    2440    2441  # Hw-Ow
   1958   12    2441    2442  # Ow-Hw
   1959   12    2443    2444  # Hw-Ow
   1960   12    2444    2445  # Ow-Hw
   1961   12    2446    2447  # Hw-Ow
   1962   12    2447    2448  # Ow-Hw
   1963   12    2449    2450  # Hw-Ow
   1964   12    2450    2451  # Ow-Hw
   1965   12    2452    2453  # Hw-Ow
   1966   12    2453    2454  # Ow-Hw
   1967   12    2455    2456  # Hw-Ow
   1968   12    2456    2457  # Ow-Hw
   1969   12    2458    2459  # Hw-Ow
   1970   12    2459    2460  # Ow-Hw
   1971   12    2461    2462  # Hw-Ow
   1972   12    2462    2463  # Ow-Hw
   1973   12    2464    2465  # Hw-Ow
   1974   12    2465    2466  # Ow-Hw
   1975   12    2467    2468  # Hw-Ow
   1976   12    2468    2469  # Ow-Hw
   1977   12    2470    2471  # Hw-Ow
   1978   12    2471    2472  # Ow-Hw
   1979   12    2473    2474  # Hw-Ow
   1980   12    2474    2475  # Ow-Hw
   1981   12    2476    2477  # Hw-Ow
   1982   12    2477    2478  # Ow-Hw
   1983   12    2479    2480  # Hw-Ow
   1984   12    2480    2481  # Ow-Hw
   1985   12    2482    2483  # Hw-Ow
   1986   12    2483    2484  # Ow-Hw
   1987   12    2485    2486  # Hw-Ow
   1988   12    2486    2487  # Ow-Hw
   1989   12    2488    2489  # Hw-Ow
   1990   12    2489    2490  # Ow-Hw
   1991   12    2491    2492  # Hw-Ow
   1992   12    2492    2493  # Ow-Hw
   1993   12    2494    2495  # Hw-Ow
   1994   12    2495    2496  # Ow-Hw
   1995   12    2497    2498  # Hw-Ow
   1996   12    2498    2499  # Ow-Hw
   1997   12    2500    2501  # Hw-Ow
   1998   12    2501    2502  # Ow-Hw
   1999   12    2503    2504  # Hw-Ow
   2000   12    2504    2505  # Ow-Hw
   2001   12    2506    2507  # Hw-Ow
   2002   12    2507    2508  # Ow-Hw
   2003   12    2509    2510  # Hw-Ow
   2004   12    2510    2511  # Ow-Hw
   2005   12    2512    2513  # Hw-Ow
   2006   12    2513    2514  # Ow-Hw
   2007   12    2515    2516  # Hw-Ow
   2008   12    2516    2517  # Ow-Hw
   2009   12    2518    2519  # Hw-Ow
   2010   12    2519    2520  # Ow-Hw
   2011   12    2521    2522  # Hw-Ow
   2012   12    2522    2523  # Ow-Hw
   2013   12    2524    2525  # Hw-Ow
   2014   12    2525    2526  # Ow-Hw
   2015   12    2527    2528  # Hw-Ow
   2016   12    2528    2529  # Ow-Hw
   2017   12    2530    2531  # Hw-Ow
   2018   12    2531    2532  # Ow-Hw
   2019   12    2533    2534  # Hw-Ow
   2020   12    2534    2535  # Ow-Hw
   2021   12    2536    2537  # Hw-Ow
   2022   12    2537    2538  # Ow-Hw
   2023   12    2539    2540  # Hw-Ow
   2024   12    2540    2541  # Ow-Hw
   2025   12    2542    2543  # Hw-Ow
   2026   12    2543    2544  # Ow-Hw
   2027   12    2545    2546  # Hw-Ow
   2028   12    2546    2547  # Ow-Hw
   2029   12    2548    2549  # Hw-Ow
   2030   12    2549    2550  # Ow-Hw
   2031   12    2551    2552  # Hw-Ow
   2032   12    2552    2553  # Ow-Hw
   2033   12    2554    2555  # Hw-Ow
   2034   12    2555    2556  # Ow-Hw
   2035   12    2557    2558  # Hw-Ow
   2036   12    2558    2559  # Ow-Hw
   2037   12    2560    2561  # Hw-Ow
   2038   12    2561    2562  # Ow-Hw
   2039   12    2563    2564  # Hw-Ow
   2040   12    2564    2565  # Ow-Hw
   2041   12    2566    2567  # Hw-Ow
   2042   12    2567    2568  # Ow-Hw
   2043   12    2569    2570  # Hw-Ow
   2044   12    2570    2571  # Ow-Hw
   2045   12    2572    2573  # Hw-Ow
   2046   12    2573    2574  # Ow-Hw
   2047   12    2575    2576  # Hw-Ow
   2048   12    2576    2577  # Ow-Hw
   2049   12    2578    2579  # Hw-Ow
   2050   12    2579    2580  # Ow-Hw
   2051   12    2581    2582  # Hw-Ow
   2052   12    2582    2583  # Ow-Hw
   2053   12    2584    2585  # Hw-Ow
   2054   12    2585    2586  # Ow-Hw
   2055   12    2587    2588  # Hw-Ow
   2056   12    2588    2589  # Ow-Hw
   2057   12    2590    2591  # Hw-Ow
   2058   12    2591    2592  # Ow-Hw
   2059   12    2593    2594  # Hw-Ow
   2060   12    2594    2595  # Ow-Hw
   2061   12    2596    2597  # Hw-Ow
   2062   12    2597    2598  # Ow-Hw
   2063   12    2599    2600  # Hw-Ow
   2064   12    2600    2601  # Ow-Hw
   2065   12    2602    2603  # Hw-Ow
   2066   12    2603    2604  # Ow-Hw
   2067   12    2605    2606  # Hw-Ow
   2068   12    2606    2607  # Ow-Hw
   2069   12    2608    2609  # Hw-Ow
   2070   12    2609    2610  # Ow-Hw
   2071   12    2611    2612  # Hw-Ow
   2072   12    2612    2613  # Ow-Hw
   2073   12    2614    2615  # Hw-Ow
   2074   12    2615    2616  # Ow-Hw
   2075   12    2617    2618  # Hw-Ow
   2076   12    2618    2619  # Ow-Hw
   2077   12    2620    2621  # Hw-Ow
   2078   12    2621    2622  # Ow-Hw
   2079   12    2623    2624  # Hw-Ow
   2080   12    2624    2625  # Ow-Hw
   2081   12    2626    2627  # Hw-Ow
   2082   12    2627    2628  # Ow-Hw
   2083   12    2629    2630  # Hw-Ow
   2084   12    2630    2631  # Ow-Hw
   2085   12    2632    2633  # Hw-Ow
   2086   12    2633    2634  # Ow-Hw
   2087   12    2635    2636  # Hw-Ow
   2088   12    2636    2637  # Ow-Hw
   2089   12    2638    2639  # Hw-Ow
   2090   12    2639    2640  # Ow-Hw
   2091   12    2641    2642  # Hw-Ow
   2092   12    2642    2643  # Ow-Hw
   2093   12    2644    2645  # Hw-Ow
   2094   12    2645    2646  # Ow-Hw
   2095   12    2647    2648  # Hw-Ow
   2096   12    2648    2649  # Ow-Hw
   2097   12    2650    2651  # Hw-Ow
   2098   12    2651    2652  # Ow-Hw
   2099   12    2653    2654  # Hw-Ow
   2100   12    2654    2655  # Ow-Hw
   2101   12    2656    2657  # Hw-Ow
   2102   12    2657    2658  # Ow-Hw
   2103   12    2659    2660  # Hw-Ow
   2104   12    2660    2661  # Ow-Hw
   2105   12    2662    2663  # Hw-Ow
   2106   12    2663    2664  # Ow-Hw
   2107   12    2665    2666  # Hw-Ow
   2108   12    2666    2667  # Ow-Hw
   2109   12    2668    2669  # Hw-Ow
   2110   12    2669    2670  # Ow-Hw
   2111   12    2671    2672  # Hw-Ow
   2112   12    2672    2673  # Ow-Hw
   2113   12    2674    2675  # Hw-Ow
   2114   12    2675    2676  # Ow-Hw
   2115   12    2677    2678  # Hw-Ow
   2116   12    2678    2679  # Ow-Hw
   2117   12    2680    2681  # Hw-Ow
   2118   12    2681    2682  # Ow-Hw
   2119   12    2683    2684  # Hw-Ow
   2120   12    2684    2685  # Ow-Hw
   2121   12    2686    2687  # Hw-Ow
   2122   12    2687    2688  # Ow-Hw
   2123   12    2689    2690  # Hw-Ow
   2124   12    2690    2691  # Ow-Hw
   2125   12    2692    2693  # Hw-Ow
   2126   12    2693    2694  # Ow-Hw
   2127   12    2695    2696  # Hw-Ow
   2128   12    2696    2697  # Ow-Hw
   2129   12    2698    2699  # Hw-Ow
   2130   12    2699    2700  # Ow-Hw
   2131   12    2701    2702  # Hw-Ow
   2132   12    2702    2703  # Ow-Hw
   2133   12    2704    2705  # Hw-Ow
   2134   12    2705    2706  # Ow-Hw
   2135   12    2707    2708  # Hw-Ow
   2136   12    2708    2709  # Ow-Hw
   2137   12    2710    2711  # Hw-Ow
   2138   12    2711    2712  # Ow-Hw
   2139   12    2713    2714  # Hw-Ow
   2140   12    2714    2715  # Ow-Hw
   2141   12    2716    2717  # Hw-Ow
   2142   12    2717    2718  # Ow-Hw
   2143   12    2719    2720  # Hw-Ow
   2144   12    2720    2721  # Ow-Hw
   2145   12    2722    2723  # Hw-Ow
   2146   12    2723    2724  # Ow-Hw
   2147   12    2725    2726  # Hw-Ow
   2148   12    2726    2727  # Ow-Hw
   2149   12    2728    2729  # Hw-Ow
   2150   12    2729    2730  # Ow-Hw
   2151   12    2731    2732  # Hw-Ow
   2152   12    2732    2733  # Ow-Hw
   2153   12    2734    2735  # Hw-Ow
   2154   12    2735    2736  # Ow-Hw
   2155   12    2737    2738  # Hw-Ow
   2156   12    2738    2739  # Ow-Hw
   2157   12    2740    2741  # Hw-Ow
   2158   12    2741    2742  # Ow-Hw
   2159   12    2743    2744  # Hw-Ow
   2160   12    2744    2745  # Ow-Hw
   2161   12    2746    2747  # Hw-Ow
   2162   12    2747    2748  # Ow-Hw
   2163   12    2749    2750  # Hw-Ow
   2164   12    2750    2751  # Ow-Hw
   2165   12    2752    2753  # Hw-Ow
   2166   12    2753    2754  # Ow-Hw
   2167   12    2755    2756  # Hw-Ow
   2168   12    2756    2757  # Ow-Hw
   2169   12    2758    2759  # Hw-Ow
   2170   12    2759    2760  # Ow-Hw
   2171   12    2761    2762  # Hw-Ow
   2172   12    2762    2763  # Ow-Hw
   2173   12    2764    2765  # Hw-Ow
   2174   12    2765    2766  # Ow-Hw
   2175   12    2767    2768  # Hw-Ow
   2176   12    2768    2769  # Ow-Hw
   2177   12    2770    2771  # Hw-Ow
   2178   12    2771    2772  # Ow-Hw
   2179   12    2773    2774  # Hw-Ow
   2180   12    2774    2775  # Ow-Hw
   2181   12    2776    2777  # Hw-Ow
   2182   12    2777    2778  # Ow-Hw
   2183   12    2779    2780  # Hw-Ow
   2184   12    2780    2781  # Ow-Hw
   2185   12    2782    2783  # Hw-Ow
   2186   12    2783    2784  # Ow-Hw
   2187   12    2785    2786  # Hw-Ow
   2188   12    2786    2787  # Ow-Hw
   2189   12    2788    2789  # Hw-Ow
   2190   12    2789    2790  # Ow-Hw
   2191   12    2791    2792  # Hw-Ow
   2192   12    2792    2793  # Ow-Hw
   2193   12    2794    2795  # Hw-Ow
   2194   12    2795    2796  # Ow-Hw
   2195   12    2797    2798  # Hw-Ow
   2196   12    2798    2799  # Ow-Hw
   2197   12    2800    2801  # Hw-Ow
   2198   12    2801    2802  # Ow-Hw
   2199   12    2803    2804  # Hw-Ow
   2200   12    2804    2805  # Ow-Hw
   2201   12    2806    2807  # Hw-Ow
   2202   12    2807    2808  # Ow-Hw
   2203   12    2809    2810  # Hw-Ow
   2204   12    2810    2811  # Ow-Hw
   2205   12    2812    2813  # Hw-Ow
   2206   12    2813    2814  # Ow-Hw
   2207   12    2815    2816  # Hw-Ow
   2208   12    2816    2817  # Ow-Hw
   2209   12    2818    2819  # Hw-Ow
   2210   12    2819    2820  # Ow-Hw
   2211   12    2821    2822  # Hw-Ow
   2212   12    2822    2823  # Ow-Hw
   2213   12    2824    2825  # Hw-Ow
   2214   12    2825    2826  # Ow-Hw
   2215   12    2827    2828  # Hw-Ow
   2216   12    2828    2829  # Ow-Hw
   2217   12    2830    2831  # Hw-Ow
   2218   12    2831    2832  # Ow-Hw
   2219   12    2833    2834  # Hw-Ow
   2220   12    2834    2835  # Ow-Hw
   2221   12    2836    2837  # Hw-Ow
   2222   12    2837    2838  # Ow-Hw
   2223   12    2839    2840  # Hw-Ow
   2224   12    2840    2841  # Ow-Hw
   2225   12    2842    2843  # Hw-Ow
   2226   12    2843    2844  # Ow-Hw
   2227   12    2845    2846  # Hw-Ow
   2228   12    2846    2847  # Ow-Hw
   2229   12    2848    2849  # Hw-Ow
   2230   12    2849    2850  # Ow-Hw
   2231   12    2851    2852  # Hw-Ow
   2232   12    2852    2853  # Ow-Hw
   2233   12    2854    2855  # Hw-Ow
   2234   12    2855    2856  # Ow-Hw
   2235   12    2857    2858  # Hw-Ow
   2236   12    2858    2859  # Ow-Hw
   2237   12    2860    2861  # Hw-Ow
   2238   12    2861    2862  # Ow-Hw
   2239   12    2863    2864  # Hw-Ow
   2240   12    2864    2865  # Ow-Hw
   2241   12    2866    2867  # Hw-Ow
   2242   12    2867    2868  # Ow-Hw
   2243   12    2869    2870  # Hw-Ow
   2244   12    2870    2871  # Ow-Hw
   2245   12    2872    2873  # Hw-Ow
   2246   12    2873    2874  # Ow-Hw
   2247   12    2875    2876  # Hw-Ow
   2248   12    2876    2877  # Ow-Hw
   2249   12    2878    2879  # Hw-Ow
   2250   12    2879    2880  # Ow-Hw
   2251   12    2881    2882  # Hw-Ow
   2252   12    2882    2883  # Ow-Hw
   2253   12    2884    2885  # Hw-Ow
   2254   12    2885    2886  # Ow-Hw
   2255   12    2887    2888  # Hw-Ow
   2256   12    2888    2889  # Ow-Hw
   2257   12    2890    2891  # Hw-Ow
   2258   12    2891    2892  # Ow-Hw
   2259   12    2893    2894  # Hw-Ow
   2260   12    2894    2895  # Ow-Hw
   2261   12    2896    2897  # Hw-Ow
   2262   12    2897    2898  # Ow-Hw
   2263   12    2899    2900  # Hw-Ow
   2264   12    2900    2901  # Ow-Hw
   2265   12    2902    2903  # Hw-Ow
   2266   12    2903    2904  # Ow-Hw
   2267   12    2905    2906  # Hw-Ow
   2268   12    2906    2907  # Ow-Hw
   2269   12    2908    2909  # Hw-Ow
   2270   12    2909    2910  # Ow-Hw
   2271   12    2911    2912  # Hw-Ow
   2272   12    2912    2913  # Ow-Hw
   2273   12    2914    2915  # Hw-Ow
   2274   12    2915    2916  # Ow-Hw
   2275   12    2917    2918  # Hw-Ow
   2276   12    2918    2919  # Ow-Hw
   2277   12    2920    2921  # Hw-Ow
   2278   12    2921    2922  # Ow-Hw
   2279   12    2923    2924  # Hw-Ow
   2280   12    2924    2925  # Ow-Hw
   2281   12    2926    2927  # Hw-Ow
   2282   12    2927    2928  # Ow-Hw
   2283   12    2929    2930  # Hw-Ow
   2284   12    2930    2931  # Ow-Hw
   2285   12    2932    2933  # Hw-Ow
   2286   12    2933    2934  # Ow-Hw
   2287   12    2935    2936  # Hw-Ow
   2288   12    2936    2937  # Ow-Hw
   2289   12    2938    2939  # Hw-Ow
   2290   12    2939    2940  # Ow-Hw
   2291   12    2941    2942  # Hw-Ow
   2292   12    2942    2943  # Ow-Hw
   2293   12    2944    2945  # Hw-Ow
   2294   12    2945    2946  # Ow-Hw
   2295   12    2947    2948  # Hw-Ow
   2296   12    2948    2949  # Ow-Hw
   2297   12    2950    2951  # Hw-Ow
   2298   12    2951    2952  # Ow-Hw
   2299   12    2953    2954  # Hw-Ow
   2300   12    2954    2955  # Ow-Hw
   2301   12    2956    2957  # Hw-Ow
   2302   12    2957    2958  # Ow-Hw
   2303   12    2959    2960  # Hw-Ow
   2304   12    2960    2961  # Ow-Hw
   2305   12    2962    2963  # Hw-Ow
   2306   12    2963    2964  # Ow-Hw
   2307   12    2965    2966  # Hw-Ow
   2308   12    2966    2967  # Ow-Hw
   2309   12    2968    2969  # Hw-Ow
   2310   12    2969    2970  # Ow-Hw
   2311   12    2971    2972  # Hw-Ow
   2312   12    2972    2973  # Ow-Hw
   2313   12    2974    2975  # Hw-Ow
   2314   12    2975    2976  # Ow-Hw
   2315   12    2977    2978  # Hw-Ow
   2316   12    2978    2979  # Ow-Hw
   2317   12    2980    2981  # Hw-Ow
   2318   12    2981    2982  # Ow-Hw
   2319   12    2983    2984  # Hw-Ow
   2320   12    2984    2985  # Ow-Hw
   2321   12    2986    2987  # Hw-Ow
   2322   12    2987    2988  # Ow-Hw
   2323   12    2989    2990  # Hw-Ow
   2324   12    2990    2991  # Ow-Hw
   2325   12    2992    2993  # Hw-Ow
   2326   12    2993    2994  # Ow-Hw
   2327   12    2995    2996  # Hw-Ow
   2328   12    2996    2997  # Ow-Hw
   2329   12    2998    2999  # Hw-Ow
   2330   12    2999    3000  # Ow-Hw
   2331   12    3001    3002  # Hw-Ow
   2332   12    3002    3003  # Ow-Hw
   2333   12    3004    3005  # Hw-Ow
   2334   12    3005    3006  # Ow-Hw
   2335   12    3007    3008  # Hw-Ow
   2336   12    3008    3009  # Ow-Hw
   2337   12    3010    3011  # Hw-Ow
   2338   12    3011    3012  # Ow-Hw
   2339   12    3013    3014  # Hw-Ow
   2340   12    3014    3015  # Ow-Hw
   2341   12    3016    3017  # Hw-Ow
   2342   12    3017    3018  # Ow-Hw
   2343   12    3019    3020  # Hw-Ow
   2344   12    3020    3021  # Ow-Hw
   2345   12    3022    3023  # Hw-Ow
   2346   12    3023    3024  # Ow-Hw
   2347   12    3025    3026  # Hw-Ow
   2348   12    3026    3027  # Ow-Hw
   2349   12    3028    3029  # Hw-Ow
   2350   12    3029    3030  # Ow-Hw
   2351   12    3031    3032  # Hw-Ow
   2352   12    3032    3033  # Ow-Hw
   2353   12    3034    3035  # Hw-Ow
   2354   12    3035    3036  # Ow-Hw
   2355   12    3037    3038  # Hw-Ow
   2356   12    3038    3039  # Ow-Hw
   2357   12    3040    3041  # Hw-Ow
   2358   12    3041    3042  # Ow-Hw
   2359   12    3043    3044  # Hw-Ow
   2360   12    3044    3045  # Ow-Hw
   2361   12    3046    3047  # Hw-Ow
   2362   12    3047    3048  # Ow-Hw
   2363   12    3049    3050  # Hw-Ow
   2364   12    3050    3051  # Ow-Hw
   2365   12    3052    3053  # Hw-Ow
   2366   12    3053    3054  # Ow-Hw
   2367   12    3055    3056  # Hw-Ow
   2368   12    3056    3057  # Ow-Hw
   2369   12    3058    3059  # Hw-Ow
   2370   12    3059    3060  # Ow-Hw
   2371   12    3061    3062  # Hw-Ow
   2372   12    3062    3063  # Ow-Hw
   2373   12    3064    3065  # Hw-Ow
   2374   12    3065    3066  # Ow-Hw
   2375   12    3067    3068  # Hw-Ow
   2376   12    3068    3069  # Ow-Hw
   2377   12    3070    3071  # Hw-Ow
   2378   12    3071    3072  # Ow-Hw
   2379   12    3073    3074  # Hw-Ow
   2380   12    3074    3075  # Ow-Hw
   2381   12    3076    3077  # Hw-Ow
   2382   12    3077    3078  # Ow-Hw
   2383   12    3079    3080  # Hw-Ow
   2384   12    3080    3081  # Ow-Hw
   2385   12    3082    3083  # Hw-Ow
   2386   12    3083    3084  # Ow-Hw
   2387   12    3085    3086  # Hw-Ow
   2388   12    3086    3087  # Ow-Hw
   2389   12    3088    3089  # Hw-Ow
   2390   12    3089    3090  # Ow-Hw
   2391   12    3091    3092  # Hw-Ow
   2392   12    3092    3093  # Ow-Hw
   2393   12    3094    3095  # Hw-Ow
   2394   12    3095    3096  # Ow-Hw
   2395   12    3097    3098  # Hw-Ow
   2396   12    3098    3099  # Ow-Hw
   2397   12    3100    3101  # Hw-Ow
   2398   12    3101    3102  # Ow-Hw
   2399   12    3103    3104  # Hw-Ow
   2400   12    3104    3105  # Ow-Hw
   2401   12    3106    3107  # Hw-Ow
   2402   12    3107    3108  # Ow-Hw
   2403   12    3109    3110  # Hw-Ow
   2404   12    3110    3111  # Ow-Hw
   2405   12    3112    3113  # Hw-Ow
   2406   12    3113    3114  # Ow-Hw
   2407   12    3115    3116  # Hw-Ow
   2408   12    3116    3117  # Ow-Hw
   2409   12    3118    3119  # Hw-Ow
   2410   12    3119    3120  # Ow-Hw
   2411   12    3121    3122  # Hw-Ow
   2412   12    3122    3123  # Ow-Hw
   2413   12    3124    3125  # Hw-Ow
   2414   12    3125    3126  # Ow-Hw
   2415   12    3127    3128  # Hw-Ow
   2416   12    3128    3129  # Ow-Hw
   2417   12    3130    3131  # Hw-Ow
   2418   12    3131    3132  # Ow-Hw
   2419   12    3133    3134  # Hw-Ow
   2420   12    3134    3135  # Ow-Hw
   2421   12    3136    3137  # Hw-Ow
   2422   12    3137    3138  # Ow-Hw
   2423   12    3139    3140  # Hw-Ow
   2424   12    3140    3141  # Ow-Hw
   2425   12    3142    3143  # Hw-Ow
   2426   12    3143    3144  # Ow-Hw
   2427   12    3145    3146  # Hw-Ow
   2428   12    3146    3147  # Ow-Hw
   2429   12    3148    3149  # Hw-Ow
   2430   12    3149    3150  # Ow-Hw
   2431   12    3151    3152  # Hw-Ow
   2432   12    3152    3153  # Ow-Hw
   2433   12    3154    3155  # Hw-Ow
   2434   12    3155    3156  # Ow-Hw
   2435   12    3157    3158  # Hw-Ow
   2436   12    3158    3159  # Ow-Hw
   2437   12    3160    3161  # Hw-Ow
   2438   12    3161    3162  # Ow-Hw
   2439   12    3163    3164  # Hw-Ow
   2440   12    3164    3165  # Ow-Hw
   2441   12    3166    3167  # Hw-Ow
   2442   12    3167    3168  # Ow-Hw
   2443   12    3169    3170  # Hw-Ow
   2444   12    3170    3171  # Ow-Hw
   2445   12    3172    3173  # Hw-Ow
   2446   12    3173    3174  # Ow-Hw
   2447   12    3175    3176  # Hw-Ow
   2448   12    3176    3177  # Ow-Hw
   2449   12    3178    3179  # Hw-Ow
   2450   12    3179    3180  # Ow-Hw
   2451   12    3181    3182  # Hw-Ow
   2452   12    3182    3183  # Ow-Hw
   2453   12    3184    3185  # Hw-Ow
   2454   12    3185    3186  # Ow-Hw
   2455   12    3187    3188  # Hw-Ow
   2456   12    3188    3189  # Ow-Hw
   2457   12    3190    3191  # Hw-Ow
   2458   12    3191    3192  # Ow-Hw
   2459   12    3193    3194  # Hw-Ow
   2460   12    3194    3195  # Ow-Hw
   2461   12    3196    3197  # Hw-Ow
   2462   12    3197    3198  # Ow-Hw
   2463   12    3199    3200  # Hw-Ow
   2464   12    3200    3201  # Ow-Hw
   2465   12    3202    3203  # Hw-Ow
   2466   12    3203    3204  # Ow-Hw
   2467   12    3205    3206  # Hw-Ow
   2468   12    3206    3207  # Ow-Hw
   2469   12    3208    3209  # Hw-Ow
   2470   12    3209    3210  # Ow-Hw
   2471   12    3211    3212  # Hw-Ow
   2472   12    3212    3213  # Ow-Hw
   2473   12    3214    3215  # Hw-Ow
   2474   12    3215    3216  # Ow-Hw
   2475   12    3217    3218  # Hw-Ow
   2476   12    3218    3219  # Ow-Hw
   2477   12    3220    3221  # Hw-Ow
   2478   12    3221    3222  # Ow-Hw
   2479   12    3223    3224  # Hw-Ow
   2480   12    3224    3225  # Ow-Hw
   2481   12    3226    3227  # Hw-Ow
   2482   12    3227    3228  # Ow-Hw
   2483   12    3229    3230  # Hw-Ow
   2484   12    3230    3231  # Ow-Hw
   2485   12    3232    3233  # Hw-Ow
   2486   12    3233    3234  # Ow-Hw
   2487   12    3235    3236  # Hw-Ow
   2488   12    3236    3237  # Ow-Hw
   2489   12    3238    3239  # Hw-Ow
   2490   12    3239    3240  # Ow-Hw
   2491   12    3241    3242  # Hw-Ow
   2492   12    3242    3243  # Ow-Hw
   2493   12    3244    3245  # Hw-Ow
   2494   12    3245    3246  # Ow-Hw
   2495   12    3247    3248  # Hw-Ow
   2496   12    3248    3249  # Ow-Hw
   2497   12    3250    3251  # Hw-Ow
   2498   12    3251    3252  # Ow-Hw
   2499   12    3253    3254  # Hw-Ow
   2500   12    3254    3255  # Ow-Hw
   2501   12    3256    3257  # Hw-Ow
   2502   12    3257    3258  # Ow-Hw
   2503   12    3259    3260  # Hw-Ow
   2504   12    3260    3261  # Ow-Hw
   2505   12    3262    3263  # Hw-Ow
   2506   12    3263    3264  # Ow-Hw
   2507   12    3265    3266  # Hw-Ow
   2508   12    3266    3267  # Ow-Hw
   2509   12    3268    3269  # Hw-Ow
   2510   12    3269    3270  # Ow-Hw
   2511   12    3271    3272  # Hw-Ow
   2512   12    3272    3273  # Ow-Hw
   2513   12    3274    3275  # Hw-Ow
   2514   12    3275    3276  # Ow-Hw
   2515   12    3277    3278  # Hw-Ow
   2516   12    3278    3279  # Ow-Hw
   2517   12    3280    3281  # Hw-Ow
   2518   12    3281    3282  # Ow-Hw
   2519   12    3283    3284  # Hw-Ow
   2520   12    3284    3285  # Ow-Hw
   2521   12    3286    3287  # Hw-Ow
   2522   12    3287    3288  # Ow-Hw
   2523   12    3289    3290  # Hw-Ow
   2524   12    3290    3291  # Ow-Hw
   2525   12    3292    3293  # Hw-Ow
   2526   12    3293    3294  # Ow-Hw
   2527   12    3295    3296  # Hw-Ow
   2528   12    3296    3297  # Ow-Hw
   2529   12    3298    3299  # Hw-Ow
   2530   12    3299    3300  # Ow-Hw
   2531   12    3301    3302  # Hw-Ow
   2532   12    3302    3303  # Ow-Hw
   2533   12    3304    3305  # Hw-Ow
   2534   12    3305    3306  # Ow-Hw
   2535   12    3307    3308  # Hw-Ow
   2536   12    3308    3309  # Ow-Hw
   2537   12    3310    3311  # Hw-Ow
   2538   12    3311    3312  # Ow-Hw
   2539   12    3313    3314  # Hw-Ow
   2540   12    3314    3315  # Ow-Hw
   2541   12    3316    3317  # Hw-Ow
   2542   12    3317    3318  # Ow-Hw
   2543   12    3319    3320  # Hw-Ow
   2544   12    3320    3321  # Ow-Hw
   2545   12    3322    3323  # Hw-Ow
   2546   12    3323    3324  # Ow-Hw
   2547   12    3325    3326  # Hw-Ow
   2548   12    3326    3327  # Ow-Hw
   2549   12    3328    3329  # Hw-Ow
   2550   12    3329    3330  # Ow-Hw
   2551   12    3331    3332  # Hw-Ow
   2552   12    3332    3333  # Ow-Hw
   2553   12    3334    3335  # Hw-Ow
   2554   12    3335    3336  # Ow-Hw
   2555   12    3337    3338  # Hw-Ow
   2556   12    3338    3339  # Ow-Hw
   2557   12    3340    3341  # Hw-Ow
   2558   12    3341    3342  # Ow-Hw
   2559   12    3343    3344  # Hw-Ow
   2560   12    3344    3345  # Ow-Hw
   2561   12    3346    3347  # Hw-Ow
   2562   12    3347    3348  # Ow-Hw
   2563   12    3349    3350  # Hw-Ow
   2564   12    3350    3351  # Ow-Hw
   2565   12    3352    3353  # Hw-Ow
   2566   12    3353    3354  # Ow-Hw
   2567   12    3355    3356  # Hw-Ow
   2568   12    3356    3357  # Ow-Hw
   2569   12    3358    3359  # Hw-Ow
   2570   12    3359    3360  # Ow-Hw
   2571   12    3361    3362  # Hw-Ow
   2572   12    3362    3363  # Ow-Hw
   2573   12    3364    3365  # Hw-Ow
   2574   12    3365    3366  # Ow-Hw
   2575   12    3367    3368  # Hw-Ow
   2576   12    3368    3369  # Ow-Hw
   2577   12    3370    3371  # Hw-Ow
   2578   12    3371    3372  # Ow-Hw
   2579   12    3373    3374  # Hw-Ow
   2580   12    3374    3375  # Ow-Hw
   2581   12    3376    3377  # Hw-Ow
   2582   12    3377    3378  # Ow-Hw
   2583   12    3379    3380  # Hw-Ow
   2584   12    3380    3381  # Ow-Hw
   2585   12    3382    3383  # Hw-Ow
   2586   12    3383    3384  # Ow-Hw
   2587   12    3385    3386  # Hw-Ow
   2588   12    3386    3387  # Ow-Hw
   2589   12    3388    3389  # Hw-Ow
   2590   12    3389    3390  # Ow-Hw
   2591   12    3391    3392  # Hw-Ow
   2592   12    3392    3393  # Ow-Hw
   2593   12    3394    3395  # Hw-Ow
   2594   12    3395    3396  # Ow-Hw
   2595   12    3397    3398  # Hw-Ow
   2596   12    3398    3399  # Ow-Hw
   2597   12    3400    3401  # Hw-Ow
   2598   12    3401    3402  # Ow-Hw
   2599   12    3403    3404  # Hw-Ow
   2600   12    3404    3405  # Ow-Hw
   2601   12    3406    3407  # Hw-Ow
   2602   12    3407    3408  # Ow-Hw
   2603   12    3409    3410  # Hw-Ow
   2604   12    3410    3411  # Ow-Hw
   2605   12    3412    3413  # Hw-Ow
   2606   12    3413    3414  # Ow-Hw
   2607   12    3415    3416  # Hw-Ow
   2608   12    3416    3417  # Ow-Hw
   2609   12    3418    3419  # Hw-Ow
   2610   12    3419    3420  # Ow-Hw
   2611   12    3421    3422  # Hw-Ow
   2612   12    3422    3423  # Ow-Hw
   2613   12    3424    3425  # Hw-Ow
   2614   12    3425    3426  # Ow-Hw
   2615   12    3427    3428  # Hw-Ow
   2616   12    3428    3429  # Ow-Hw
   2617   12    3430    3431  # Hw-Ow
   2618   12    3431    3432  # Ow-Hw
   2619   12    3433    3434  # Hw-Ow
   2620   12    3434    3435  # Ow-Hw
   2621   12    3436    3437  # Hw-Ow
   2622   12    3437    3438  # Ow-Hw
   2623   12    3439    3440  # Hw-Ow
   2624   12    3440    3441  # Ow-Hw
   2625   12    3442    3443  # Hw-Ow
   2626   12    3443    3444  # Ow-Hw
   2627   12    3445    3446  # Hw-Ow
   2628   12    3446    3447  # Ow-Hw
   2629   12    3448    3449  # Hw-Ow
   2630   12    3449    3450  # Ow-Hw
   2631   12    3451    3452  # Hw-Ow
   2632   12    3452    3453  # Ow-Hw
   2633   12    3454    3455  # Hw-Ow
   2634   12    3455    3456  # Ow-Hw
   2635   12    3457    3458  # Hw-Ow
   2636   12    3458    3459  # Ow-Hw
   2637   12    3460    3461  # Hw-Ow
   2638   12    3461    3462  # Ow-Hw
   2639   12    3463    3464  # Hw-Ow
   2640   12    3464    3465  # Ow-Hw
   2641   12    3466    3467  # Hw-Ow
   2642   12    3467    3468  # Ow-Hw
   2643   12    3469    3470  # Hw-Ow
   2644   12    3470    3471  # Ow-Hw
   2645   12    3472    3473  # Hw-Ow
   2646   12    3473    3474  # Ow-Hw
   2647   12    3475    3476  # Hw-Ow
   2648   12    3476    3477  # Ow-Hw
   2649   12    3478    3479  # Hw-Ow
   2650   12    3479    3480  # Ow-Hw
   2651   12    3481    3482  # Hw-Ow
   2652   12    3482    3483  # Ow-Hw
   2653   12    3484    3485  # Hw-Ow
   2654   12    3485    3486  # Ow-Hw
   2655   12    3487    3488  # Hw-Ow
   2656   12    3488    3489  # Ow-Hw
   2657   12    3490    3491  # Hw-Ow
   2658   12    3491    3492  # Ow-Hw
   2659   12    3493    3494  # Hw-Ow
   2660   12    3494    3495  # Ow-Hw
   2661   12    3496    3497  # Hw-Ow
   2662   12    3497    3498  # Ow-Hw
   2663   12    3499    3500  # Hw-Ow
   2664   12    3500    3501  # Ow-Hw
   2665   12    3502    3503  # Hw-Ow
   2666   12    3503    3504  # Ow-Hw
   2667   12    3505    3506  # Hw-Ow
   2668   12    3506    3507  # Ow-Hw
   2669   12    3508    3509  # Hw-Ow
   2670   12    3509    3510  # Ow-Hw
   2671   12    3511    3512  # Hw-Ow
   2672   12    3512    3513  # Ow-Hw
   2673   12    3514    3515  # Hw-Ow
   2674   12    3515    3516  # Ow-Hw
   2675   12    3517    3518  # Hw-Ow
   2676   12    3518    3519  # Ow-Hw
   2677   12    3520    3521  # Hw-Ow
   2678   12    3521    3522  # Ow-Hw
   2679   12    3523    3524  # Hw-Ow
   2680   12    3524    3525  # Ow-Hw
   2681   12    3526    3527  # Hw-Ow
   2682   12    3527    3528  # Ow-Hw
   2683   12    3529    3530  # Hw-Ow
   2684   12    3530    3531  # Ow-Hw
   2685   12    3532    3533  # Hw-Ow
   2686   12    3533    3534  # Ow-Hw
   2687   12    3535    3536  # Hw-Ow
   2688   12    3536    3537  # Ow-Hw
   2689   12    3538    3539  # Hw-Ow
   2690   12    3539    3540  # Ow-Hw
   2691   12    3541    3542  # Hw-Ow
   2692   12    3542    3543  # Ow-Hw
   2693   12    3544    3545  # Hw-Ow
   2694   12    3545    3546  # Ow-Hw
   2695   12    3547    3548  # Hw-Ow
   2696   12    3548    3549  # Ow-Hw
   2697   12    3550    3551  # Hw-Ow
   2698   12    3551    3552  # Ow-Hw
   2699   12    3553    3554  # Hw-Ow
   2700   12    3554    3555  # Ow-Hw
   2701   12    3556    3557  # Hw-Ow
   2702   12    3557    3558  # Ow-Hw
   2703   12    3559    3560  # Hw-Ow
   2704   12    3560    3561  # Ow-Hw
   2705   12    3562    3563  # Hw-Ow
   2706   12    3563    3564  # Ow-Hw
   2707   12    3565    3566  # Hw-Ow
   2708   12    3566    3567  # Ow-Hw
   2709   12    3568    3569  # Hw-Ow
   2710   12    3569    3570  # Ow-Hw
   2711   12    3571    3572  # Hw-Ow
   2712   12    3572    3573  # Ow-Hw
   2713   12    3574    3575  # Hw-Ow
   2714   12    3575    3576  # Ow-Hw
   2715   12    3577    3578  # Hw-Ow
   2716   12    3578    3579  # Ow-Hw
   2717   12    3580    3581  # Hw-Ow
   2718   12    3581    3582  # Ow-Hw
   2719   12    3583    3584  # Hw-Ow
   2720   12    3584    3585  # Ow-Hw
   2721   12    3586    3587  # Hw-Ow
   2722   12    3587    3588  # Ow-Hw
   2723   12    3589    3590  # Hw-Ow
   2724   12    3590    3591  # Ow-Hw
   2725   12    3592    3593  # Hw-Ow
   2726   12    3593    3594  # Ow-Hw
   2727   12    3595    3596  # Hw-Ow
   2728   12    3596    3597  # Ow-Hw
   2729   12    3598    3599  # Hw-Ow
   2730   12    3599    3600  # Ow-Hw
   2731   12    3601    3602  # Hw-Ow
   2732   12    3602    3603  # Ow-Hw
   2733   12    3604    3605  # Hw-Ow
   2734   12    3605    3606  # Ow-Hw
   2735   12    3607    3608  # Hw-Ow
   2736   12    3608    3609  # Ow-Hw
   2737   12    3610    3611  # Hw-Ow
   2738   12    3611    3612  # Ow-Hw
   2739   12    3613    3614  # Hw-Ow
   2740   12    3614    3615  # Ow-Hw
   2741   12    3616    3617  # Hw-Ow
   2742   12    3617    3618  # Ow-Hw
   2743   12    3619    3620  # Hw-Ow
   2744   12    3620    3621  # Ow-Hw
   2745   12    3622    3623  # Hw-Ow
   2746   12    3623    3624  # Ow-Hw
   2747   12    3625    3626  # Hw-Ow
   2748   12    3626    3627  # Ow-Hw
   2749   12    3628    3629  # Hw-Ow
   2750   12    3629    3630  # Ow-Hw
   2751   12    3631    3632  # Hw-Ow
   2752   12    3632    3633  # Ow-Hw
   2753   12    3634    3635  # Hw-Ow
   2754   12    3635    3636  # Ow-Hw
   2755   12    3637    3638  # Hw-Ow
   2756   12    3638    3639  # Ow-Hw
   2757   12    3640    3641  # Hw-Ow
   2758   12    3641    3642  # Ow-Hw
   2759   12    3643    3644  # Hw-Ow
   2760   12    3644    3645  # Ow-Hw
   2761   12    3646    3647  # Hw-Ow
   2762   12    3647    3648  # Ow-Hw
   2763   12    3649    3650  # Hw-Ow
   2764   12    3650    3651  # Ow-Hw
   2765   12    3652    3653  # Hw-Ow
   2766   12    3653    3654  # Ow-Hw
   2767   12    3655    3656  # Hw-Ow
   2768   12    3656    3657  # Ow-Hw
   2769   12    3658    3659  # Hw-Ow
   2770   12    3659    3660  # Ow-Hw
   2771   12    3661    3662  # Hw-Ow
   2772   12    3662    3663  # Ow-Hw
   2773   12    3664    3665  # Hw-Ow
   2774   12    3665    3666  # Ow-Hw
   2775   12    3667    3668  # Hw-Ow
   2776   12    3668    3669  # Ow-Hw
   2777   12    3670    3671  # Hw-Ow
   2778   12    3671    3672  # Ow-Hw
   2779   12    3673    3674  # Hw-Ow
   2780   12    3674    3675  # Ow-Hw
   2781   12    3676    3677  # Hw-Ow
   2782   12    3677    3678  # Ow-Hw
   2783   12    3679    3680  # Hw-Ow
   2784   12    3680    3681  # Ow-Hw
   2785   12    3682    3683  # Hw-Ow
   2786   12    3683    3684  # Ow-Hw
   2787   12    3685    3686  # Hw-Ow
   2788   12    3686    3687  # Ow-Hw
   2789   12    3688    3689  # Hw-Ow
   2790   12    3689    3690  # Ow-Hw
   2791   12    3691    3692  # Hw-Ow
   2792   12    3692    3693  # Ow-Hw
   2793   12    3694    3695  # Hw-Ow
   2794   12    3695    3696  # Ow-Hw
   2795   12    3697    3698  # Hw-Ow
   2796   12    3698    3699  # Ow-Hw
   2797   12    3700    3701  # Hw-Ow
   2798   12    3701    3702  # Ow-Hw
   2799   12    3703    3704  # Hw-Ow
   2800   12    3704    3705  # Ow-Hw
   2801   12    3706    3707  # Hw-Ow
   2802   12    3707    3708  # Ow-Hw
   2803   12    3709    3710  # Hw-Ow
   2804   12    3710    3711  # Ow-Hw
   2805   12    3712    3713  # Hw-Ow
   2806   12    3713    3714  # Ow-Hw
   2807   12    3715    3716  # Hw-Ow
   2808   12    3716    3717  # Ow-Hw
   2809   12    3718    3719  # Hw-Ow
   2810   12    3719    3720  # Ow-Hw
   2811   12    3721    3722  # Hw-Ow
   2812   12    3722    3723  # Ow-Hw
   2813   12    3724    3725  # Hw-Ow
   2814   12    3725    3726  # Ow-Hw
   2815   12    3727    3728  # Hw-Ow
   2816   12    3728    3729  # Ow-Hw
   2817   12    3730    3731  # Hw-Ow
   2818   12    3731    3732  # Ow-Hw
   2819   12    3733    3734  # Hw-Ow
   2820   12    3734    3735  # Ow-Hw
   2821   12    3736    3737  # Hw-Ow
   2822   12    3737    3738  # Ow-Hw
   2823   12    3739    3740  # Hw-Ow
   2824   12    3740    3741  # Ow-Hw
   2825   12    3742    3743  # Hw-Ow
   2826   12    3743    3744  # Ow-Hw
   2827   12    3745    3746  # Hw-Ow
   2828   12    3746    3747  # Ow-Hw
   2829   12    3748    3749  # Hw-Ow
   2830   12    3749    3750  # Ow-Hw
   2831   12    3751    3752  # Hw-Ow
   2832   12    3752    3753  # Ow-Hw
   2833   12    3754    3755  # Hw-Ow
   2834   12    3755    3756  # Ow-Hw
   2835   12    3757    3758  # Hw-Ow
   2836   12    3758    3759  # Ow-Hw
   2837   12    3760    3761  # Hw-Ow
   2838   12    3761    3762  # Ow-Hw
   2839   12    3763    3764  # Hw-Ow
   2840   12    3764    3765  # Ow-Hw
   2841   12    3766    3767  # Hw-Ow
   2842   12    3767    3768  # Ow-Hw
   2843   12    3769    3770  # Hw-Ow
   2844   12    3770    3771  # Ow-Hw
   2845   12    3772    3773  # Hw-Ow
   2846   12    3773    3774  # Ow-Hw
   2847   12    3775    3776  # Hw-Ow
   2848   12    3776    3777  # Ow-Hw
   2849   12    3778    3779  # Hw-Ow
   2850   12    3779    3780  # Ow-Hw
   2851   12    3781    3782  # Hw-Ow
   2852   12    3782    3783  # Ow-Hw
   2853   12    3784    3785  # Hw-Ow
   2854   12    3785    3786  # Ow-Hw
   2855   12    3787    3788  # Hw-Ow
   2856   12    3788    3789  # Ow-Hw
   2857   12    3790    3791  # Hw-Ow
   2858   12    3791    3792  # Ow-Hw
   2859   12    3793    3794  # Hw-Ow
   2860   12    3794    3795  # Ow-Hw
   2861   12    3796    3797  # Hw-Ow
   2862   12    3797    3798  # Ow-Hw
   2863   12    3799    3800  # Hw-Ow
   2864   12    3800    3801  # Ow-Hw
   2865   12    3802    3803  # Hw-Ow
   2866   12    3803    3804  # Ow-Hw
   2867   12    3805    3806  # Hw-Ow
   2868   12    3806    3807  # Ow-Hw
   2869   12    3808    3809  # Hw-Ow
   2870   12    3809    3810  # Ow-Hw

Angles

      1    1      31       7      25  # C30-N6-C24
      2    2      31       7      64  # C30-N6-H63
      3    3      25       7      64  # C24-N6-H63
      4    2      65       8      32  # H64-N7-C31
      5    3      65       8      26  # H64-N7-C25
      6    1      32       8      26  # C31-N7-C25
      7    3      27       9      66  # C26-N8-H65
      8    1      27       9      33  # C26-N8-C32
      9    2      66       9      33  # H65-N8-C32
     10    3      67      10      28  # H66-N9-C27
     11    2      67      10      34  # H66-N9-C33
     12    1      28      10      34  # C27-N9-C33
     13    1      29      11      35  # C28-N10-C34
     14    3      29      11      68  # C28-N10-H67
     15    2      35      11      68  # C34-N10-H67
     16    2      36      12      69  # C35-N11-H68
     17    1      36      12      30  # C35-N11-C29
     18    3      69      12      30  # H68-N11-C29
     19    4      19      13       1  # C18-C12-O0
     20    5      19      13      21  # C18-C12-C20
     21    4       1      13      21  # O0-C12-C20
     22    4       2      14      20  # O1-C13-C19
     23    4       2      14      19  # O1-C13-C18
     24    5      20      14      19  # C19-C13-C18
     25    4       3      15      20  # O2-C14-C19
     26    4       3      15      21  # O2-C14-C20
     27    5      20      15      21  # C19-C14-C20
     28    4      24      16       4  # C23-C15-O3
     29    5      24      16      22  # C23-C15-C21
     30    4       4      16      22  # O3-C15-C21
     31    5      22      17      23  # C21-C16-C22
     32    4      22      17       5  # C21-C16-O4
     33    4      23      17       5  # C22-C16-O4
     34    4       6      18      24  # O5-C17-C23
     35    4       6      18      23  # O5-C17-C22
     36    5      24      18      23  # C23-C17-C22
     37    6      13      19      14  # C12-C18-C13
     38    7      13      19      25  # C12-C18-C24
     39    7      14      19      25  # C13-C18-C24
     40    6      14      20      15  # C13-C19-C14
     41    7      14      20      26  # C13-C19-C25
     42    7      15      20      26  # C14-C19-C25
     43    6      13      21      15  # C12-C20-C14
     44    7      13      21      27  # C12-C20-C26
     45    7      15      21      27  # C14-C20-C26
     46    6      16      22      17  # C15-C21-C16
     47    7      16      22      28  # C15-C21-C27
     48    7      17      22      28  # C16-C21-C27
     49    6      17      23      18  # C16-C22-C17
     50    7      17      23      29  # C16-C22-C28
     51    7      18      23      29  # C17-C22-C28
     52    6      16      24      18  # C15-C23-C17
     53    7      16      24      30  # C15-C23-C29
     54    7      18      24      30  # C17-C23-C29
     55    8      55      25       7  # H54-C24-N6
     56    9      55      25      19  # H54-C24-C18
     57   10       7      25      19  # N6-C24-C18
     58   10       8      26      20  # N7-C25-C19
     59    8       8      26      56  # N7-C25-H55
     60    9      20      26      56  # C19-C25-H55
     61   10       9      27      21  # N8-C26-C20
     62    8       9      27      57  # N8-C26-H56
     63    9      21      27      57  # C20-C26-H56
     64    8      10      28      58  # N9-C27-H57
     65   10      10      28      22  # N9-C27-C21
     66    9      58      28      22  # H57-C27-C21
     67    8      11      29      59  # N10-C28-H58
     68   10      11      29      23  # N10-C28-C22
     69    9      59      29      23  # H58-C28-C22
     70    8      12      30      60  # N11-C29-H59
     71   10      12      30      24  # N11-C29-C23
     72    9      60      30      24  # H59-C29-C23
     73   11       7      31      43  # N6-C30-C42
     74   11       7      31      37  # N6-C30-C36
     75   12      43      31      37  # C42-C30-C36
     76   11       8      32      38  # N7-C31-C37
     77   11       8      32      44  # N7-C31-C43
     78   12      38      32      44  # C37-C31-C43
     79   11       9      33      39  # N8-C32-C38
     80   11       9      33      45  # N8-C32-C44
     81   12      39      33      45  # C38-C32-C44
     82   11      10      34      40  # N9-C33-C39
     83   11      10      34      46  # N9-C33-C45
     84   12      40      34      46  # C39-C33-C45
     85   11      11      35      47  # N10-C34-C46
     86   11      11      35      41  # N10-C34-C40
     87   12      47      35      41  # C46-C34-C40
     88   11      12      36      48  # N11-C35-C47
     89   11      12      36      42  # N11-C35-C41
     90   12      48      36      42  # C47-C35-C41
     91   12      31      37      46  # C30-C36-C45
     92   13      31      37      49  # C30-C36-H48
     93   13      46      37      49  # C45-C36-H48
     94   13      32      38      50  # C31-C37-H49
     95   12      32      38     128  # C31-C37-C46
     96   13      50      38     128  # H49-C37-C46
     97   13      33      39      51  # C32-C38-H50
     98   12      33      39     129  # C32-C38-C47
     99   13      51      39     129  # H50-C38-C47
    100   13      34      40      52  # C33-C39-H51
    101   12      34      40      43  # C33-C39-C42
    102   13      52      40      43  # H51-C39-C42
    103   12      35      41     125  # C34-C40-C43
    104   13      35      41      53  # C34-C40-H52
    105   13     125      41      53  # C43-C40-H52
    106   13     126      42      54  # C44-C41-H53
    107   12     126      42      36  # C44-C41-C35
    108   13      54      42      36  # H53-C41-C35
    109   12      31      43      40  # C30-C42-C39
    110   13      31      43      61  # C30-C42-H60
    111   13      40      43      61  # C39-C42-H60
    112   12     122      44      32  # C40-C43-C31
    113   13     122      44      62  # C40-C43-H61
    114   13      32      44      62  # C31-C43-H61
    115   13      33      45      63  # C32-C44-H62
    116   12      33      45     123  # C32-C44-C41
    117   13      63      45     123  # H62-C44-C41
    118   12      34      46      37  # C33-C45-C36
    119   14      34      46      70  # C33-C45-S69
    120   14      37      46      70  # C36-C45-S69
    121   14      74      47      35  # S73-C46-C34
    122   14      74      47     119  # S73-C46-C37
    123   12      35      47     119  # C34-C46-C37
    124   12      36      48     120  # C35-C47-C38
    125   14      36      48      78  # C35-C47-S77
    126   14     120      48      78  # C38-C47-S77
    127   15      72      70      46  # O71-S69-C45
    128   16      72      70      73  # O71-S69-O72
    129   16      72      70      71  # O71-S69-O70
    130   15      46      70      73  # C45-S69-O72
    131   15      46      70      71  # C45-S69-O70
    132   16      73      70      71  # O72-S69-O70
    133   15      47      74      76  # C46-S73-O75
    134   15      47      74      75  # C46-S73-O74
    135   15      47      74      77  # C46-S73-O76
    136   16      76      74      75  # O75-S73-O74
    137   16      76      74      77  # O75-S73-O76
    138   16      75      74      77  # O74-S73-O76
    139   15      48      78      79  # C47-S77-O78
    140   15      48      78      80  # C47-S77-O79
    141   15      48      78      81  # C47-S77-O80
    142   16      79      78      80  # O78-S77-O79
    143   16      79      78      81  # O78-S77-O80
    144   16      80      78      81  # O79-S77-O80
    145    1     106      88     112  # C24-N6-C30
    146    3     106      88     145  # C24-N6-H63
    147    2     112      88     145  # C30-N6-H63
    148    1     113      89     107  # C31-N7-C25
    149    2     113      89     146  # C31-N7-H64
    150    3     107      89     146  # C25-N7-H64
    151    3     108      90     147  # C26-N8-H65
    152    1     108      90     114  # C26-N8-C32
    153    2     147      90     114  # H65-N8-C32
    154    2     148      91     115  # H66-N9-C33
    155    3     148      91     109  # H66-N9-C27
    156    1     115      91     109  # C33-N9-C27
    157    3     110      92     149  # C28-N10-H67
    158    1     110      92     116  # C28-N10-C34
    159    2     149      92     116  # H67-N10-C34
    160    2     117      93     150  # C35-N11-H68
    161    1     117      93     111  # C35-N11-C29
    162    3     150      93     111  # H68-N11-C29
    163    4      82      94     100  # O0-C12-C18
    164    4      82      94     102  # O0-C12-C20
    165    5     100      94     102  # C18-C12-C20
    166    4      83      95     100  # O1-C13-C18
    167    4      83      95     101  # O1-C13-C19
    168    5     100      95     101  # C18-C13-C19
    169    4      84      96     101  # O2-C14-C19
    170    4      84      96     102  # O2-C14-C20
    171    5     101      96     102  # C19-C14-C20
    172    4      85      97     105  # O3-C15-C23
    173    4      85      97     103  # O3-C15-C21
    174    5     105      97     103  # C23-C15-C21
    175    4      86      98     104  # O4-C16-C22
    176    4      86      98     103  # O4-C16-C21
    177    5     104      98     103  # C22-C16-C21
    178    4      87      99     105  # O5-C17-C23
    179    4      87      99     104  # O5-C17-C22
    180    5     105      99     104  # C23-C17-C22
    181    7      94     100     106  # C12-C18-C24
    182    6      94     100      95  # C12-C18-C13
    183    7     106     100      95  # C24-C18-C13
    184    6      95     101      96  # C13-C19-C14
    185    7      95     101     107  # C13-C19-C25
    186    7      96     101     107  # C14-C19-C25
    187    6      94     102      96  # C12-C20-C14
    188    7      94     102     108  # C12-C20-C26
    189    7      96     102     108  # C14-C20-C26
    190    6      97     103      98  # C15-C21-C16
    191    7      97     103     109  # C15-C21-C27
    192    7      98     103     109  # C16-C21-C27
    193    6      98     104      99  # C16-C22-C17
    194    7      98     104     110  # C16-C22-C28
    195    7      99     104     110  # C17-C22-C28
    196    7      97     105     111  # C15-C23-C29
    197    6      97     105      99  # C15-C23-C17
    198    7     111     105      99  # C29-C23-C17
    199   10      88     106     100  # N6-C24-C18
    200    8      88     106     136  # N6-C24-H54
    201    9     100     106     136  # C18-C24-H54
    202    8      89     107     137  # N7-C25-H55
    203   10      89     107     101  # N7-C25-C19
    204    9     137     107     101  # H55-C25-C19
    205   10      90     108     102  # N8-C26-C20
    206    8      90     108     138  # N8-C26-H56
    207    9     102     108     138  # C20-C26-H56
    208   10      91     109     103  # N9-C27-C21
    209    8      91     109     139  # N9-C27-H57
    210    9     103     109     139  # C21-C27-H57
    211    8     140     110      92  # H58-C28-N10
    212    9     140     110     104  # H58-C28-C22
    213   10      92     110     104  # N10-C28-C22
    214   10      93     111     105  # N11-C29-C23
    215    8      93     111     141  # N11-C29-H59
    216    9     105     111     141  # C23-C29-H59
    217   11      88     112     124  # N6-C30-C42
    218   11      88     112     118  # N6-C30-C36
    219   12     124     112     118  # C42-C30-C36
    220   11      89     113     119  # N7-C31-C37
    221   11      89     113     125  # N7-C31-C43
    222   12     119     113     125  # C37-C31-C43
    223   11      90     114     126  # N8-C32-C44
    224   11      90     114     120  # N8-C32-C38
    225   12     126     114     120  # C44-C32-C38
    226   11      91     115     121  # N9-C33-C39
    227   11      91     115     127  # N9-C33-C45
    228   12     121     115     127  # C39-C33-C45
    229   11      92     116     128  # N10-C34-C46
    230   11      92     116     122  # N10-C34-C40
    231   12     128     116     122  # C46-C34-C40
    232   11      93     117     123  # N11-C35-C41
    233   11      93     117     129  # N11-C35-C47
    234   12     123     117     129  # C41-C35-C47
    235   12     127     118     112  # C45-C36-C30
    236   13     127     118     130  # C45-C36-H48
    237   13     112     118     130  # C30-C36-H48
    238   12      47     119     113  # C46-C37-C31
    239   13      47     119     131  # C46-C37-H49
    240   13     113     119     131  # C31-C37-H49
    241   13      48     120     132  # C47-C38-H50
    242   12      48     120     114  # C47-C38-C32
    243   13     132     120     114  # H50-C38-C32
    244   13     133     121     115  # H51-C39-C33
    245   13     133     121     124  # H51-C39-C42
    246   12     115     121     124  # C33-C39-C42
    247   12      44     122     116  # C43-C40-C34
    248   13      44     122     134  # C43-C40-H52
    249   13     116     122     134  # C34-C40-H52
    250   12      45     123     117  # C44-C41-C35
    251   13      45     123     135  # C44-C41-H53
    252   13     117     123     135  # C35-C41-H53
    253   12     112     124     121  # C30-C42-C39
    254   13     112     124     142  # C30-C42-H60
    255   13     121     124     142  # C39-C42-H60
    256   12      41     125     113  # C40-C43-C31
    257   13      41     125     143  # C40-C43-H61
    258   13     113     125     143  # C31-C43-H61
    259   12      42     126     114  # C41-C44-C32
    260   13      42     126     144  # C41-C44-H62
    261   13     114     126     144  # C32-C44-H62
    262   12     118     127     115  # C36-C45-C33
    263   14     118     127     151  # C36-C45-S69
    264   14     115     127     151  # C33-C45-S69
    265   14      38     128     155  # C37-C46-S73
    266   12      38     128     116  # C37-C46-C34
    267   14     155     128     116  # S73-C46-C34
    268   12      39     129     117  # C38-C47-C35
    269   14      39     129     159  # C38-C47-S77
    270   14     117     129     159  # C35-C47-S77
    271   15     127     151     153  # C45-S69-O71
    272   15     127     151     154  # C45-S69-O72
    273   15     127     151     152  # C45-S69-O70
    274   16     153     151     154  # O71-S69-O72
    275   16     153     151     152  # O71-S69-O70
    276   16     154     151     152  # O72-S69-O70
    277   15     128     155     157  # C46-S73-O75
    278   15     128     155     158  # C46-S73-O76
    279   15     128     155     156  # C46-S73-O74
    280   16     157     155     158  # O75-S73-O76
    281   16     157     155     156  # O75-S73-O74
    282   16     158     155     156  # O76-S73-O74
    283   15     160     159     129  # O78-S77-C47
    284   16     160     159     161  # O78-S77-O79
    285   16     160     159     162  # O78-S77-O80
    286   15     129     159     161  # C47-S77-O79
    287   15     129     159     162  # C47-S77-O80
    288   16     161     159     162  # O79-S77-O80
    289    1     193     169     187  # C30-N6-C24
    290    2     193     169     226  # C30-N6-H63
    291    3     187     169     226  # C24-N6-H63
    292    2     227     170     194  # H64-N7-C31
    293    3     227     170     188  # H64-N7-C25
    294    1     194     170     188  # C31-N7-C25
    295    3     189     171     228  # C26-N8-H65
    296    1     189     171     195  # C26-N8-C32
    297    2     228     171     195  # H65-N8-C32
    298    3     229     172     190  # H66-N9-C27
    299    2     229     172     196  # H66-N9-C33
    300    1     190     172     196  # C27-N9-C33
    301    1     191     173     197  # C28-N10-C34
    302    3     191     173     230  # C28-N10-H67
    303    2     197     173     230  # C34-N10-H67
    304    2     198     174     231  # C35-N11-H68
    305    1     198     174     192  # C35-N11-C29
    306    3     231     174     192  # H68-N11-C29
    307    4     181     175     163  # C18-C12-O0
    308    5     181     175     183  # C18-C12-C20
    309    4     163     175     183  # O0-C12-C20
    310    4     164     176     182  # O1-C13-C19
    311    4     164     176     181  # O1-C13-C18
    312    5     182     176     181  # C19-C13-C18
    313    4     165     177     182  # O2-C14-C19
    314    4     165     177     183  # O2-C14-C20
    315    5     182     177     183  # C19-C14-C20
    316    4     186     178     166  # C23-C15-O3
    317    5     186     178     184  # C23-C15-C21
    318    4     166     178     184  # O3-C15-C21
    319    5     184     179     185  # C21-C16-C22
    320    4     184     179     167  # C21-C16-O4
    321    4     185     179     167  # C22-C16-O4
    322    4     168     180     186  # O5-C17-C23
    323    4     168     180     185  # O5-C17-C22
    324    5     186     180     185  # C23-C17-C22
    325    6     175     181     176  # C12-C18-C13
    326    7     175     181     187  # C12-C18-C24
    327    7     176     181     187  # C13-C18-C24
    328    6     176     182     177  # C13-C19-C14
    329    7     176     182     188  # C13-C19-C25
    330    7     177     182     188  # C14-C19-C25
    331    6     175     183     177  # C12-C20-C14
    332    7     175     183     189  # C12-C20-C26
    333    7     177     183     189  # C14-C20-C26
    334    6     178     184     179  # C15-C21-C16
    335    7     178     184     190  # C15-C21-C27
    336    7     179     184     190  # C16-C21-C27
    337    6     179     185     180  # C16-C22-C17
    338    7     179     185     191  # C16-C22-C28
    339    7     180     185     191  # C17-C22-C28
    340    6     178     186     180  # C15-C23-C17
    341    7     178     186     192  # C15-C23-C29
    342    7     180     186     192  # C17-C23-C29
    343    8     217     187     169  # H54-C24-N6
    344    9     217     187     181  # H54-C24-C18
    345   10     169     187     181  # N6-C24-C18
    346   10     170     188     182  # N7-C25-C19
    347    8     170     188     218  # N7-C25-H55
    348    9     182     188     218  # C19-C25-H55
    349   10     171     189     183  # N8-C26-C20
    350    8     171     189     219  # N8-C26-H56
    351    9     183     189     219  # C20-C26-H56
    352    8     172     190     220  # N9-C27-H57
    353   10     172     190     184  # N9-C27-C21
    354    9     220     190     184  # H57-C27-C21
    355    8     173     191     221  # N10-C28-H58
    356   10     173     191     185  # N10-C28-C22
    357    9     221     191     185  # H58-C28-C22
    358    8     174     192     222  # N11-C29-H59
    359   10     174     192     186  # N11-C29-C23
    360    9     222     192     186  # H59-C29-C23
    361   11     169     193     205  # N6-C30-C42
    362   11     169     193     199  # N6-C30-C36
    363   12     205     193     199  # C42-C30-C36
    364   11     170     194     200  # N7-C31-C37
    365   11     170     194     206  # N7-C31-C43
    366   12     200     194     206  # C37-C31-C43
    367   11     171     195     201  # N8-C32-C38
    368   11     171     195     207  # N8-C32-C44
    369   12     201     195     207  # C38-C32-C44
    370   11     172     196     202  # N9-C33-C39
    371   11     172     196     208  # N9-C33-C45
    372   12     202     196     208  # C39-C33-C45
    373   11     173     197     209  # N10-C34-C46
    374   11     173     197     203  # N10-C34-C40
    375   12     209     197     203  # C46-C34-C40
    376   11     174     198     210  # N11-C35-C47
    377   11     174     198     204  # N11-C35-C41
    378   12     210     198     204  # C47-C35-C41
    379   12     193     199     208  # C30-C36-C45
    380   13     193     199     211  # C30-C36-H48
    381   13     208     199     211  # C45-C36-H48
    382   13     194     200     212  # C31-C37-H49
    383   12     194     200     290  # C31-C37-C46
    384   13     212     200     290  # H49-C37-C46
    385   13     195     201     213  # C32-C38-H50
    386   12     195     201     291  # C32-C38-C47
    387   13     213     201     291  # H50-C38-C47
    388   13     196     202     214  # C33-C39-H51
    389   12     196     202     205  # C33-C39-C42
    390   13     214     202     205  # H51-C39-C42
    391   12     197     203     287  # C34-C40-C43
    392   13     197     203     215  # C34-C40-H52
    393   13     287     203     215  # C43-C40-H52
    394   13     288     204     216  # C44-C41-H53
    395   12     288     204     198  # C44-C41-C35
    396   13     216     204     198  # H53-C41-C35
    397   12     193     205     202  # C30-C42-C39
    398   13     193     205     223  # C30-C42-H60
    399   13     202     205     223  # C39-C42-H60
    400   12     284     206     194  # C40-C43-C31
    401   13     284     206     224  # C40-C43-H61
    402   13     194     206     224  # C31-C43-H61
    403   13     195     207     225  # C32-C44-H62
    404   12     195     207     285  # C32-C44-C41
    405   13     225     207     285  # H62-C44-C41
    406   12     196     208     199  # C33-C45-C36
    407   14     196     208     232  # C33-C45-S69
    408   14     199     208     232  # C36-C45-S69
    409   14     236     209     197  # S73-C46-C34
    410   14     236     209     281  # S73-C46-C37
    411   12     197     209     281  # C34-C46-C37
    412   12     198     210     282  # C35-C47-C38
    413   14     198     210     240  # C35-C47-S77
    414   14     282     210     240  # C38-C47-S77
    415   15     234     232     208  # O71-S69-C45
    416   16     234     232     235  # O71-S69-O72
    417   16     234     232     233  # O71-S69-O70
    418   15     208     232     235  # C45-S69-O72
    419   15     208     232     233  # C45-S69-O70
    420   16     235     232     233  # O72-S69-O70
    421   15     209     236     238  # C46-S73-O75
    422   15     209     236     237  # C46-S73-O74
    423   15     209     236     239  # C46-S73-O76
    424   16     238     236     237  # O75-S73-O74
    425   16     238     236     239  # O75-S73-O76
    426   16     237     236     239  # O74-S73-O76
    427   15     210     240     241  # C47-S77-O78
    428   15     210     240     242  # C47-S77-O79
    429   15     210     240     243  # C47-S77-O80
    430   16     241     240     242  # O78-S77-O79
    431   16     241     240     243  # O78-S77-O80
    432   16     242     240     243  # O79-S77-O80
    433    1     268     250     274  # C24-N6-C30
    434    3     268     250     307  # C24-N6-H63
    435    2     274     250     307  # C30-N6-H63
    436    1     275     251     269  # C31-N7-C25
    437    2     275     251     308  # C31-N7-H64
    438    3     269     251     308  # C25-N7-H64
    439    3     270     252     309  # C26-N8-H65
    440    1     270     252     276  # C26-N8-C32
    441    2     309     252     276  # H65-N8-C32
    442    2     310     253     277  # H66-N9-C33
    443    3     310     253     271  # H66-N9-C27
    444    1     277     253     271  # C33-N9-C27
    445    3     272     254     311  # C28-N10-H67
    446    1     272     254     278  # C28-N10-C34
    447    2     311     254     278  # H67-N10-C34
    448    2     279     255     312  # C35-N11-H68
    449    1     279     255     273  # C35-N11-C29
    450    3     312     255     273  # H68-N11-C29
    451    4     244     256     262  # O0-C12-C18
    452    4     244     256     264  # O0-C12-C20
    453    5     262     256     264  # C18-C12-C20
    454    4     245     257     262  # O1-C13-C18
    455    4     245     257     263  # O1-C13-C19
    456    5     262     257     263  # C18-C13-C19
    457    4     246     258     263  # O2-C14-C19
    458    4     246     258     264  # O2-C14-C20
    459    5     263     258     264  # C19-C14-C20
    460    4     247     259     267  # O3-C15-C23
    461    4     247     259     265  # O3-C15-C21
    462    5     267     259     265  # C23-C15-C21
    463    4     248     260     266  # O4-C16-C22
    464    4     248     260     265  # O4-C16-C21
    465    5     266     260     265  # C22-C16-C21
    466    4     249     261     267  # O5-C17-C23
    467    4     249     261     266  # O5-C17-C22
    468    5     267     261     266  # C23-C17-C22
    469    7     256     262     268  # C12-C18-C24
    470    6     256     262     257  # C12-C18-C13
    471    7     268     262     257  # C24-C18-C13
    472    6     257     263     258  # C13-C19-C14
    473    7     257     263     269  # C13-C19-C25
    474    7     258     263     269  # C14-C19-C25
    475    6     256     264     258  # C12-C20-C14
    476    7     256     264     270  # C12-C20-C26
    477    7     258     264     270  # C14-C20-C26
    478    6     259     265     260  # C15-C21-C16
    479    7     259     265     271  # C15-C21-C27
    480    7     260     265     271  # C16-C21-C27
    481    6     260     266     261  # C16-C22-C17
    482    7     260     266     272  # C16-C22-C28
    483    7     261     266     272  # C17-C22-C28
    484    7     259     267     273  # C15-C23-C29
    485    6     259     267     261  # C15-C23-C17
    486    7     273     267     261  # C29-C23-C17
    487   10     250     268     262  # N6-C24-C18
    488    8     250     268     298  # N6-C24-H54
    489    9     262     268     298  # C18-C24-H54
    490    8     251     269     299  # N7-C25-H55
    491   10     251     269     263  # N7-C25-C19
    492    9     299     269     263  # H55-C25-C19
    493   10     252     270     264  # N8-C26-C20
    494    8     252     270     300  # N8-C26-H56
    495    9     264     270     300  # C20-C26-H56
    496   10     253     271     265  # N9-C27-C21
    497    8     253     271     301  # N9-C27-H57
    498    9     265     271     301  # C21-C27-H57
    499    8     302     272     254  # H58-C28-N10
    500    9     302     272     266  # H58-C28-C22
    501   10     254     272     266  # N10-C28-C22
    502   10     255     273     267  # N11-C29-C23
    503    8     255     273     303  # N11-C29-H59
    504    9     267     273     303  # C23-C29-H59
    505   11     250     274     286  # N6-C30-C42
    506   11     250     274     280  # N6-C30-C36
    507   12     286     274     280  # C42-C30-C36
    508   11     251     275     281  # N7-C31-C37
    509   11     251     275     287  # N7-C31-C43
    510   12     281     275     287  # C37-C31-C43
    511   11     252     276     288  # N8-C32-C44
    512   11     252     276     282  # N8-C32-C38
    513   12     288     276     282  # C44-C32-C38
    514   11     253     277     283  # N9-C33-C39
    515   11     253     277     289  # N9-C33-C45
    516   12     283     277     289  # C39-C33-C45
    517   11     254     278     290  # N10-C34-C46
    518   11     254     278     284  # N10-C34-C40
    519   12     290     278     284  # C46-C34-C40
    520   11     255     279     285  # N11-C35-C41
    521   11     255     279     291  # N11-C35-C47
    522   12     285     279     291  # C41-C35-C47
    523   12     289     280     274  # C45-C36-C30
    524   13     289     280     292  # C45-C36-H48
    525   13     274     280     292  # C30-C36-H48
    526   12     209     281     275  # C46-C37-C31
    527   13     209     281     293  # C46-C37-H49
    528   13     275     281     293  # C31-C37-H49
    529   13     210     282     294  # C47-C38-H50
    530   12     210     282     276  # C47-C38-C32
    531   13     294     282     276  # H50-C38-C32
    532   13     295     283     277  # H51-C39-C33
    533   13     295     283     286  # H51-C39-C42
    534   12     277     283     286  # C33-C39-C42
    535   12     206     284     278  # C43-C40-C34
    536   13     206     284     296  # C43-C40-H52
    537   13     278     284     296  # C34-C40-H52
    538   12     207     285     279  # C44-C41-C35
    539   13     207     285     297  # C44-C41-H53
    540   13     279     285     297  # C35-C41-H53
    541   12     274     286     283  # C30-C42-C39
    542   13     274     286     304  # C30-C42-H60
    543   13     283     286     304  # C39-C42-H60
    544   12     203     287     275  # C40-C43-C31
    545   13     203     287     305  # C40-C43-H61
    546   13     275     287     305  # C31-C43-H61
    547   12     204     288     276  # C41-C44-C32
    548   13     204     288     306  # C41-C44-H62
    549   13     276     288     306  # C32-C44-H62
    550   12     280     289     277  # C36-C45-C33
    551   14     280     289     313  # C36-C45-S69
    552   14     277     289     313  # C33-C45-S69
    553   14     200     290     317  # C37-C46-S73
    554   12     200     290     278  # C37-C46-C34
    555   14     317     290     278  # S73-C46-C34
    556   12     201     291     279  # C38-C47-C35
    557   14     201     291     321  # C38-C47-S77
    558   14     279     291     321  # C35-C47-S77
    559   15     289     313     315  # C45-S69-O71
    560   15     289     313     316  # C45-S69-O72
    561   15     289     313     314  # C45-S69-O70
    562   16     315     313     316  # O71-S69-O72
    563   16     315     313     314  # O71-S69-O70
    564   16     316     313     314  # O72-S69-O70
    565   15     290     317     319  # C46-S73-O75
    566   15     290     317     320  # C46-S73-O76
    567   15     290     317     318  # C46-S73-O74
    568   16     319     317     320  # O75-S73-O76
    569   16     319     317     318  # O75-S73-O74
    570   16     320     317     318  # O76-S73-O74
    571   15     322     321     291  # O78-S77-C47
    572   16     322     321     323  # O78-S77-O79
    573   16     322     321     324  # O78-S77-O80
    574   15     291     321     323  # C47-S77-O79
    575   15     291     321     324  # C47-S77-O80
    576   16     323     321     324  # O79-S77-O80
    577    1     355     331     349  # C30-N6-C24
    578    2     355     331     388  # C30-N6-H63
    579    3     349     331     388  # C24-N6-H63
    580    2     389     332     356  # H64-N7-C31
    581    3     389     332     350  # H64-N7-C25
    582    1     356     332     350  # C31-N7-C25
    583    3     351     333     390  # C26-N8-H65
    584    1     351     333     357  # C26-N8-C32
    585    2     390     333     357  # H65-N8-C32
    586    3     391     334     352  # H66-N9-C27
    587    2     391     334     358  # H66-N9-C33
    588    1     352     334     358  # C27-N9-C33
    589    1     353     335     359  # C28-N10-C34
    590    3     353     335     392  # C28-N10-H67
    591    2     359     335     392  # C34-N10-H67
    592    2     360     336     393  # C35-N11-H68
    593    1     360     336     354  # C35-N11-C29
    594    3     393     336     354  # H68-N11-C29
    595    4     343     337     325  # C18-C12-O0
    596    5     343     337     345  # C18-C12-C20
    597    4     325     337     345  # O0-C12-C20
    598    4     326     338     344  # O1-C13-C19
    599    4     326     338     343  # O1-C13-C18
    600    5     344     338     343  # C19-C13-C18
    601    4     327     339     344  # O2-C14-C19
    602    4     327     339     345  # O2-C14-C20
    603    5     344     339     345  # C19-C14-C20
    604    4     348     340     328  # C23-C15-O3
    605    5     348     340     346  # C23-C15-C21
    606    4     328     340     346  # O3-C15-C21
    607    5     346     341     347  # C21-C16-C22
    608    4     346     341     329  # C21-C16-O4
    609    4     347     341     329  # C22-C16-O4
    610    4     330     342     348  # O5-C17-C23
    611    4     330     342     347  # O5-C17-C22
    612    5     348     342     347  # C23-C17-C22
    613    6     337     343     338  # C12-C18-C13
    614    7     337     343     349  # C12-C18-C24
    615    7     338     343     349  # C13-C18-C24
    616    6     338     344     339  # C13-C19-C14
    617    7     338     344     350  # C13-C19-C25
    618    7     339     344     350  # C14-C19-C25
    619    6     337     345     339  # C12-C20-C14
    620    7     337     345     351  # C12-C20-C26
    621    7     339     345     351  # C14-C20-C26
    622    6     340     346     341  # C15-C21-C16
    623    7     340     346     352  # C15-C21-C27
    624    7     341     346     352  # C16-C21-C27
    625    6     341     347     342  # C16-C22-C17
    626    7     341     347     353  # C16-C22-C28
    627    7     342     347     353  # C17-C22-C28
    628    6     340     348     342  # C15-C23-C17
    629    7     340     348     354  # C15-C23-C29
    630    7     342     348     354  # C17-C23-C29
    631    8     379     349     331  # H54-C24-N6
    632    9     379     349     343  # H54-C24-C18
    633   10     331     349     343  # N6-C24-C18
    634   10     332     350     344  # N7-C25-C19
    635    8     332     350     380  # N7-C25-H55
    636    9     344     350     380  # C19-C25-H55
    637   10     333     351     345  # N8-C26-C20
    638    8     333     351     381  # N8-C26-H56
    639    9     345     351     381  # C20-C26-H56
    640    8     334     352     382  # N9-C27-H57
    641   10     334     352     346  # N9-C27-C21
    642    9     382     352     346  # H57-C27-C21
    643    8     335     353     383  # N10-C28-H58
    644   10     335     353     347  # N10-C28-C22
    645    9     383     353     347  # H58-C28-C22
    646    8     336     354     384  # N11-C29-H59
    647   10     336     354     348  # N11-C29-C23
    648    9     384     354     348  # H59-C29-C23
    649   11     331     355     367  # N6-C30-C42
    650   11     331     355     361  # N6-C30-C36
    651   12     367     355     361  # C42-C30-C36
    652   11     332     356     362  # N7-C31-C37
    653   11     332     356     368  # N7-C31-C43
    654   12     362     356     368  # C37-C31-C43
    655   11     333     357     363  # N8-C32-C38
    656   11     333     357     369  # N8-C32-C44
    657   12     363     357     369  # C38-C32-C44
    658   11     334     358     364  # N9-C33-C39
    659   11     334     358     370  # N9-C33-C45
    660   12     364     358     370  # C39-C33-C45
    661   11     335     359     371  # N10-C34-C46
    662   11     335     359     365  # N10-C34-C40
    663   12     371     359     365  # C46-C34-C40
    664   11     336     360     372  # N11-C35-C47
    665   11     336     360     366  # N11-C35-C41
    666   12     372     360     366  # C47-C35-C41
    667   12     355     361     370  # C30-C36-C45
    668   13     355     361     373  # C30-C36-H48
    669   13     370     361     373  # C45-C36-H48
    670   13     356     362     374  # C31-C37-H49
    671   12     356     362     452  # C31-C37-C46
    672   13     374     362     452  # H49-C37-C46
    673   13     357     363     375  # C32-C38-H50
    674   12     357     363     453  # C32-C38-C47
    675   13     375     363     453  # H50-C38-C47
    676   13     358     364     376  # C33-C39-H51
    677   12     358     364     367  # C33-C39-C42
    678   13     376     364     367  # H51-C39-C42
    679   12     359     365     449  # C34-C40-C43
    680   13     359     365     377  # C34-C40-H52
    681   13     449     365     377  # C43-C40-H52
    682   13     450     366     378  # C44-C41-H53
    683   12     450     366     360  # C44-C41-C35
    684   13     378     366     360  # H53-C41-C35
    685   12     355     367     364  # C30-C42-C39
    686   13     355     367     385  # C30-C42-H60
    687   13     364     367     385  # C39-C42-H60
    688   12     446     368     356  # C40-C43-C31
    689   13     446     368     386  # C40-C43-H61
    690   13     356     368     386  # C31-C43-H61
    691   13     357     369     387  # C32-C44-H62
    692   12     357     369     447  # C32-C44-C41
    693   13     387     369     447  # H62-C44-C41
    694   12     358     370     361  # C33-C45-C36
    695   14     358     370     394  # C33-C45-S69
    696   14     361     370     394  # C36-C45-S69
    697   14     398     371     359  # S73-C46-C34
    698   14     398     371     443  # S73-C46-C37
    699   12     359     371     443  # C34-C46-C37
    700   12     360     372     444  # C35-C47-C38
    701   14     360     372     402  # C35-C47-S77
    702   14     444     372     402  # C38-C47-S77
    703   15     396     394     370  # O71-S69-C45
    704   16     396     394     397  # O71-S69-O72
    705   16     396     394     395  # O71-S69-O70
    706   15     370     394     397  # C45-S69-O72
    707   15     370     394     395  # C45-S69-O70
    708   16     397     394     395  # O72-S69-O70
    709   15     371     398     400  # C46-S73-O75
    710   15     371     398     399  # C46-S73-O74
    711   15     371     398     401  # C46-S73-O76
    712   16     400     398     399  # O75-S73-O74
    713   16     400     398     401  # O75-S73-O76
    714   16     399     398     401  # O74-S73-O76
    715   15     372     402     403  # C47-S77-O78
    716   15     372     402     404  # C47-S77-O79
    717   15     372     402     405  # C47-S77-O80
    718   16     403     402     404  # O78-S77-O79
    719   16     403     402     405  # O78-S77-O80
    720   16     404     402     405  # O79-S77-O80
    721    1     430     412     436  # C24-N6-C30
    722    3     430     412     469  # C24-N6-H63
    723    2     436     412     469  # C30-N6-H63
    724    1     437     413     431  # C31-N7-C25
    725    2     437     413     470  # C31-N7-H64
    726    3     431     413     470  # C25-N7-H64
    727    3     432     414     471  # C26-N8-H65
    728    1     432     414     438  # C26-N8-C32
    729    2     471     414     438  # H65-N8-C32
    730    2     472     415     439  # H66-N9-C33
    731    3     472     415     433  # H66-N9-C27
    732    1     439     415     433  # C33-N9-C27
    733    3     434     416     473  # C28-N10-H67
    734    1     434     416     440  # C28-N10-C34
    735    2     473     416     440  # H67-N10-C34
    736    2     441     417     474  # C35-N11-H68
    737    1     441     417     435  # C35-N11-C29
    738    3     474     417     435  # H68-N11-C29
    739    4     406     418     424  # O0-C12-C18
    740    4     406     418     426  # O0-C12-C20
    741    5     424     418     426  # C18-C12-C20
    742    4     407     419     424  # O1-C13-C18
    743    4     407     419     425  # O1-C13-C19
    744    5     424     419     425  # C18-C13-C19
    745    4     408     420     425  # O2-C14-C19
    746    4     408     420     426  # O2-C14-C20
    747    5     425     420     426  # C19-C14-C20
    748    4     409     421     429  # O3-C15-C23
    749    4     409     421     427  # O3-C15-C21
    750    5     429     421     427  # C23-C15-C21
    751    4     410     422     428  # O4-C16-C22
    752    4     410     422     427  # O4-C16-C21
    753    5     428     422     427  # C22-C16-C21
    754    4     411     423     429  # O5-C17-C23
    755    4     411     423     428  # O5-C17-C22
    756    5     429     423     428  # C23-C17-C22
    757    7     418     424     430  # C12-C18-C24
    758    6     418     424     419  # C12-C18-C13
    759    7     430     424     419  # C24-C18-C13
    760    6     419     425     420  # C13-C19-C14
    761    7     419     425     431  # C13-C19-C25
    762    7     420     425     431  # C14-C19-C25
    763    6     418     426     420  # C12-C20-C14
    764    7     418     426     432  # C12-C20-C26
    765    7     420     426     432  # C14-C20-C26
    766    6     421     427     422  # C15-C21-C16
    767    7     421     427     433  # C15-C21-C27
    768    7     422     427     433  # C16-C21-C27
    769    6     422     428     423  # C16-C22-C17
    770    7     422     428     434  # C16-C22-C28
    771    7     423     428     434  # C17-C22-C28
    772    7     421     429     435  # C15-C23-C29
    773    6     421     429     423  # C15-C23-C17
    774    7     435     429     423  # C29-C23-C17
    775   10     412     430     424  # N6-C24-C18
    776    8     412     430     460  # N6-C24-H54
    777    9     424     430     460  # C18-C24-H54
    778    8     413     431     461  # N7-C25-H55
    779   10     413     431     425  # N7-C25-C19
    780    9     461     431     425  # H55-C25-C19
    781   10     414     432     426  # N8-C26-C20
    782    8     414     432     462  # N8-C26-H56
    783    9     426     432     462  # C20-C26-H56
    784   10     415     433     427  # N9-C27-C21
    785    8     415     433     463  # N9-C27-H57
    786    9     427     433     463  # C21-C27-H57
    787    8     464     434     416  # H58-C28-N10
    788    9     464     434     428  # H58-C28-C22
    789   10     416     434     428  # N10-C28-C22
    790   10     417     435     429  # N11-C29-C23
    791    8     417     435     465  # N11-C29-H59
    792    9     429     435     465  # C23-C29-H59
    793   11     412     436     448  # N6-C30-C42
    794   11     412     436     442  # N6-C30-C36
    795   12     448     436     442  # C42-C30-C36
    796   11     413     437     443  # N7-C31-C37
    797   11     413     437     449  # N7-C31-C43
    798   12     443     437     449  # C37-C31-C43
    799   11     414     438     450  # N8-C32-C44
    800   11     414     438     444  # N8-C32-C38
    801   12     450     438     444  # C44-C32-C38
    802   11     415     439     445  # N9-C33-C39
    803   11     415     439     451  # N9-C33-C45
    804   12     445     439     451  # C39-C33-C45
    805   11     416     440     452  # N10-C34-C46
    806   11     416     440     446  # N10-C34-C40
    807   12     452     440     446  # C46-C34-C40
    808   11     417     441     447  # N11-C35-C41
    809   11     417     441     453  # N11-C35-C47
    810   12     447     441     453  # C41-C35-C47
    811   12     451     442     436  # C45-C36-C30
    812   13     451     442     454  # C45-C36-H48
    813   13     436     442     454  # C30-C36-H48
    814   12     371     443     437  # C46-C37-C31
    815   13     371     443     455  # C46-C37-H49
    816   13     437     443     455  # C31-C37-H49
    817   13     372     444     456  # C47-C38-H50
    818   12     372     444     438  # C47-C38-C32
    819   13     456     444     438  # H50-C38-C32
    820   13     457     445     439  # H51-C39-C33
    821   13     457     445     448  # H51-C39-C42
    822   12     439     445     448  # C33-C39-C42
    823   12     368     446     440  # C43-C40-C34
    824   13     368     446     458  # C43-C40-H52
    825   13     440     446     458  # C34-C40-H52
    826   12     369     447     441  # C44-C41-C35
    827   13     369     447     459  # C44-C41-H53
    828   13     441     447     459  # C35-C41-H53
    829   12     436     448     445  # C30-C42-C39
    830   13     436     448     466  # C30-C42-H60
    831   13     445     448     466  # C39-C42-H60
    832   12     365     449     437  # C40-C43-C31
    833   13     365     449     467  # C40-C43-H61
    834   13     437     449     467  # C31-C43-H61
    835   12     366     450     438  # C41-C44-C32
    836   13     366     450     468  # C41-C44-H62
    837   13     438     450     468  # C32-C44-H62
    838   12     442     451     439  # C36-C45-C33
    839   14     442     451     475  # C36-C45-S69
    840   14     439     451     475  # C33-C45-S69
    841   14     362     452     479  # C37-C46-S73
    842   12     362     452     440  # C37-C46-C34
    843   14     479     452     440  # S73-C46-C34
    844   12     363     453     441  # C38-C47-C35
    845   14     363     453     483  # C38-C47-S77
    846   14     441     453     483  # C35-C47-S77
    847   15     451     475     477  # C45-S69-O71
    848   15     451     475     478  # C45-S69-O72
    849   15     451     475     476  # C45-S69-O70
    850   16     477     475     478  # O71-S69-O72
    851   16     477     475     476  # O71-S69-O70
    852   16     478     475     476  # O72-S69-O70
    853   15     452     479     481  # C46-S73-O75
    854   15     452     479     482  # C46-S73-O76
    855   15     452     479     480  # C46-S73-O74
    856   16     481     479     482  # O75-S73-O76
    857   16     481     479     480  # O75-S73-O74
    858   16     482     479     480  # O76-S73-O74
    859   15     484     483     453  # O78-S77-C47
    860   16     484     483     485  # O78-S77-O79
    861   16     484     483     486  # O78-S77-O80
    862   15     453     483     485  # C47-S77-O79
    863   15     453     483     486  # C47-S77-O80
    864   16     485     483     486  # O79-S77-O80
    865    1     517     493     511  # C30-N6-C24
    866    2     517     493     550  # C30-N6-H63
    867    3     511     493     550  # C24-N6-H63
    868    2     551     494     518  # H64-N7-C31
    869    3     551     494     512  # H64-N7-C25
    870    1     518     494     512  # C31-N7-C25
    871    3     513     495     552  # C26-N8-H65
    872    1     513     495     519  # C26-N8-C32
    873    2     552     495     519  # H65-N8-C32
    874    3     553     496     514  # H66-N9-C27
    875    2     553     496     520  # H66-N9-C33
    876    1     514     496     520  # C27-N9-C33
    877    1     515     497     521  # C28-N10-C34
    878    3     515     497     554  # C28-N10-H67
    879    2     521     497     554  # C34-N10-H67
    880    2     522     498     555  # C35-N11-H68
    881    1     522     498     516  # C35-N11-C29
    882    3     555     498     516  # H68-N11-C29
    883    4     505     499     487  # C18-C12-O0
    884    5     505     499     507  # C18-C12-C20
    885    4     487     499     507  # O0-C12-C20
    886    4     488     500     506  # O1-C13-C19
    887    4     488     500     505  # O1-C13-C18
    888    5     506     500     505  # C19-C13-C18
    889    4     489     501     506  # O2-C14-C19
    890    4     489     501     507  # O2-C14-C20
    891    5     506     501     507  # C19-C14-C20
    892    4     510     502     490  # C23-C15-O3
    893    5     510     502     508  # C23-C15-C21
    894    4     490     502     508  # O3-C15-C21
    895    5     508     503     509  # C21-C16-C22
    896    4     508     503     491  # C21-C16-O4
    897    4     509     503     491  # C22-C16-O4
    898    4     492     504     510  # O5-C17-C23
    899    4     492     504     509  # O5-C17-C22
    900    5     510     504     509  # C23-C17-C22
    901    6     499     505     500  # C12-C18-C13
    902    7     499     505     511  # C12-C18-C24
    903    7     500     505     511  # C13-C18-C24
    904    6     500     506     501  # C13-C19-C14
    905    7     500     506     512  # C13-C19-C25
    906    7     501     506     512  # C14-C19-C25
    907    6     499     507     501  # C12-C20-C14
    908    7     499     507     513  # C12-C20-C26
    909    7     501     507     513  # C14-C20-C26
    910    6     502     508     503  # C15-C21-C16
    911    7     502     508     514  # C15-C21-C27
    912    7     503     508     514  # C16-C21-C27
    913    6     503     509     504  # C16-C22-C17
    914    7     503     509     515  # C16-C22-C28
    915    7     504     509     515  # C17-C22-C28
    916    6     502     510     504  # C15-C23-C17
    917    7     502     510     516  # C15-C23-C29
    918    7     504     510     516  # C17-C23-C29
    919    8     541     511     493  # H54-C24-N6
    920    9     541     511     505  # H54-C24-C18
    921   10     493     511     505  # N6-C24-C18
    922   10     494     512     506  # N7-C25-C19
    923    8     494     512     542  # N7-C25-H55
    924    9     506     512     542  # C19-C25-H55
    925   10     495     513     507  # N8-C26-C20
    926    8     495     513     543  # N8-C26-H56
    927    9     507     513     543  # C20-C26-H56
    928    8     496     514     544  # N9-C27-H57
    929   10     496     514     508  # N9-C27-C21
    930    9     544     514     508  # H57-C27-C21
    931    8     497     515     545  # N10-C28-H58
    932   10     497     515     509  # N10-C28-C22
    933    9     545     515     509  # H58-C28-C22
    934    8     498     516     546  # N11-C29-H59
    935   10     498     516     510  # N11-C29-C23
    936    9     546     516     510  # H59-C29-C23
    937   11     493     517     529  # N6-C30-C42
    938   11     493     517     523  # N6-C30-C36
    939   12     529     517     523  # C42-C30-C36
    940   11     494     518     524  # N7-C31-C37
    941   11     494     518     530  # N7-C31-C43
    942   12     524     518     530  # C37-C31-C43
    943   11     495     519     525  # N8-C32-C38
    944   11     495     519     531  # N8-C32-C44
    945   12     525     519     531  # C38-C32-C44
    946   11     496     520     526  # N9-C33-C39
    947   11     496     520     532  # N9-C33-C45
    948   12     526     520     532  # C39-C33-C45
    949   11     497     521     533  # N10-C34-C46
    950   11     497     521     527  # N10-C34-C40
    951   12     533     521     527  # C46-C34-C40
    952   11     498     522     534  # N11-C35-C47
    953   11     498     522     528  # N11-C35-C41
    954   12     534     522     528  # C47-C35-C41
    955   12     517     523     532  # C30-C36-C45
    956   13     517     523     535  # C30-C36-H48
    957   13     532     523     535  # C45-C36-H48
    958   13     518     524     536  # C31-C37-H49
    959   12     518     524     614  # C31-C37-C46
    960   13     536     524     614  # H49-C37-C46
    961   13     519     525     537  # C32-C38-H50
    962   12     519     525     615  # C32-C38-C47
    963   13     537     525     615  # H50-C38-C47
    964   13     520     526     538  # C33-C39-H51
    965   12     520     526     529  # C33-C39-C42
    966   13     538     526     529  # H51-C39-C42
    967   12     521     527     611  # C34-C40-C43
    968   13     521     527     539  # C34-C40-H52
    969   13     611     527     539  # C43-C40-H52
    970   13     612     528     540  # C44-C41-H53
    971   12     612     528     522  # C44-C41-C35
    972   13     540     528     522  # H53-C41-C35
    973   12     517     529     526  # C30-C42-C39
    974   13     517     529     547  # C30-C42-H60
    975   13     526     529     547  # C39-C42-H60
    976   12     608     530     518  # C40-C43-C31
    977   13     608     530     548  # C40-C43-H61
    978   13     518     530     548  # C31-C43-H61
    979   13     519     531     549  # C32-C44-H62
    980   12     519     531     609  # C32-C44-C41
    981   13     549     531     609  # H62-C44-C41
    982   12     520     532     523  # C33-C45-C36
    983   14     520     532     556  # C33-C45-S69
    984   14     523     532     556  # C36-C45-S69
    985   14     560     533     521  # S73-C46-C34
    986   14     560     533     605  # S73-C46-C37
    987   12     521     533     605  # C34-C46-C37
    988   12     522     534     606  # C35-C47-C38
    989   14     522     534     564  # C35-C47-S77
    990   14     606     534     564  # C38-C47-S77
    991   15     558     556     532  # O71-S69-C45
    992   16     558     556     559  # O71-S69-O72
    993   16     558     556     557  # O71-S69-O70
    994   15     532     556     559  # C45-S69-O72
    995   15     532     556     557  # C45-S69-O70
    996   16     559     556     557  # O72-S69-O70
    997   15     533     560     562  # C46-S73-O75
    998   15     533     560     561  # C46-S73-O74
    999   15     533     560     563  # C46-S73-O76
   1000   16     562     560     561  # O75-S73-O74
   1001   16     562     560     563  # O75-S73-O76
   1002   16     561     560     563  # O74-S73-O76
   1003   15     534     564     565  # C47-S77-O78
   1004   15     534     564     566  # C47-S77-O79
   1005   15     534     564     567  # C47-S77-O80
   1006   16     565     564     566  # O78-S77-O79
   1007   16     565     564     567  # O78-S77-O80
   1008   16     566     564     567  # O79-S77-O80
   1009    1     592     574     598  # C24-N6-C30
   1010    3     592     574     631  # C24-N6-H63
   1011    2     598     574     631  # C30-N6-H63
   1012    1     599     575     593  # C31-N7-C25
   1013    2     599     575     632  # C31-N7-H64
   1014    3     593     575     632  # C25-N7-H64
   1015    3     594     576     633  # C26-N8-H65
   1016    1     594     576     600  # C26-N8-C32
   1017    2     633     576     600  # H65-N8-C32
   1018    2     634     577     601  # H66-N9-C33
   1019    3     634     577     595  # H66-N9-C27
   1020    1     601     577     595  # C33-N9-C27
   1021    3     596     578     635  # C28-N10-H67
   1022    1     596     578     602  # C28-N10-C34
   1023    2     635     578     602  # H67-N10-C34
   1024    2     603     579     636  # C35-N11-H68
   1025    1     603     579     597  # C35-N11-C29
   1026    3     636     579     597  # H68-N11-C29
   1027    4     568     580     586  # O0-C12-C18
   1028    4     568     580     588  # O0-C12-C20
   1029    5     586     580     588  # C18-C12-C20
   1030    4     569     581     586  # O1-C13-C18
   1031    4     569     581     587  # O1-C13-C19
   1032    5     586     581     587  # C18-C13-C19
   1033    4     570     582     587  # O2-C14-C19
   1034    4     570     582     588  # O2-C14-C20
   1035    5     587     582     588  # C19-C14-C20
   1036    4     571     583     591  # O3-C15-C23
   1037    4     571     583     589  # O3-C15-C21
   1038    5     591     583     589  # C23-C15-C21
   1039    4     572     584     590  # O4-C16-C22
   1040    4     572     584     589  # O4-C16-C21
   1041    5     590     584     589  # C22-C16-C21
   1042    4     573     585     591  # O5-C17-C23
   1043    4     573     585     590  # O5-C17-C22
   1044    5     591     585     590  # C23-C17-C22
   1045    7     580     586     592  # C12-C18-C24
   1046    6     580     586     581  # C12-C18-C13
   1047    7     592     586     581  # C24-C18-C13
   1048    6     581     587     582  # C13-C19-C14
   1049    7     581     587     593  # C13-C19-C25
   1050    7     582     587     593  # C14-C19-C25
   1051    6     580     588     582  # C12-C20-C14
   1052    7     580     588     594  # C12-C20-C26
   1053    7     582     588     594  # C14-C20-C26
   1054    6     583     589     584  # C15-C21-C16
   1055    7     583     589     595  # C15-C21-C27
   1056    7     584     589     595  # C16-C21-C27
   1057    6     584     590     585  # C16-C22-C17
   1058    7     584     590     596  # C16-C22-C28
   1059    7     585     590     596  # C17-C22-C28
   1060    7     583     591     597  # C15-C23-C29
   1061    6     583     591     585  # C15-C23-C17
   1062    7     597     591     585  # C29-C23-C17
   1063   10     574     592     586  # N6-C24-C18
   1064    8     574     592     622  # N6-C24-H54
   1065    9     586     592     622  # C18-C24-H54
   1066    8     575     593     623  # N7-C25-H55
   1067   10     575     593     587  # N7-C25-C19
   1068    9     623     593     587  # H55-C25-C19
   1069   10     576     594     588  # N8-C26-C20
   1070    8     576     594     624  # N8-C26-H56
   1071    9     588     594     624  # C20-C26-H56
   1072   10     577     595     589  # N9-C27-C21
   1073    8     577     595     625  # N9-C27-H57
   1074    9     589     595     625  # C21-C27-H57
   1075    8     626     596     578  # H58-C28-N10
   1076    9     626     596     590  # H58-C28-C22
   1077   10     578     596     590  # N10-C28-C22
   1078   10     579     597     591  # N11-C29-C23
   1079    8     579     597     627  # N11-C29-H59
   1080    9     591     597     627  # C23-C29-H59
   1081   11     574     598     610  # N6-C30-C42
   1082   11     574     598     604  # N6-C30-C36
   1083   12     610     598     604  # C42-C30-C36
   1084   11     575     599     605  # N7-C31-C37
   1085   11     575     599     611  # N7-C31-C43
   1086   12     605     599     611  # C37-C31-C43
   1087   11     576     600     612  # N8-C32-C44
   1088   11     576     600     606  # N8-C32-C38
   1089   12     612     600     606  # C44-C32-C38
   1090   11     577     601     607  # N9-C33-C39
   1091   11     577     601     613  # N9-C33-C45
   1092   12     607     601     613  # C39-C33-C45
   1093   11     578     602     614  # N10-C34-C46
   1094   11     578     602     608  # N10-C34-C40
   1095   12     614     602     608  # C46-C34-C40
   1096   11     579     603     609  # N11-C35-C41
   1097   11     579     603     615  # N11-C35-C47
   1098   12     609     603     615  # C41-C35-C47
   1099   12     613     604     598  # C45-C36-C30
   1100   13     613     604     616  # C45-C36-H48
   1101   13     598     604     616  # C30-C36-H48
   1102   12     533     605     599  # C46-C37-C31
   1103   13     533     605     617  # C46-C37-H49
   1104   13     599     605     617  # C31-C37-H49
   1105   13     534     606     618  # C47-C38-H50
   1106   12     534     606     600  # C47-C38-C32
   1107   13     618     606     600  # H50-C38-C32
   1108   13     619     607     601  # H51-C39-C33
   1109   13     619     607     610  # H51-C39-C42
   1110   12     601     607     610  # C33-C39-C42
   1111   12     530     608     602  # C43-C40-C34
   1112   13     530     608     620  # C43-C40-H52
   1113   13     602     608     620  # C34-C40-H52
   1114   12     531     609     603  # C44-C41-C35
   1115   13     531     609     621  # C44-C41-H53
   1116   13     603     609     621  # C35-C41-H53
   1117   12     598     610     607  # C30-C42-C39
   1118   13     598     610     628  # C30-C42-H60
   1119   13     607     610     628  # C39-C42-H60
   1120   12     527     611     599  # C40-C43-C31
   1121   13     527     611     629  # C40-C43-H61
   1122   13     599     611     629  # C31-C43-H61
   1123   12     528     612     600  # C41-C44-C32
   1124   13     528     612     630  # C41-C44-H62
   1125   13     600     612     630  # C32-C44-H62
   1126   12     604     613     601  # C36-C45-C33
   1127   14     604     613     637  # C36-C45-S69
   1128   14     601     613     637  # C33-C45-S69
   1129   14     524     614     641  # C37-C46-S73
   1130   12     524     614     602  # C37-C46-C34
   1131   14     641     614     602  # S73-C46-C34
   1132   12     525     615     603  # C38-C47-C35
   1133   14     525     615     645  # C38-C47-S77
   1134   14     603     615     645  # C35-C47-S77
   1135   15     613     637     639  # C45-S69-O71
   1136   15     613     637     640  # C45-S69-O72
   1137   15     613     637     638  # C45-S69-O70
   1138   16     639     637     640  # O71-S69-O72
   1139   16     639     637     638  # O71-S69-O70
   1140   16     640     637     638  # O72-S69-O70
   1141   15     614     641     643  # C46-S73-O75
   1142   15     614     641     644  # C46-S73-O76
   1143   15     614     641     642  # C46-S73-O74
   1144   16     643     641     644  # O75-S73-O76
   1145   16     643     641     642  # O75-S73-O74
   1146   16     644     641     642  # O76-S73-O74
   1147   15     646     645     615  # O78-S77-C47
   1148   16     646     645     647  # O78-S77-O79
   1149   16     646     645     648  # O78-S77-O80
   1150   15     615     645     647  # C47-S77-O79
   1151   15     615     645     648  # C47-S77-O80
   1152   16     647     645     648  # O79-S77-O80
   1153    1     679     655     673  # C30-N6-C24
   1154    2     679     655     712  # C30-N6-H63
   1155    3     673     655     712  # C24-N6-H63
   1156    2     713     656     680  # H64-N7-C31
   1157    3     713     656     674  # H64-N7-C25
   1158    1     680     656     674  # C31-N7-C25
   1159    3     675     657     714  # C26-N8-H65
   1160    1     675     657     681  # C26-N8-C32
   1161    2     714     657     681  # H65-N8-C32
   1162    3     715     658     676  # H66-N9-C27
   1163    2     715     658     682  # H66-N9-C33
   1164    1     676     658     682  # C27-N9-C33
   1165    1     677     659     683  # C28-N10-C34
   1166    3     677     659     716  # C28-N10-H67
   1167    2     683     659     716  # C34-N10-H67
   1168    2     684     660     717  # C35-N11-H68
   1169    1     684     660     678  # C35-N11-C29
   1170    3     717     660     678  # H68-N11-C29
   1171    4     667     661     649  # C18-C12-O0
   1172    5     667     661     669  # C18-C12-C20
   1173    4     649     661     669  # O0-C12-C20
   1174    4     650     662     668  # O1-C13-C19
   1175    4     650     662     667  # O1-C13-C18
   1176    5     668     662     667  # C19-C13-C18
   1177    4     651     663     668  # O2-C14-C19
   1178    4     651     663     669  # O2-C14-C20
   1179    5     668     663     669  # C19-C14-C20
   1180    4     672     664     652  # C23-C15-O3
   1181    5     672     664     670  # C23-C15-C21
   1182    4     652     664     670  # O3-C15-C21
   1183    5     670     665     671  # C21-C16-C22
   1184    4     670     665     653  # C21-C16-O4
   1185    4     671     665     653  # C22-C16-O4
   1186    4     654     666     672  # O5-C17-C23
   1187    4     654     666     671  # O5-C17-C22
   1188    5     672     666     671  # C23-C17-C22
   1189    6     661     667     662  # C12-C18-C13
   1190    7     661     667     673  # C12-C18-C24
   1191    7     662     667     673  # C13-C18-C24
   1192    6     662     668     663  # C13-C19-C14
   1193    7     662     668     674  # C13-C19-C25
   1194    7     663     668     674  # C14-C19-C25
   1195    6     661     669     663  # C12-C20-C14
   1196    7     661     669     675  # C12-C20-C26
   1197    7     663     669     675  # C14-C20-C26
   1198    6     664     670     665  # C15-C21-C16
   1199    7     664     670     676  # C15-C21-C27
   1200    7     665     670     676  # C16-C21-C27
   1201    6     665     671     666  # C16-C22-C17
   1202    7     665     671     677  # C16-C22-C28
   1203    7     666     671     677  # C17-C22-C28
   1204    6     664     672     666  # C15-C23-C17
   1205    7     664     672     678  # C15-C23-C29
   1206    7     666     672     678  # C17-C23-C29
   1207    8     703     673     655  # H54-C24-N6
   1208    9     703     673     667  # H54-C24-C18
   1209   10     655     673     667  # N6-C24-C18
   1210   10     656     674     668  # N7-C25-C19
   1211    8     656     674     704  # N7-C25-H55
   1212    9     668     674     704  # C19-C25-H55
   1213   10     657     675     669  # N8-C26-C20
   1214    8     657     675     705  # N8-C26-H56
   1215    9     669     675     705  # C20-C26-H56
   1216    8     658     676     706  # N9-C27-H57
   1217   10     658     676     670  # N9-C27-C21
   1218    9     706     676     670  # H57-C27-C21
   1219    8     659     677     707  # N10-C28-H58
   1220   10     659     677     671  # N10-C28-C22
   1221    9     707     677     671  # H58-C28-C22
   1222    8     660     678     708  # N11-C29-H59
   1223   10     660     678     672  # N11-C29-C23
   1224    9     708     678     672  # H59-C29-C23
   1225   11     655     679     691  # N6-C30-C42
   1226   11     655     679     685  # N6-C30-C36
   1227   12     691     679     685  # C42-C30-C36
   1228   11     656     680     686  # N7-C31-C37
   1229   11     656     680     692  # N7-C31-C43
   1230   12     686     680     692  # C37-C31-C43
   1231   11     657     681     687  # N8-C32-C38
   1232   11     657     681     693  # N8-C32-C44
   1233   12     687     681     693  # C38-C32-C44
   1234   11     658     682     688  # N9-C33-C39
   1235   11     658     682     694  # N9-C33-C45
   1236   12     688     682     694  # C39-C33-C45
   1237   11     659     683     695  # N10-C34-C46
   1238   11     659     683     689  # N10-C34-C40
   1239   12     695     683     689  # C46-C34-C40
   1240   11     660     684     696  # N11-C35-C47
   1241   11     660     684     690  # N11-C35-C41
   1242   12     696     684     690  # C47-C35-C41
   1243   12     679     685     694  # C30-C36-C45
   1244   13     679     685     697  # C30-C36-H48
   1245   13     694     685     697  # C45-C36-H48
   1246   13     680     686     698  # C31-C37-H49
   1247   12     680     686     776  # C31-C37-C46
   1248   13     698     686     776  # H49-C37-C46
   1249   13     681     687     699  # C32-C38-H50
   1250   12     681     687     777  # C32-C38-C47
   1251   13     699     687     777  # H50-C38-C47
   1252   13     682     688     700  # C33-C39-H51
   1253   12     682     688     691  # C33-C39-C42
   1254   13     700     688     691  # H51-C39-C42
   1255   12     683     689     773  # C34-C40-C43
   1256   13     683     689     701  # C34-C40-H52
   1257   13     773     689     701  # C43-C40-H52
   1258   13     774     690     702  # C44-C41-H53
   1259   12     774     690     684  # C44-C41-C35
   1260   13     702     690     684  # H53-C41-C35
   1261   12     679     691     688  # C30-C42-C39
   1262   13     679     691     709  # C30-C42-H60
   1263   13     688     691     709  # C39-C42-H60
   1264   12     770     692     680  # C40-C43-C31
   1265   13     770     692     710  # C40-C43-H61
   1266   13     680     692     710  # C31-C43-H61
   1267   13     681     693     711  # C32-C44-H62
   1268   12     681     693     771  # C32-C44-C41
   1269   13     711     693     771  # H62-C44-C41
   1270   12     682     694     685  # C33-C45-C36
   1271   14     682     694     718  # C33-C45-S69
   1272   14     685     694     718  # C36-C45-S69
   1273   14     722     695     683  # S73-C46-C34
   1274   14     722     695     767  # S73-C46-C37
   1275   12     683     695     767  # C34-C46-C37
   1276   12     684     696     768  # C35-C47-C38
   1277   14     684     696     726  # C35-C47-S77
   1278   14     768     696     726  # C38-C47-S77
   1279   15     720     718     694  # O71-S69-C45
   1280   16     720     718     721  # O71-S69-O72
   1281   16     720     718     719  # O71-S69-O70
   1282   15     694     718     721  # C45-S69-O72
   1283   15     694     718     719  # C45-S69-O70
   1284   16     721     718     719  # O72-S69-O70
   1285   15     695     722     724  # C46-S73-O75
   1286   15     695     722     723  # C46-S73-O74
   1287   15     695     722     725  # C46-S73-O76
   1288   16     724     722     723  # O75-S73-O74
   1289   16     724     722     725  # O75-S73-O76
   1290   16     723     722     725  # O74-S73-O76
   1291   15     696     726     727  # C47-S77-O78
   1292   15     696     726     728  # C47-S77-O79
   1293   15     696     726     729  # C47-S77-O80
   1294   16     727     726     728  # O78-S77-O79
   1295   16     727     726     729  # O78-S77-O80
   1296   16     728     726     729  # O79-S77-O80
   1297    1     754     736     760  # C24-N6-C30
   1298    3     754     736     793  # C24-N6-H63
   1299    2     760     736     793  # C30-N6-H63
   1300    1     761     737     755  # C31-N7-C25
   1301    2     761     737     794  # C31-N7-H64
   1302    3     755     737     794  # C25-N7-H64
   1303    3     756     738     795  # C26-N8-H65
   1304    1     756     738     762  # C26-N8-C32
   1305    2     795     738     762  # H65-N8-C32
   1306    2     796     739     763  # H66-N9-C33
   1307    3     796     739     757  # H66-N9-C27
   1308    1     763     739     757  # C33-N9-C27
   1309    3     758     740     797  # C28-N10-H67
   1310    1     758     740     764  # C28-N10-C34
   1311    2     797     740     764  # H67-N10-C34
   1312    2     765     741     798  # C35-N11-H68
   1313    1     765     741     759  # C35-N11-C29
   1314    3     798     741     759  # H68-N11-C29
   1315    4     730     742     748  # O0-C12-C18
   1316    4     730     742     750  # O0-C12-C20
   1317    5     748     742     750  # C18-C12-C20
   1318    4     731     743     748  # O1-C13-C18
   1319    4     731     743     749  # O1-C13-C19
   1320    5     748     743     749  # C18-C13-C19
   1321    4     732     744     749  # O2-C14-C19
   1322    4     732     744     750  # O2-C14-C20
   1323    5     749     744     750  # C19-C14-C20
   1324    4     733     745     753  # O3-C15-C23
   1325    4     733     745     751  # O3-C15-C21
   1326    5     753     745     751  # C23-C15-C21
   1327    4     734     746     752  # O4-C16-C22
   1328    4     734     746     751  # O4-C16-C21
   1329    5     752     746     751  # C22-C16-C21
   1330    4     735     747     753  # O5-C17-C23
   1331    4     735     747     752  # O5-C17-C22
   1332    5     753     747     752  # C23-C17-C22
   1333    7     742     748     754  # C12-C18-C24
   1334    6     742     748     743  # C12-C18-C13
   1335    7     754     748     743  # C24-C18-C13
   1336    6     743     749     744  # C13-C19-C14
   1337    7     743     749     755  # C13-C19-C25
   1338    7     744     749     755  # C14-C19-C25
   1339    6     742     750     744  # C12-C20-C14
   1340    7     742     750     756  # C12-C20-C26
   1341    7     744     750     756  # C14-C20-C26
   1342    6     745     751     746  # C15-C21-C16
   1343    7     745     751     757  # C15-C21-C27
   1344    7     746     751     757  # C16-C21-C27
   1345    6     746     752     747  # C16-C22-C17
   1346    7     746     752     758  # C16-C22-C28
   1347    7     747     752     758  # C17-C22-C28
   1348    7     745     753     759  # C15-C23-C29
   1349    6     745     753     747  # C15-C23-C17
   1350    7     759     753     747  # C29-C23-C17
   1351   10     736     754     748  # N6-C24-C18
   1352    8     736     754     784  # N6-C24-H54
   1353    9     748     754     784  # C18-C24-H54
   1354    8     737     755     785  # N7-C25-H55
   1355   10     737     755     749  # N7-C25-C19
   1356    9     785     755     749  # H55-C25-C19
   1357   10     738     756     750  # N8-C26-C20
   1358    8     738     756     786  # N8-C26-H56
   1359    9     750     756     786  # C20-C26-H56
   1360   10     739     757     751  # N9-C27-C21
   1361    8     739     757     787  # N9-C27-H57
   1362    9     751     757     787  # C21-C27-H57
   1363    8     788     758     740  # H58-C28-N10
   1364    9     788     758     752  # H58-C28-C22
   1365   10     740     758     752  # N10-C28-C22
   1366   10     741     759     753  # N11-C29-C23
   1367    8     741     759     789  # N11-C29-H59
   1368    9     753     759     789  # C23-C29-H59
   1369   11     736     760     772  # N6-C30-C42
   1370   11     736     760     766  # N6-C30-C36
   1371   12     772     760     766  # C42-C30-C36
   1372   11     737     761     767  # N7-C31-C37
   1373   11     737     761     773  # N7-C31-C43
   1374   12     767     761     773  # C37-C31-C43
   1375   11     738     762     774  # N8-C32-C44
   1376   11     738     762     768  # N8-C32-C38
   1377   12     774     762     768  # C44-C32-C38
   1378   11     739     763     769  # N9-C33-C39
   1379   11     739     763     775  # N9-C33-C45
   1380   12     769     763     775  # C39-C33-C45
   1381   11     740     764     776  # N10-C34-C46
   1382   11     740     764     770  # N10-C34-C40
   1383   12     776     764     770  # C46-C34-C40
   1384   11     741     765     771  # N11-C35-C41
   1385   11     741     765     777  # N11-C35-C47
   1386   12     771     765     777  # C41-C35-C47
   1387   12     775     766     760  # C45-C36-C30
   1388   13     775     766     778  # C45-C36-H48
   1389   13     760     766     778  # C30-C36-H48
   1390   12     695     767     761  # C46-C37-C31
   1391   13     695     767     779  # C46-C37-H49
   1392   13     761     767     779  # C31-C37-H49
   1393   13     696     768     780  # C47-C38-H50
   1394   12     696     768     762  # C47-C38-C32
   1395   13     780     768     762  # H50-C38-C32
   1396   13     781     769     763  # H51-C39-C33
   1397   13     781     769     772  # H51-C39-C42
   1398   12     763     769     772  # C33-C39-C42
   1399   12     692     770     764  # C43-C40-C34
   1400   13     692     770     782  # C43-C40-H52
   1401   13     764     770     782  # C34-C40-H52
   1402   12     693     771     765  # C44-C41-C35
   1403   13     693     771     783  # C44-C41-H53
   1404   13     765     771     783  # C35-C41-H53
   1405   12     760     772     769  # C30-C42-C39
   1406   13     760     772     790  # C30-C42-H60
   1407   13     769     772     790  # C39-C42-H60
   1408   12     689     773     761  # C40-C43-C31
   1409   13     689     773     791  # C40-C43-H61
   1410   13     761     773     791  # C31-C43-H61
   1411   12     690     774     762  # C41-C44-C32
   1412   13     690     774     792  # C41-C44-H62
   1413   13     762     774     792  # C32-C44-H62
   1414   12     766     775     763  # C36-C45-C33
   1415   14     766     775     799  # C36-C45-S69
   1416   14     763     775     799  # C33-C45-S69
   1417   14     686     776     803  # C37-C46-S73
   1418   12     686     776     764  # C37-C46-C34
   1419   14     803     776     764  # S73-C46-C34
   1420   12     687     777     765  # C38-C47-C35
   1421   14     687     777     807  # C38-C47-S77
   1422   14     765     777     807  # C35-C47-S77
   1423   15     775     799     801  # C45-S69-O71
   1424   15     775     799     802  # C45-S69-O72
   1425   15     775     799     800  # C45-S69-O70
   1426   16     801     799     802  # O71-S69-O72
   1427   16     801     799     800  # O71-S69-O70
   1428   16     802     799     800  # O72-S69-O70
   1429   15     776     803     805  # C46-S73-O75
   1430   15     776     803     806  # C46-S73-O76
   1431   15     776     803     804  # C46-S73-O74
   1432   16     805     803     806  # O75-S73-O76
   1433   16     805     803     804  # O75-S73-O74
   1434   16     806     803     804  # O76-S73-O74
   1435   15     808     807     777  # O78-S77-C47
   1436   16     808     807     809  # O78-S77-O79
   1437   16     808     807     810  # O78-S77-O80
   1438   15     777     807     809  # C47-S77-O79
   1439   15     777     807     810  # C47-S77-O80
   1440   16     809     807     810  # O79-S77-O80
   1441   17     811     812     813  # Hw-Ow-Hw
   1442   17     814     815     816  # Hw-Ow-Hw
   1443   17     817     818     819  # Hw-Ow-Hw
   1444   17     820     821     822  # Hw-Ow-Hw
   1445   17     823     824     825  # Hw-Ow-Hw
   1446   17     826     827     828  # Hw-Ow-Hw
   1447   17     829     830     831  # Hw-Ow-Hw
   1448   17     832     833     834  # Hw-Ow-Hw
   1449   17     835     836     837  # Hw-Ow-Hw
   1450   17     838     839     840  # Hw-Ow-Hw
   1451   17     841     842     843  # Hw-Ow-Hw
   1452   17     844     845     846  # Hw-Ow-Hw
   1453   17     847     848     849  # Hw-Ow-Hw
   1454   17     850     851     852  # Hw-Ow-Hw
   1455   17     853     854     855  # Hw-Ow-Hw
   1456   17     856     857     858  # Hw-Ow-Hw
   1457   17     859     860     861  # Hw-Ow-Hw
   1458   17     862     863     864  # Hw-Ow-Hw
   1459   17     865     866     867  # Hw-Ow-Hw
   1460   17     868     869     870  # Hw-Ow-Hw
   1461   17     871     872     873  # Hw-Ow-Hw
   1462   17     874     875     876  # Hw-Ow-Hw
   1463   17     877     878     879  # Hw-Ow-Hw
   1464   17     880     881     882  # Hw-Ow-Hw
   1465   17     883     884     885  # Hw-Ow-Hw
   1466   17     886     887     888  # Hw-Ow-Hw
   1467   17     889     890     891  # Hw-Ow-Hw
   1468   17     892     893     894  # Hw-Ow-Hw
   1469   17     895     896     897  # Hw-Ow-Hw
   1470   17     898     899     900  # Hw-Ow-Hw
   1471   17     901     902     903  # Hw-Ow-Hw
   1472   17     904     905     906  # Hw-Ow-Hw
   1473   17     907     908     909  # Hw-Ow-Hw
   1474   17     910     911     912  # Hw-Ow-Hw
   1475   17     913     914     915  # Hw-Ow-Hw
   1476   17     916     917     918  # Hw-Ow-Hw
   1477   17     919     920     921  # Hw-Ow-Hw
   1478   17     922     923     924  # Hw-Ow-Hw
   1479   17     925     926     927  # Hw-Ow-Hw
   1480   17     928     929     930  # Hw-Ow-Hw
   1481   17     931     932     933  # Hw-Ow-Hw
   1482   17     934     935     936  # Hw-Ow-Hw
   1483   17     937     938     939  # Hw-Ow-Hw
   1484   17     940     941     942  # Hw-Ow-Hw
   1485   17     943     944     945  # Hw-Ow-Hw
   1486   17     946     947     948  # Hw-Ow-Hw
   1487   17     949     950     951  # Hw-Ow-Hw
   1488   17     952     953     954  # Hw-Ow-Hw
   1489   17     955     956     957  # Hw-Ow-Hw
   1490   17     958     959     960  # Hw-Ow-Hw
   1491   17     961     962     963  # Hw-Ow-Hw
   1492   17     964     965     966  # Hw-Ow-Hw
   1493   17     967     968     969  # Hw-Ow-Hw
   1494   17     970     971     972  # Hw-Ow-Hw
   1495   17     973     974     975  # Hw-Ow-Hw
   1496   17     976     977     978  # Hw-Ow-Hw
   1497   17     979     980     981  # Hw-Ow-Hw
   1498   17     982     983     984  # Hw-Ow-Hw
   1499   17     985     986     987  # Hw-Ow-Hw
   1500   17     988     989     990  # Hw-Ow-Hw
   1501   17     991     992     993  # Hw-Ow-Hw
   1502   17     994     995     996  # Hw-Ow-Hw
   1503   17     997     998     999  # Hw-Ow-Hw
   1504   17    1000    1001    1002  # Hw-Ow-Hw
   1505   17    1003    1004    1005  # Hw-Ow-Hw
   1506   17    1006    1007    1008  # Hw-Ow-Hw
   1507   17    1009    1010    1011  # Hw-Ow-Hw
   1508   17    1012    1013    1014  # Hw-Ow-Hw
   1509   17    1015    1016    1017  # Hw-Ow-Hw
   1510   17    1018    1019    1020  # Hw-Ow-Hw
   1511   17    1021    1022    1023  # Hw-Ow-Hw
   1512   17    1024    1025    1026  # Hw-Ow-Hw
   1513   17    1027    1028    1029  # Hw-Ow-Hw
   1514   17    1030    1031    1032  # Hw-Ow-Hw
   1515   17    1033    1034    1035  # Hw-Ow-Hw
   1516   17    1036    1037    1038  # Hw-Ow-Hw
   1517   17    1039    1040    1041  # Hw-Ow-Hw
   1518   17    1042    1043    1044  # Hw-Ow-Hw
   1519   17    1045    1046    1047  # Hw-Ow-Hw
   1520   17    1048    1049    1050  # Hw-Ow-Hw
   1521   17    1051    1052    1053  # Hw-Ow-Hw
   1522   17    1054    1055    1056  # Hw-Ow-Hw
   1523   17    1057    1058    1059  # Hw-Ow-Hw
   1524   17    1060    1061    1062  # Hw-Ow-Hw
   1525   17    1063    1064    1065  # Hw-Ow-Hw
   1526   17    1066    1067    1068  # Hw-Ow-Hw
   1527   17    1069    1070    1071  # Hw-Ow-Hw
   1528   17    1072    1073    1074  # Hw-Ow-Hw
   1529   17    1075    1076    1077  # Hw-Ow-Hw
   1530   17    1078    1079    1080  # Hw-Ow-Hw
   1531   17    1081    1082    1083  # Hw-Ow-Hw
   1532   17    1084    1085    1086  # Hw-Ow-Hw
   1533   17    1087    1088    1089  # Hw-Ow-Hw
   1534   17    1090    1091    1092  # Hw-Ow-Hw
   1535   17    1093    1094    1095  # Hw-Ow-Hw
   1536   17    1096    1097    1098  # Hw-Ow-Hw
   1537   17    1099    1100    1101  # Hw-Ow-Hw
   1538   17    1102    1103    1104  # Hw-Ow-Hw
   1539   17    1105    1106    1107  # Hw-Ow-Hw
   1540   17    1108    1109    1110  # Hw-Ow-Hw
   1541   17    1111    1112    1113  # Hw-Ow-Hw
   1542   17    1114    1115    1116  # Hw-Ow-Hw
   1543   17    1117    1118    1119  # Hw-Ow-Hw
   1544   17    1120    1121    1122  # Hw-Ow-Hw
   1545   17    1123    1124    1125  # Hw-Ow-Hw
   1546   17    1126    1127    1128  # Hw-Ow-Hw
   1547   17    1129    1130    1131  # Hw-Ow-Hw
   1548   17    1132    1133    1134  # Hw-Ow-Hw
   1549   17    1135    1136    1137  # Hw-Ow-Hw
   1550   17    1138    1139    1140  # Hw-Ow-Hw
   1551   17    1141    1142    1143  # Hw-Ow-Hw
   1552   17    1144    1145    1146  # Hw-Ow-Hw
   1553   17    1147    1148    1149  # Hw-Ow-Hw
   1554   17    1150    1151    1152  # Hw-Ow-Hw
   1555   17    1153    1154    1155  # Hw-Ow-Hw
   1556   17    1156    1157    1158  # Hw-Ow-Hw
   1557   17    1159    1160    1161  # Hw-Ow-Hw
   1558   17    1162    1163    1164  # Hw-Ow-Hw
   1559   17    1165    1166    1167  # Hw-Ow-Hw
   1560   17    1168    1169    1170  # Hw-Ow-Hw
   1561   17    1171    1172    1173  # Hw-Ow-Hw
   1562   17    1174    1175    1176  # Hw-Ow-Hw
   1563   17    1177    1178    1179  # Hw-Ow-Hw
   1564   17    1180    1181    1182  # Hw-Ow-Hw
   1565   17    1183    1184    1185  # Hw-Ow-Hw
   1566   17    1186    1187    1188  # Hw-Ow-Hw
   1567   17    1189    1190    1191  # Hw-Ow-Hw
   1568   17    1192    1193    1194  # Hw-Ow-Hw
   1569   17    1195    1196    1197  # Hw-Ow-Hw
   1570   17    1198    1199    1200  # Hw-Ow-Hw
   1571   17    1201    1202    1203  # Hw-Ow-Hw
   1572   17    1204    1205    1206  # Hw-Ow-Hw
   1573   17    1207    1208    1209  # Hw-Ow-Hw
   1574   17    1210    1211    1212  # Hw-Ow-Hw
   1575   17    1213    1214    1215  # Hw-Ow-Hw
   1576   17    1216    1217    1218  # Hw-Ow-Hw
   1577   17    1219    1220    1221  # Hw-Ow-Hw
   1578   17    1222    1223    1224  # Hw-Ow-Hw
   1579   17    1225    1226    1227  # Hw-Ow-Hw
   1580   17    1228    1229    1230  # Hw-Ow-Hw
   1581   17    1231    1232    1233  # Hw-Ow-Hw
   1582   17    1234    1235    1236  # Hw-Ow-Hw
   1583   17    1237    1238    1239  # Hw-Ow-Hw
   1584   17    1240    1241    1242  # Hw-Ow-Hw
   1585   17    1243    1244    1245  # Hw-Ow-Hw
   1586   17    1246    1247    1248  # Hw-Ow-Hw
   1587   17    1249    1250    1251  # Hw-Ow-Hw
   1588   17    1252    1253    1254  # Hw-Ow-Hw
   1589   17    1255    1256    1257  # Hw-Ow-Hw
   1590   17    1258    1259    1260  # Hw-Ow-Hw
   1591   17    1261    1262    1263  # Hw-Ow-Hw
   1592   17    1264    1265    1266  # Hw-Ow-Hw
   1593   17    1267    1268    1269  # Hw-Ow-Hw
   1594   17    1270    1271    1272  # Hw-Ow-Hw
   1595   17    1273    1274    1275  # Hw-Ow-Hw
   1596   17    1276    1277    1278  # Hw-Ow-Hw
   1597   17    1279    1280    1281  # Hw-Ow-Hw
   1598   17    1282    1283    1284  # Hw-Ow-Hw
   1599   17    1285    1286    1287  # Hw-Ow-Hw
   1600   17    1288    1289    1290  # Hw-Ow-Hw
   1601   17    1291    1292    1293  # Hw-Ow-Hw
   1602   17    1294    1295    1296  # Hw-Ow-Hw
   1603   17    1297    1298    1299  # Hw-Ow-Hw
   1604   17    1300    1301    1302  # Hw-Ow-Hw
   1605   17    1303    1304    1305  # Hw-Ow-Hw
   1606   17    1306    1307    1308  # Hw-Ow-Hw
   1607   17    1309    1310    1311  # Hw-Ow-Hw
   1608   17    1312    1313    1314  # Hw-Ow-Hw
   1609   17    1315    1316    1317  # Hw-Ow-Hw
   1610   17    1318    1319    1320  # Hw-Ow-Hw
   1611   17    1321    1322    1323  # Hw-Ow-Hw
   1612   17    1324    1325    1326  # Hw-Ow-Hw
   1613   17    1327    1328    1329  # Hw-Ow-Hw
   1614   17    1330    1331    1332  # Hw-Ow-Hw
   1615   17    1333    1334    1335  # Hw-Ow-Hw
   1616   17    1336    1337    1338  # Hw-Ow-Hw
   1617   17    1339    1340    1341  # Hw-Ow-Hw
   1618   17    1342    1343    1344  # Hw-Ow-Hw
   1619   17    1345    1346    1347  # Hw-Ow-Hw
   1620   17    1348    1349    1350  # Hw-Ow-Hw
   1621   17    1351    1352    1353  # Hw-Ow-Hw
   1622   17    1354    1355    1356  # Hw-Ow-Hw
   1623   17    1357    1358    1359  # Hw-Ow-Hw
   1624   17    1360    1361    1362  # Hw-Ow-Hw
   1625   17    1363    1364    1365  # Hw-Ow-Hw
   1626   17    1366    1367    1368  # Hw-Ow-Hw
   1627   17    1369    1370    1371  # Hw-Ow-Hw
   1628   17    1372    1373    1374  # Hw-Ow-Hw
   1629   17    1375    1376    1377  # Hw-Ow-Hw
   1630   17    1378    1379    1380  # Hw-Ow-Hw
   1631   17    1381    1382    1383  # Hw-Ow-Hw
   1632   17    1384    1385    1386  # Hw-Ow-Hw
   1633   17    1387    1388    1389  # Hw-Ow-Hw
   1634   17    1390    1391    1392  # Hw-Ow-Hw
   1635   17    1393    1394    1395  # Hw-Ow-Hw
   1636   17    1396    1397    1398  # Hw-Ow-Hw
   1637   17    1399    1400    1401  # Hw-Ow-Hw
   1638   17    1402    1403    1404  # Hw-Ow-Hw
   1639   17    1405    1406    1407  # Hw-Ow-Hw
   1640   17    1408    1409    1410  # Hw-Ow-Hw
   1641   17    1411    1412    1413  # Hw-Ow-Hw
   1642   17    1414    1415    1416  # Hw-Ow-Hw
   1643   17    1417    1418    1419  # Hw-Ow-Hw
   1644   17    1420    1421    1422  # Hw-Ow-Hw
   1645   17    1423    1424    1425  # Hw-Ow-Hw
   1646   17    1426    1427    1428  # Hw-Ow-Hw
   1647   17    1429    1430    1431  # Hw-Ow-Hw
   1648   17    1432    1433    1434  # Hw-Ow-Hw
   1649   17    1435    1436    1437  # Hw-Ow-Hw
   1650   17    1438    1439    1440  # Hw-Ow-Hw
   1651   17    1441    1442    1443  # Hw-Ow-Hw
   1652   17    1444    1445    1446  # Hw-Ow-Hw
   1653   17    1447    1448    1449  # Hw-Ow-Hw
   1654   17    1450    1451    1452  # Hw-Ow-Hw
   1655   17    1453    1454    1455  # Hw-Ow-Hw
   1656   17    1456    1457    1458  # Hw-Ow-Hw
   1657   17    1459    1460    1461  # Hw-Ow-Hw
   1658   17    1462    1463    1464  # Hw-Ow-Hw
   1659   17    1465    1466    1467  # Hw-Ow-Hw
   1660   17    1468    1469    1470  # Hw-Ow-Hw
   1661   17    1471    1472    1473  # Hw-Ow-Hw
   1662   17    1474    1475    1476  # Hw-Ow-Hw
   1663   17    1477    1478    1479  # Hw-Ow-Hw
   1664   17    1480    1481    1482  # Hw-Ow-Hw
   1665   17    1483    1484    1485  # Hw-Ow-Hw
   1666   17    1486    1487    1488  # Hw-Ow-Hw
   1667   17    1489    1490    1491  # Hw-Ow-Hw
   1668   17    1492    1493    1494  # Hw-Ow-Hw
   1669   17    1495    1496    1497  # Hw-Ow-Hw
   1670   17    1498    1499    1500  # Hw-Ow-Hw
   1671   17    1501    1502    1503  # Hw-Ow-Hw
   1672   17    1504    1505    1506  # Hw-Ow-Hw
   1673   17    1507    1508    1509  # Hw-Ow-Hw
   1674   17    1510    1511    1512  # Hw-Ow-Hw
   1675   17    1513    1514    1515  # Hw-Ow-Hw
   1676   17    1516    1517    1518  # Hw-Ow-Hw
   1677   17    1519    1520    1521  # Hw-Ow-Hw
   1678   17    1522    1523    1524  # Hw-Ow-Hw
   1679   17    1525    1526    1527  # Hw-Ow-Hw
   1680   17    1528    1529    1530  # Hw-Ow-Hw
   1681   17    1531    1532    1533  # Hw-Ow-Hw
   1682   17    1534    1535    1536  # Hw-Ow-Hw
   1683   17    1537    1538    1539  # Hw-Ow-Hw
   1684   17    1540    1541    1542  # Hw-Ow-Hw
   1685   17    1543    1544    1545  # Hw-Ow-Hw
   1686   17    1546    1547    1548  # Hw-Ow-Hw
   1687   17    1549    1550    1551  # Hw-Ow-Hw
   1688   17    1552    1553    1554  # Hw-Ow-Hw
   1689   17    1555    1556    1557  # Hw-Ow-Hw
   1690   17    1558    1559    1560  # Hw-Ow-Hw
   1691   17    1561    1562    1563  # Hw-Ow-Hw
   1692   17    1564    1565    1566  # Hw-Ow-Hw
   1693   17    1567    1568    1569  # Hw-Ow-Hw
   1694   17    1570    1571    1572  # Hw-Ow-Hw
   1695   17    1573    1574    1575  # Hw-Ow-Hw
   1696   17    1576    1577    1578  # Hw-Ow-Hw
   1697   17    1579    1580    1581  # Hw-Ow-Hw
   1698   17    1582    1583    1584  # Hw-Ow-Hw
   1699   17    1585    1586    1587  # Hw-Ow-Hw
   1700   17    1588    1589    1590  # Hw-Ow-Hw
   1701   17    1591    1592    1593  # Hw-Ow-Hw
   1702   17    1594    1595    1596  # Hw-Ow-Hw
   1703   17    1597    1598    1599  # Hw-Ow-Hw
   1704   17    1600    1601    1602  # Hw-Ow-Hw
   1705   17    1603    1604    1605  # Hw-Ow-Hw
   1706   17    1606    1607    1608  # Hw-Ow-Hw
   1707   17    1609    1610    1611  # Hw-Ow-Hw
   1708   17    1612    1613    1614  # Hw-Ow-Hw
   1709   17    1615    1616    1617  # Hw-Ow-Hw
   1710   17    1618    1619    1620  # Hw-Ow-Hw
   1711   17    1621    1622    1623  # Hw-Ow-Hw
   1712   17    1624    1625    1626  # Hw-Ow-Hw
   1713   17    1627    1628    1629  # Hw-Ow-Hw
   1714   17    1630    1631    1632  # Hw-Ow-Hw
   1715   17    1633    1634    1635  # Hw-Ow-Hw
   1716   17    1636    1637    1638  # Hw-Ow-Hw
   1717   17    1639    1640    1641  # Hw-Ow-Hw
   1718   17    1642    1643    1644  # Hw-Ow-Hw
   1719   17    1645    1646    1647  # Hw-Ow-Hw
   1720   17    1648    1649    1650  # Hw-Ow-Hw
   1721   17    1651    1652    1653  # Hw-Ow-Hw
   1722   17    1654    1655    1656  # Hw-Ow-Hw
   1723   17    1657    1658    1659  # Hw-Ow-Hw
   1724   17    1660    1661    1662  # Hw-Ow-Hw
   1725   17    1663    1664    1665  # Hw-Ow-Hw
   1726   17    1666    1667    1668  # Hw-Ow-Hw
   1727   17    1669    1670    1671  # Hw-Ow-Hw
   1728   17    1672    1673    1674  # Hw-Ow-Hw
   1729   17    1675    1676    1677  # Hw-Ow-Hw
   1730   17    1678    1679    1680  # Hw-Ow-Hw
   1731   17    1681    1682    1683  # Hw-Ow-Hw
   1732   17    1684    1685    1686  # Hw-Ow-Hw
   1733   17    1687    1688    1689  # Hw-Ow-Hw
   1734   17    1690    1691    1692  # Hw-Ow-Hw
   1735   17    1693    1694    1695  # Hw-Ow-Hw
   1736   17    1696    1697    1698  # Hw-Ow-Hw
   1737   17    1699    1700    1701  # Hw-Ow-Hw
   1738   17    1702    1703    1704  # Hw-Ow-Hw
   1739   17    1705    1706    1707  # Hw-Ow-Hw
   1740   17    1708    1709    1710  # Hw-Ow-Hw
   1741   17    1711    1712    1713  # Hw-Ow-Hw
   1742   17    1714    1715    1716  # Hw-Ow-Hw
   1743   17    1717    1718    1719  # Hw-Ow-Hw
   1744   17    1720    1721    1722  # Hw-Ow-Hw
   1745   17    1723    1724    1725  # Hw-Ow-Hw
   1746   17    1726    1727    1728  # Hw-Ow-Hw
   1747   17    1729    1730    1731  # Hw-Ow-Hw
   1748   17    1732    1733    1734  # Hw-Ow-Hw
   1749   17    1735    1736    1737  # Hw-Ow-Hw
   1750   17    1738    1739    1740  # Hw-Ow-Hw
   1751   17    1741    1742    1743  # Hw-Ow-Hw
   1752   17    1744    1745    1746  # Hw-Ow-Hw
   1753   17    1747    1748    1749  # Hw-Ow-Hw
   1754   17    1750    1751    1752  # Hw-Ow-Hw
   1755   17    1753    1754    1755  # Hw-Ow-Hw
   1756   17    1756    1757    1758  # Hw-Ow-Hw
   1757   17    1759    1760    1761  # Hw-Ow-Hw
   1758   17    1762    1763    1764  # Hw-Ow-Hw
   1759   17    1765    1766    1767  # Hw-Ow-Hw
   1760   17    1768    1769    1770  # Hw-Ow-Hw
   1761   17    1771    1772    1773  # Hw-Ow-Hw
   1762   17    1774    1775    1776  # Hw-Ow-Hw
   1763   17    1777    1778    1779  # Hw-Ow-Hw
   1764   17    1780    1781    1782  # Hw-Ow-Hw
   1765   17    1783    1784    1785  # Hw-Ow-Hw
   1766   17    1786    1787    1788  # Hw-Ow-Hw
   1767   17    1789    1790    1791  # Hw-Ow-Hw
   1768   17    1792    1793    1794  # Hw-Ow-Hw
   1769   17    1795    1796    1797  # Hw-Ow-Hw
   1770   17    1798    1799    1800  # Hw-Ow-Hw
   1771   17    1801    1802    1803  # Hw-Ow-Hw
   1772   17    1804    1805    1806  # Hw-Ow-Hw
   1773   17    1807    1808    1809  # Hw-Ow-Hw
   1774   17    1810    1811    1812  # Hw-Ow-Hw
   1775   17    1813    1814    1815  # Hw-Ow-Hw
   1776   17    1816    1817    1818  # Hw-Ow-Hw
   1777   17    1819    1820    1821  # Hw-Ow-Hw
   1778   17    1822    1823    1824  # Hw-Ow-Hw
   1779   17    1825    1826    1827  # Hw-Ow-Hw
   1780   17    1828    1829    1830  # Hw-Ow-Hw
   1781   17    1831    1832    1833  # Hw-Ow-Hw
   1782   17    1834    1835    1836  # Hw-Ow-Hw
   1783   17    1837    1838    1839  # Hw-Ow-Hw
   1784   17    1840    1841    1842  # Hw-Ow-Hw
   1785   17    1843    1844    1845  # Hw-Ow-Hw
   1786   17    1846    1847    1848  # Hw-Ow-Hw
   1787   17    1849    1850    1851  # Hw-Ow-Hw
   1788   17    1852    1853    1854  # Hw-Ow-Hw
   1789   17    1855    1856    1857  # Hw-Ow-Hw
   1790   17    1858    1859    1860  # Hw-Ow-Hw
   1791   17    1861    1862    1863  # Hw-Ow-Hw
   1792   17    1864    1865    1866  # Hw-Ow-Hw
   1793   17    1867    1868    1869  # Hw-Ow-Hw
   1794   17    1870    1871    1872  # Hw-Ow-Hw
   1795   17    1873    1874    1875  # Hw-Ow-Hw
   1796   17    1876    1877    1878  # Hw-Ow-Hw
   1797   17    1879    1880    1881  # Hw-Ow-Hw
   1798   17    1882    1883    1884  # Hw-Ow-Hw
   1799   17    1885    1886    1887  # Hw-Ow-Hw
   1800   17    1888    1889    1890  # Hw-Ow-Hw
   1801   17    1891    1892    1893  # Hw-Ow-Hw
   1802   17    1894    1895    1896  # Hw-Ow-Hw
   1803   17    1897    1898    1899  # Hw-Ow-Hw
   1804   17    1900    1901    1902  # Hw-Ow-Hw
   1805   17    1903    1904    1905  # Hw-Ow-Hw
   1806   17    1906    1907    1908  # Hw-Ow-Hw
   1807   17    1909    1910    1911  # Hw-Ow-Hw
   1808   17    1912    1913    1914  # Hw-Ow-Hw
   1809   17    1915    1916    1917  # Hw-Ow-Hw
   1810   17    1918    1919    1920  # Hw-Ow-Hw
   1811   17    1921    1922    1923  # Hw-Ow-Hw
   1812   17    1924    1925    1926  # Hw-Ow-Hw
   1813   17    1927    1928    1929  # Hw-Ow-Hw
   1814   17    1930    1931    1932  # Hw-Ow-Hw
   1815   17    1933    1934    1935  # Hw-Ow-Hw
   1816   17    1936    1937    1938  # Hw-Ow-Hw
   1817   17    1939    1940    1941  # Hw-Ow-Hw
   1818   17    1942    1943    1944  # Hw-Ow-Hw
   1819   17    1945    1946    1947  # Hw-Ow-Hw
   1820   17    1948    1949    1950  # Hw-Ow-Hw
   1821   17    1951    1952    1953  # Hw-Ow-Hw
   1822   17    1954    1955    1956  # Hw-Ow-Hw
   1823   17    1957    1958    1959  # Hw-Ow-Hw
   1824   17    1960    1961    1962  # Hw-Ow-Hw
   1825   17    1963    1964    1965  # Hw-Ow-Hw
   1826   17    1966    1967    1968  # Hw-Ow-Hw
   1827   17    1969    1970    1971  # Hw-Ow-Hw
   1828   17    1972    1973    1974  # Hw-Ow-Hw
   1829   17    1975    1976    1977  # Hw-Ow-Hw
   1830   17    1978    1979    1980  # Hw-Ow-Hw
   1831   17    1981    1982    1983  # Hw-Ow-Hw
   1832   17    1984    1985    1986  # Hw-Ow-Hw
   1833   17    1987    1988    1989  # Hw-Ow-Hw
   1834   17    1990    1991    1992  # Hw-Ow-Hw
   1835   17    1993    1994    1995  # Hw-Ow-Hw
   1836   17    1996    1997    1998  # Hw-Ow-Hw
   1837   17    1999    2000    2001  # Hw-Ow-Hw
   1838   17    2002    2003    2004  # Hw-Ow-Hw
   1839   17    2005    2006    2007  # Hw-Ow-Hw
   1840   17    2008    2009    2010  # Hw-Ow-Hw
   1841   17    2011    2012    2013  # Hw-Ow-Hw
   1842   17    2014    2015    2016  # Hw-Ow-Hw
   1843   17    2017    2018    2019  # Hw-Ow-Hw
   1844   17    2020    2021    2022  # Hw-Ow-Hw
   1845   17    2023    2024    2025  # Hw-Ow-Hw
   1846   17    2026    2027    2028  # Hw-Ow-Hw
   1847   17    2029    2030    2031  # Hw-Ow-Hw
   1848   17    2032    2033    2034  # Hw-Ow-Hw
   1849   17    2035    2036    2037  # Hw-Ow-Hw
   1850   17    2038    2039    2040  # Hw-Ow-Hw
   1851   17    2041    2042    2043  # Hw-Ow-Hw
   1852   17    2044    2045    2046  # Hw-Ow-Hw
   1853   17    2047    2048    2049  # Hw-Ow-Hw
   1854   17    2050    2051    2052  # Hw-Ow-Hw
   1855   17    2053    2054    2055  # Hw-Ow-Hw
   1856   17    2056    2057    2058  # Hw-Ow-Hw
   1857   17    2059    2060    2061  # Hw-Ow-Hw
   1858   17    2062    2063    2064  # Hw-Ow-Hw
   1859   17    2065    2066    2067  # Hw-Ow-Hw
   1860   17    2068    2069    2070  # Hw-Ow-Hw
   1861   17    2071    2072    2073  # Hw-Ow-Hw
   1862   17    2074    2075    2076  # Hw-Ow-Hw
   1863   17    2077    2078    2079  # Hw-Ow-Hw
   1864   17    2080    2081    2082  # Hw-Ow-Hw
   1865   17    2083    2084    2085  # Hw-Ow-Hw
   1866   17    2086    2087    2088  # Hw-Ow-Hw
   1867   17    2089    2090    2091  # Hw-Ow-Hw
   1868   17    2092    2093    2094  # Hw-Ow-Hw
   1869   17    2095    2096    2097  # Hw-Ow-Hw
   1870   17    2098    2099    2100  # Hw-Ow-Hw
   1871   17    2101    2102    2103  # Hw-Ow-Hw
   1872   17    2104    2105    2106  # Hw-Ow-Hw
   1873   17    2107    2108    2109  # Hw-Ow-Hw
   1874   17    2110    2111    2112  # Hw-Ow-Hw
   1875   17    2113    2114    2115  # Hw-Ow-Hw
   1876   17    2116    2117    2118  # Hw-Ow-Hw
   1877   17    2119    2120    2121  # Hw-Ow-Hw
   1878   17    2122    2123    2124  # Hw-Ow-Hw
   1879   17    2125    2126    2127  # Hw-Ow-Hw
   1880   17    2128    2129    2130  # Hw-Ow-Hw
   1881   17    2131    2132    2133  # Hw-Ow-Hw
   1882   17    2134    2135    2136  # Hw-Ow-Hw
   1883   17    2137    2138    2139  # Hw-Ow-Hw
   1884   17    2140    2141    2142  # Hw-Ow-Hw
   1885   17    2143    2144    2145  # Hw-Ow-Hw
   1886   17    2146    2147    2148  # Hw-Ow-Hw
   1887   17    2149    2150    2151  # Hw-Ow-Hw
   1888   17    2152    2153    2154  # Hw-Ow-Hw
   1889   17    2155    2156    2157  # Hw-Ow-Hw
   1890   17    2158    2159    2160  # Hw-Ow-Hw
   1891   17    2161    2162    2163  # Hw-Ow-Hw
   1892   17    2164    2165    2166  # Hw-Ow-Hw
   1893   17    2167    2168    2169  # Hw-Ow-Hw
   1894   17    2170    2171    2172  # Hw-Ow-Hw
   1895   17    2173    2174    2175  # Hw-Ow-Hw
   1896   17    2176    2177    2178  # Hw-Ow-Hw
   1897   17    2179    2180    2181  # Hw-Ow-Hw
   1898   17    2182    2183    2184  # Hw-Ow-Hw
   1899   17    2185    2186    2187  # Hw-Ow-Hw
   1900   17    2188    2189    2190  # Hw-Ow-Hw
   1901   17    2191    2192    2193  # Hw-Ow-Hw
   1902   17    2194    2195    2196  # Hw-Ow-Hw
   1903   17    2197    2198    2199  # Hw-Ow-Hw
   1904   17    2200    2201    2202  # Hw-Ow-Hw
   1905   17    2203    2204    2205  # Hw-Ow-Hw
   1906   17    2206    2207    2208  # Hw-Ow-Hw
   1907   17    2209    2210    2211  # Hw-Ow-Hw
   1908   17    2212    2213    2214  # Hw-Ow-Hw
   1909   17    2215    2216    2217  # Hw-Ow-Hw
   1910   17    2218    2219    2220  # Hw-Ow-Hw
   1911   17    2221    2222    2223  # Hw-Ow-Hw
   1912   17    2224    2225    2226  # Hw-Ow-Hw
   1913   17    2227    2228    2229  # Hw-Ow-Hw
   1914   17    2230    2231    2232  # Hw-Ow-Hw
   1915   17    2233    2234    2235  # Hw-Ow-Hw
   1916   17    2236    2237    2238  # Hw-Ow-Hw
   1917   17    2239    2240    2241  # Hw-Ow-Hw
   1918   17    2242    2243    2244  # Hw-Ow-Hw
   1919   17    2245    2246    2247  # Hw-Ow-Hw
   1920   17    2248    2249    2250  # Hw-Ow-Hw
   1921   17    2251    2252    2253  # Hw-Ow-Hw
   1922   17    2254    2255    2256  # Hw-Ow-Hw
   1923   17    2257    2258    2259  # Hw-Ow-Hw
   1924   17    2260    2261    2262  # Hw-Ow-Hw
   1925   17    2263    2264    2265  # Hw-Ow-Hw
   1926   17    2266    2267    2268  # Hw-Ow-Hw
   1927   17    2269    2270    2271  # Hw-Ow-Hw
   1928   17    2272    2273    2274  # Hw-Ow-Hw
   1929   17    2275    2276    2277  # Hw-Ow-Hw
   1930   17    2278    2279    2280  # Hw-Ow-Hw
   1931   17    2281    2282    2283  # Hw-Ow-Hw
   1932   17    2284    2285    2286  # Hw-Ow-Hw
   1933   17    2287    2288    2289  # Hw-Ow-Hw
   1934   17    2290    2291    2292  # Hw-Ow-Hw
   1935   17    2293    2294    2295  # Hw-Ow-Hw
   1936   17    2296    2297    2298  # Hw-Ow-Hw
   1937   17    2299    2300    2301  # Hw-Ow-Hw
   1938   17    2302    2303    2304  # Hw-Ow-Hw
   1939   17    2305    2306    2307  # Hw-Ow-Hw
   1940   17    2308    2309    2310  # Hw-Ow-Hw
   1941   17    2311    2312    2313  # Hw-Ow-Hw
   1942   17    2314    2315    2316  # Hw-Ow-Hw
   1943   17    2317    2318    2319  # Hw-Ow-Hw
   1944   17    2320    2321    2322  # Hw-Ow-Hw
   1945   17    2323    2324    2325  # Hw-Ow-Hw
   1946   17    2326    2327    2328  # Hw-Ow-Hw
   1947   17    2329    2330    2331  # Hw-Ow-Hw
   1948   17    2332    2333    2334  # Hw-Ow-Hw
   1949   17    2335    2336    2337  # Hw-Ow-Hw
   1950   17    2338    2339    2340  # Hw-Ow-Hw
   1951   17    2341    2342    2343  # Hw-Ow-Hw
   1952   17    2344    2345    2346  # Hw-Ow-Hw
   1953   17    2347    2348    2349  # Hw-Ow-Hw
   1954   17    2350    2351    2352  # Hw-Ow-Hw
   1955   17    2353    2354    2355  # Hw-Ow-Hw
   1956   17    2356    2357    2358  # Hw-Ow-Hw
   1957   17    2359    2360    2361  # Hw-Ow-Hw
   1958   17    2362    2363    2364  # Hw-Ow-Hw
   1959   17    2365    2366    2367  # Hw-Ow-Hw
   1960   17    2368    2369    2370  # Hw-Ow-Hw
   1961   17    2371    2372    2373  # Hw-Ow-Hw
   1962   17    2374    2375    2376  # Hw-Ow-Hw
   1963   17    2377    2378    2379  # Hw-Ow-Hw
   1964   17    2380    2381    2382  # Hw-Ow-Hw
   1965   17    2383    2384    2385  # Hw-Ow-Hw
   1966   17    2386    2387    2388  # Hw-Ow-Hw
   1967   17    2389    2390    2391  # Hw-Ow-Hw
   1968   17    2392    2393    2394  # Hw-Ow-Hw
   1969   17    2395    2396    2397  # Hw-Ow-Hw
   1970   17    2398    2399    2400  # Hw-Ow-Hw
   1971   17    2401    2402    2403  # Hw-Ow-Hw
   1972   17    2404    2405    2406  # Hw-Ow-Hw
   1973   17    2407    2408    2409  # Hw-Ow-Hw
   1974   17    2410    2411    2412  # Hw-Ow-Hw
   1975   17    2413    2414    2415  # Hw-Ow-Hw
   1976   17    2416    2417    2418  # Hw-Ow-Hw
   1977   17    2419    2420    2421  # Hw-Ow-Hw
   1978   17    2422    2423    2424  # Hw-Ow-Hw
   1979   17    2425    2426    2427  # Hw-Ow-Hw
   1980   17    2428    2429    2430  # Hw-Ow-Hw
   1981   17    2431    2432    2433  # Hw-Ow-Hw
   1982   17    2434    2435    2436  # Hw-Ow-Hw
   1983   17    2437    2438    2439  # Hw-Ow-Hw
   1984   17    2440    2441    2442  # Hw-Ow-Hw
   1985   17    2443    2444    2445  # Hw-Ow-Hw
   1986   17    2446    2447    2448  # Hw-Ow-Hw
   1987   17    2449    2450    2451  # Hw-Ow-Hw
   1988   17    2452    2453    2454  # Hw-Ow-Hw
   1989   17    2455    2456    2457  # Hw-Ow-Hw
   1990   17    2458    2459    2460  # Hw-Ow-Hw
   1991   17    2461    2462    2463  # Hw-Ow-Hw
   1992   17    2464    2465    2466  # Hw-Ow-Hw
   1993   17    2467    2468    2469  # Hw-Ow-Hw
   1994   17    2470    2471    2472  # Hw-Ow-Hw
   1995   17    2473    2474    2475  # Hw-Ow-Hw
   1996   17    2476    2477    2478  # Hw-Ow-Hw
   1997   17    2479    2480    2481  # Hw-Ow-Hw
   1998   17    2482    2483    2484  # Hw-Ow-Hw
   1999   17    2485    2486    2487  # Hw-Ow-Hw
   2000   17    2488    2489    2490  # Hw-Ow-Hw
   2001   17    2491    2492    2493  # Hw-Ow-Hw
   2002   17    2494    2495    2496  # Hw-Ow-Hw
   2003   17    2497    2498    2499  # Hw-Ow-Hw
   2004   17    2500    2501    2502  # Hw-Ow-Hw
   2005   17    2503    2504    2505  # Hw-Ow-Hw
   2006   17    2506    2507    2508  # Hw-Ow-Hw
   2007   17    2509    2510    2511  # Hw-Ow-Hw
   2008   17    2512    2513    2514  # Hw-Ow-Hw
   2009   17    2515    2516    2517  # Hw-Ow-Hw
   2010   17    2518    2519    2520  # Hw-Ow-Hw
   2011   17    2521    2522    2523  # Hw-Ow-Hw
   2012   17    2524    2525    2526  # Hw-Ow-Hw
   2013   17    2527    2528    2529  # Hw-Ow-Hw
   2014   17    2530    2531    2532  # Hw-Ow-Hw
   2015   17    2533    2534    2535  # Hw-Ow-Hw
   2016   17    2536    2537    2538  # Hw-Ow-Hw
   2017   17    2539    2540    2541  # Hw-Ow-Hw
   2018   17    2542    2543    2544  # Hw-Ow-Hw
   2019   17    2545    2546    2547  # Hw-Ow-Hw
   2020   17    2548    2549    2550  # Hw-Ow-Hw
   2021   17    2551    2552    2553  # Hw-Ow-Hw
   2022   17    2554    2555    2556  # Hw-Ow-Hw
   2023   17    2557    2558    2559  # Hw-Ow-Hw
   2024   17    2560    2561    2562  # Hw-Ow-Hw
   2025   17    2563    2564    2565  # Hw-Ow-Hw
   2026   17    2566    2567    2568  # Hw-Ow-Hw
   2027   17    2569    2570    2571  # Hw-Ow-Hw
   2028   17    2572    2573    2574  # Hw-Ow-Hw
   2029   17    2575    2576    2577  # Hw-Ow-Hw
   2030   17    2578    2579    2580  # Hw-Ow-Hw
   2031   17    2581    2582    2583  # Hw-Ow-Hw
   2032   17    2584    2585    2586  # Hw-Ow-Hw
   2033   17    2587    2588    2589  # Hw-Ow-Hw
   2034   17    2590    2591    2592  # Hw-Ow-Hw
   2035   17    2593    2594    2595  # Hw-Ow-Hw
   2036   17    2596    2597    2598  # Hw-Ow-Hw
   2037   17    2599    2600    2601  # Hw-Ow-Hw
   2038   17    2602    2603    2604  # Hw-Ow-Hw
   2039   17    2605    2606    2607  # Hw-Ow-Hw
   2040   17    2608    2609    2610  # Hw-Ow-Hw
   2041   17    2611    2612    2613  # Hw-Ow-Hw
   2042   17    2614    2615    2616  # Hw-Ow-Hw
   2043   17    2617    2618    2619  # Hw-Ow-Hw
   2044   17    2620    2621    2622  # Hw-Ow-Hw
   2045   17    2623    2624    2625  # Hw-Ow-Hw
   2046   17    2626    2627    2628  # Hw-Ow-Hw
   2047   17    2629    2630    2631  # Hw-Ow-Hw
   2048   17    2632    2633    2634  # Hw-Ow-Hw
   2049   17    2635    2636    2637  # Hw-Ow-Hw
   2050   17    2638    2639    2640  # Hw-Ow-Hw
   2051   17    2641    2642    2643  # Hw-Ow-Hw
   2052   17    2644    2645    2646  # Hw-Ow-Hw
   2053   17    2647    2648    2649  # Hw-Ow-Hw
   2054   17    2650    2651    2652  # Hw-Ow-Hw
   2055   17    2653    2654    2655  # Hw-Ow-Hw
   2056   17    2656    2657    2658  # Hw-Ow-Hw
   2057   17    2659    2660    2661  # Hw-Ow-Hw
   2058   17    2662    2663    2664  # Hw-Ow-Hw
   2059   17    2665    2666    2667  # Hw-Ow-Hw
   2060   17    2668    2669    2670  # Hw-Ow-Hw
   2061   17    2671    2672    2673  # Hw-Ow-Hw
   2062   17    2674    2675    2676  # Hw-Ow-Hw
   2063   17    2677    2678    2679  # Hw-Ow-Hw
   2064   17    2680    2681    2682  # Hw-Ow-Hw
   2065   17    2683    2684    2685  # Hw-Ow-Hw
   2066   17    2686    2687    2688  # Hw-Ow-Hw
   2067   17    2689    2690    2691  # Hw-Ow-Hw
   2068   17    2692    2693    2694  # Hw-Ow-Hw
   2069   17    2695    2696    2697  # Hw-Ow-Hw
   2070   17    2698    2699    2700  # Hw-Ow-Hw
   2071   17    2701    2702    2703  # Hw-Ow-Hw
   2072   17    2704    2705    2706  # Hw-Ow-Hw
   2073   17    2707    2708    2709  # Hw-Ow-Hw
   2074   17    2710    2711    2712  # Hw-Ow-Hw
   2075   17    2713    2714    2715  # Hw-Ow-Hw
   2076   17    2716    2717    2718  # Hw-Ow-Hw
   2077   17    2719    2720    2721  # Hw-Ow-Hw
   2078   17    2722    2723    2724  # Hw-Ow-Hw
   2079   17    2725    2726    2727  # Hw-Ow-Hw
   2080   17    2728    2729    2730  # Hw-Ow-Hw
   2081   17    2731    2732    2733  # Hw-Ow-Hw
   2082   17    2734    2735    2736  # Hw-Ow-Hw
   2083   17    2737    2738    2739  # Hw-Ow-Hw
   2084   17    2740    2741    2742  # Hw-Ow-Hw
   2085   17    2743    2744    2745  # Hw-Ow-Hw
   2086   17    2746    2747    2748  # Hw-Ow-Hw
   2087   17    2749    2750    2751  # Hw-Ow-Hw
   2088   17    2752    2753    2754  # Hw-Ow-Hw
   2089   17    2755    2756    2757  # Hw-Ow-Hw
   2090   17    2758    2759    2760  # Hw-Ow-Hw
   2091   17    2761    2762    2763  # Hw-Ow-Hw
   2092   17    2764    2765    2766  # Hw-Ow-Hw
   2093   17    2767    2768    2769  # Hw-Ow-Hw
   2094   17    2770    2771    2772  # Hw-Ow-Hw
   2095   17    2773    2774    2775  # Hw-Ow-Hw
   2096   17    2776    2777    2778  # Hw-Ow-Hw
   2097   17    2779    2780    2781  # Hw-Ow-Hw
   2098   17    2782    2783    2784  # Hw-Ow-Hw
   2099   17    2785    2786    2787  # Hw-Ow-Hw
   2100   17    2788    2789    2790  # Hw-Ow-Hw
   2101   17    2791    2792    2793  # Hw-Ow-Hw
   2102   17    2794    2795    2796  # Hw-Ow-Hw
   2103   17    2797    2798    2799  # Hw-Ow-Hw
   2104   17    2800    2801    2802  # Hw-Ow-Hw
   2105   17    2803    2804    2805  # Hw-Ow-Hw
   2106   17    2806    2807    2808  # Hw-Ow-Hw
   2107   17    2809    2810    2811  # Hw-Ow-Hw
   2108   17    2812    2813    2814  # Hw-Ow-Hw
   2109   17    2815    2816    2817  # Hw-Ow-Hw
   2110   17    2818    2819    2820  # Hw-Ow-Hw
   2111   17    2821    2822    2823  # Hw-Ow-Hw
   2112   17    2824    2825    2826  # Hw-Ow-Hw
   2113   17    2827    2828    2829  # Hw-Ow-Hw
   2114   17    2830    2831    2832  # Hw-Ow-Hw
   2115   17    2833    2834    2835  # Hw-Ow-Hw
   2116   17    2836    2837    2838  # Hw-Ow-Hw
   2117   17    2839    2840    2841  # Hw-Ow-Hw
   2118   17    2842    2843    2844  # Hw-Ow-Hw
   2119   17    2845    2846    2847  # Hw-Ow-Hw
   2120   17    2848    2849    2850  # Hw-Ow-Hw
   2121   17    2851    2852    2853  # Hw-Ow-Hw
   2122   17    2854    2855    2856  # Hw-Ow-Hw
   2123   17    2857    2858    2859  # Hw-Ow-Hw
   2124   17    2860    2861    2862  # Hw-Ow-Hw
   2125   17    2863    2864    2865  # Hw-Ow-Hw
   2126   17    2866    2867    2868  # Hw-Ow-Hw
   2127   17    2869    2870    2871  # Hw-Ow-Hw
   2128   17    2872    2873    2874  # Hw-Ow-Hw
   2129   17    2875    2876    2877  # Hw-Ow-Hw
   2130   17    2878    2879    2880  # Hw-Ow-Hw
   2131   17    2881    2882    2883  # Hw-Ow-Hw
   2132   17    2884    2885    2886  # Hw-Ow-Hw
   2133   17    2887    2888    2889  # Hw-Ow-Hw
   2134   17    2890    2891    2892  # Hw-Ow-Hw
   2135   17    2893    2894    2895  # Hw-Ow-Hw
   2136   17    2896    2897    2898  # Hw-Ow-Hw
   2137   17    2899    2900    2901  # Hw-Ow-Hw
   2138   17    2902    2903    2904  # Hw-Ow-Hw
   2139   17    2905    2906    2907  # Hw-Ow-Hw
   2140   17    2908    2909    2910  # Hw-Ow-Hw
   2141   17    2911    2912    2913  # Hw-Ow-Hw
   2142   17    2914    2915    2916  # Hw-Ow-Hw
   2143   17    2917    2918    2919  # Hw-Ow-Hw
   2144   17    2920    2921    2922  # Hw-Ow-Hw
   2145   17    2923    2924    2925  # Hw-Ow-Hw
   2146   17    2926    2927    2928  # Hw-Ow-Hw
   2147   17    2929    2930    2931  # Hw-Ow-Hw
   2148   17    2932    2933    2934  # Hw-Ow-Hw
   2149   17    2935    2936    2937  # Hw-Ow-Hw
   2150   17    2938    2939    2940  # Hw-Ow-Hw
   2151   17    2941    2942    2943  # Hw-Ow-Hw
   2152   17    2944    2945    2946  # Hw-Ow-Hw
   2153   17    2947    2948    2949  # Hw-Ow-Hw
   2154   17    2950    2951    2952  # Hw-Ow-Hw
   2155   17    2953    2954    2955  # Hw-Ow-Hw
   2156   17    2956    2957    2958  # Hw-Ow-Hw
   2157   17    2959    2960    2961  # Hw-Ow-Hw
   2158   17    2962    2963    2964  # Hw-Ow-Hw
   2159   17    2965    2966    2967  # Hw-Ow-Hw
   2160   17    2968    2969    2970  # Hw-Ow-Hw
   2161   17    2971    2972    2973  # Hw-Ow-Hw
   2162   17    2974    2975    2976  # Hw-Ow-Hw
   2163   17    2977    2978    2979  # Hw-Ow-Hw
   2164   17    2980    2981    2982  # Hw-Ow-Hw
   2165   17    2983    2984    2985  # Hw-Ow-Hw
   2166   17    2986    2987    2988  # Hw-Ow-Hw
   2167   17    2989    2990    2991  # Hw-Ow-Hw
   2168   17    2992    2993    2994  # Hw-Ow-Hw
   2169   17    2995    2996    2997  # Hw-Ow-Hw
   2170   17    2998    2999    3000  # Hw-Ow-Hw
   2171   17    3001    3002    3003  # Hw-Ow-Hw
   2172   17    3004    3005    3006  # Hw-Ow-Hw
   2173   17    3007    3008    3009  # Hw-Ow-Hw
   2174   17    3010    3011    3012  # Hw-Ow-Hw
   2175   17    3013    3014    3015  # Hw-Ow-Hw
   2176   17    3016    3017    3018  # Hw-Ow-Hw
   2177   17    3019    3020    3021  # Hw-Ow-Hw
   2178   17    3022    3023    3024  # Hw-Ow-Hw
   2179   17    3025    3026    3027  # Hw-Ow-Hw
   2180   17    3028    3029    3030  # Hw-Ow-Hw
   2181   17    3031    3032    3033  # Hw-Ow-Hw
   2182   17    3034    3035    3036  # Hw-Ow-Hw
   2183   17    3037    3038    3039  # Hw-Ow-Hw
   2184   17    3040    3041    3042  # Hw-Ow-Hw
   2185   17    3043    3044    3045  # Hw-Ow-Hw
   2186   17    3046    3047    3048  # Hw-Ow-Hw
   2187   17    3049    3050    3051  # Hw-Ow-Hw
   2188   17    3052    3053    3054  # Hw-Ow-Hw
   2189   17    3055    3056    3057  # Hw-Ow-Hw
   2190   17    3058    3059    3060  # Hw-Ow-Hw
   2191   17    3061    3062    3063  # Hw-Ow-Hw
   2192   17    3064    3065    3066  # Hw-Ow-Hw
   2193   17    3067    3068    3069  # Hw-Ow-Hw
   2194   17    3070    3071    3072  # Hw-Ow-Hw
   2195   17    3073    3074    3075  # Hw-Ow-Hw
   2196   17    3076    3077    3078  # Hw-Ow-Hw
   2197   17    3079    3080    3081  # Hw-Ow-Hw
   2198   17    3082    3083    3084  # Hw-Ow-Hw
   2199   17    3085    3086    3087  # Hw-Ow-Hw
   2200   17    3088    3089    3090  # Hw-Ow-Hw
   2201   17    3091    3092    3093  # Hw-Ow-Hw
   2202   17    3094    3095    3096  # Hw-Ow-Hw
   2203   17    3097    3098    3099  # Hw-Ow-Hw
   2204   17    3100    3101    3102  # Hw-Ow-Hw
   2205   17    3103    3104    3105  # Hw-Ow-Hw
   2206   17    3106    3107    3108  # Hw-Ow-Hw
   2207   17    3109    3110    3111  # Hw-Ow-Hw
   2208   17    3112    3113    3114  # Hw-Ow-Hw
   2209   17    3115    3116    3117  # Hw-Ow-Hw
   2210   17    3118    3119    3120  # Hw-Ow-Hw
   2211   17    3121    3122    3123  # Hw-Ow-Hw
   2212   17    3124    3125    3126  # Hw-Ow-Hw
   2213   17    3127    3128    3129  # Hw-Ow-Hw
   2214   17    3130    3131    3132  # Hw-Ow-Hw
   2215   17    3133    3134    3135  # Hw-Ow-Hw
   2216   17    3136    3137    3138  # Hw-Ow-Hw
   2217   17    3139    3140    3141  # Hw-Ow-Hw
   2218   17    3142    3143    3144  # Hw-Ow-Hw
   2219   17    3145    3146    3147  # Hw-Ow-Hw
   2220   17    3148    3149    3150  # Hw-Ow-Hw
   2221   17    3151    3152    3153  # Hw-Ow-Hw
   2222   17    3154    3155    3156  # Hw-Ow-Hw
   2223   17    3157    3158    3159  # Hw-Ow-Hw
   2224   17    3160    3161    3162  # Hw-Ow-Hw
   2225   17    3163    3164    3165  # Hw-Ow-Hw
   2226   17    3166    3167    3168  # Hw-Ow-Hw
   2227   17    3169    3170    3171  # Hw-Ow-Hw
   2228   17    3172    3173    3174  # Hw-Ow-Hw
   2229   17    3175    3176    3177  # Hw-Ow-Hw
   2230   17    3178    3179    3180  # Hw-Ow-Hw
   2231   17    3181    3182    3183  # Hw-Ow-Hw
   2232   17    3184    3185    3186  # Hw-Ow-Hw
   2233   17    3187    3188    3189  # Hw-Ow-Hw
   2234   17    3190    3191    3192  # Hw-Ow-Hw
   2235   17    3193    3194    3195  # Hw-Ow-Hw
   2236   17    3196    3197    3198  # Hw-Ow-Hw
   2237   17    3199    3200    3201  # Hw-Ow-Hw
   2238   17    3202    3203    3204  # Hw-Ow-Hw
   2239   17    3205    3206    3207  # Hw-Ow-Hw
   2240   17    3208    3209    3210  # Hw-Ow-Hw
   2241   17    3211    3212    3213  # Hw-Ow-Hw
   2242   17    3214    3215    3216  # Hw-Ow-Hw
   2243   17    3217    3218    3219  # Hw-Ow-Hw
   2244   17    3220    3221    3222  # Hw-Ow-Hw
   2245   17    3223    3224    3225  # Hw-Ow-Hw
   2246   17    3226    3227    3228  # Hw-Ow-Hw
   2247   17    3229    3230    3231  # Hw-Ow-Hw
   2248   17    3232    3233    3234  # Hw-Ow-Hw
   2249   17    3235    3236    3237  # Hw-Ow-Hw
   2250   17    3238    3239    3240  # Hw-Ow-Hw
   2251   17    3241    3242    3243  # Hw-Ow-Hw
   2252   17    3244    3245    3246  # Hw-Ow-Hw
   2253   17    3247    3248    3249  # Hw-Ow-Hw
   2254   17    3250    3251    3252  # Hw-Ow-Hw
   2255   17    3253    3254    3255  # Hw-Ow-Hw
   2256   17    3256    3257    3258  # Hw-Ow-Hw
   2257   17    3259    3260    3261  # Hw-Ow-Hw
   2258   17    3262    3263    3264  # Hw-Ow-Hw
   2259   17    3265    3266    3267  # Hw-Ow-Hw
   2260   17    3268    3269    3270  # Hw-Ow-Hw
   2261   17    3271    3272    3273  # Hw-Ow-Hw
   2262   17    3274    3275    3276  # Hw-Ow-Hw
   2263   17    3277    3278    3279  # Hw-Ow-Hw
   2264   17    3280    3281    3282  # Hw-Ow-Hw
   2265   17    3283    3284    3285  # Hw-Ow-Hw
   2266   17    3286    3287    3288  # Hw-Ow-Hw
   2267   17    3289    3290    3291  # Hw-Ow-Hw
   2268   17    3292    3293    3294  # Hw-Ow-Hw
   2269   17    3295    3296    3297  # Hw-Ow-Hw
   2270   17    3298    3299    3300  # Hw-Ow-Hw
   2271   17    3301    3302    3303  # Hw-Ow-Hw
   2272   17    3304    3305    3306  # Hw-Ow-Hw
   2273   17    3307    3308    3309  # Hw-Ow-Hw
   2274   17    3310    3311    3312  # Hw-Ow-Hw
   2275   17    3313    3314    3315  # Hw-Ow-Hw
   2276   17    3316    3317    3318  # Hw-Ow-Hw
   2277   17    3319    3320    3321  # Hw-Ow-Hw
   2278   17    3322    3323    3324  # Hw-Ow-Hw
   2279   17    3325    3326    3327  # Hw-Ow-Hw
   2280   17    3328    3329    3330  # Hw-Ow-Hw
   2281   17    3331    3332    3333  # Hw-Ow-Hw
   2282   17    3334    3335    3336  # Hw-Ow-Hw
   2283   17    3337    3338    3339  # Hw-Ow-Hw
   2284   17    3340    3341    3342  # Hw-Ow-Hw
   2285   17    3343    3344    3345  # Hw-Ow-Hw
   2286   17    3346    3347    3348  # Hw-Ow-Hw
   2287   17    3349    3350    3351  # Hw-Ow-Hw
   2288   17    3352    3353    3354  # Hw-Ow-Hw
   2289   17    3355    3356    3357  # Hw-Ow-Hw
   2290   17    3358    3359    3360  # Hw-Ow-Hw
   2291   17    3361    3362    3363  # Hw-Ow-Hw
   2292   17    3364    3365    3366  # Hw-Ow-Hw
   2293   17    3367    3368    3369  # Hw-Ow-Hw
   2294   17    3370    3371    3372  # Hw-Ow-Hw
   2295   17    3373    3374    3375  # Hw-Ow-Hw
   2296   17    3376    3377    3378  # Hw-Ow-Hw
   2297   17    3379    3380    3381  # Hw-Ow-Hw
   2298   17    3382    3383    3384  # Hw-Ow-Hw
   2299   17    3385    3386    3387  # Hw-Ow-Hw
   2300   17    3388    3389    3390  # Hw-Ow-Hw
   2301   17    3391    3392    3393  # Hw-Ow-Hw
   2302   17    3394    3395    3396  # Hw-Ow-Hw
   2303   17    3397    3398    3399  # Hw-Ow-Hw
   2304   17    3400    3401    3402  # Hw-Ow-Hw
   2305   17    3403    3404    3405  # Hw-Ow-Hw
   2306   17    3406    3407    3408  # Hw-Ow-Hw
   2307   17    3409    3410    3411  # Hw-Ow-Hw
   2308   17    3412    3413    3414  # Hw-Ow-Hw
   2309   17    3415    3416    3417  # Hw-Ow-Hw
   2310   17    3418    3419    3420  # Hw-Ow-Hw
   2311   17    3421    3422    3423  # Hw-Ow-Hw
   2312   17    3424    3425    3426  # Hw-Ow-Hw
   2313   17    3427    3428    3429  # Hw-Ow-Hw
   2314   17    3430    3431    3432  # Hw-Ow-Hw
   2315   17    3433    3434    3435  # Hw-Ow-Hw
   2316   17    3436    3437    3438  # Hw-Ow-Hw
   2317   17    3439    3440    3441  # Hw-Ow-Hw
   2318   17    3442    3443    3444  # Hw-Ow-Hw
   2319   17    3445    3446    3447  # Hw-Ow-Hw
   2320   17    3448    3449    3450  # Hw-Ow-Hw
   2321   17    3451    3452    3453  # Hw-Ow-Hw
   2322   17    3454    3455    3456  # Hw-Ow-Hw
   2323   17    3457    3458    3459  # Hw-Ow-Hw
   2324   17    3460    3461    3462  # Hw-Ow-Hw
   2325   17    3463    3464    3465  # Hw-Ow-Hw
   2326   17    3466    3467    3468  # Hw-Ow-Hw
   2327   17    3469    3470    3471  # Hw-Ow-Hw
   2328   17    3472    3473    3474  # Hw-Ow-Hw
   2329   17    3475    3476    3477  # Hw-Ow-Hw
   2330   17    3478    3479    3480  # Hw-Ow-Hw
   2331   17    3481    3482    3483  # Hw-Ow-Hw
   2332   17    3484    3485    3486  # Hw-Ow-Hw
   2333   17    3487    3488    3489  # Hw-Ow-Hw
   2334   17    3490    3491    3492  # Hw-Ow-Hw
   2335   17    3493    3494    3495  # Hw-Ow-Hw
   2336   17    3496    3497    3498  # Hw-Ow-Hw
   2337   17    3499    3500    3501  # Hw-Ow-Hw
   2338   17    3502    3503    3504  # Hw-Ow-Hw
   2339   17    3505    3506    3507  # Hw-Ow-Hw
   2340   17    3508    3509    3510  # Hw-Ow-Hw
   2341   17    3511    3512    3513  # Hw-Ow-Hw
   2342   17    3514    3515    3516  # Hw-Ow-Hw
   2343   17    3517    3518    3519  # Hw-Ow-Hw
   2344   17    3520    3521    3522  # Hw-Ow-Hw
   2345   17    3523    3524    3525  # Hw-Ow-Hw
   2346   17    3526    3527    3528  # Hw-Ow-Hw
   2347   17    3529    3530    3531  # Hw-Ow-Hw
   2348   17    3532    3533    3534  # Hw-Ow-Hw
   2349   17    3535    3536    3537  # Hw-Ow-Hw
   2350   17    3538    3539    3540  # Hw-Ow-Hw
   2351   17    3541    3542    3543  # Hw-Ow-Hw
   2352   17    3544    3545    3546  # Hw-Ow-Hw
   2353   17    3547    3548    3549  # Hw-Ow-Hw
   2354   17    3550    3551    3552  # Hw-Ow-Hw
   2355   17    3553    3554    3555  # Hw-Ow-Hw
   2356   17    3556    3557    3558  # Hw-Ow-Hw
   2357   17    3559    3560    3561  # Hw-Ow-Hw
   2358   17    3562    3563    3564  # Hw-Ow-Hw
   2359   17    3565    3566    3567  # Hw-Ow-Hw
   2360   17    3568    3569    3570  # Hw-Ow-Hw
   2361   17    3571    3572    3573  # Hw-Ow-Hw
   2362   17    3574    3575    3576  # Hw-Ow-Hw
   2363   17    3577    3578    3579  # Hw-Ow-Hw
   2364   17    3580    3581    3582  # Hw-Ow-Hw
   2365   17    3583    3584    3585  # Hw-Ow-Hw
   2366   17    3586    3587    3588  # Hw-Ow-Hw
   2367   17    3589    3590    3591  # Hw-Ow-Hw
   2368   17    3592    3593    3594  # Hw-Ow-Hw
   2369   17    3595    3596    3597  # Hw-Ow-Hw
   2370   17    3598    3599    3600  # Hw-Ow-Hw
   2371   17    3601    3602    3603  # Hw-Ow-Hw
   2372   17    3604    3605    3606  # Hw-Ow-Hw
   2373   17    3607    3608    3609  # Hw-Ow-Hw
   2374   17    3610    3611    3612  # Hw-Ow-Hw
   2375   17    3613    3614    3615  # Hw-Ow-Hw
   2376   17    3616    3617    3618  # Hw-Ow-Hw
   2377   17    3619    3620    3621  # Hw-Ow-Hw
   2378   17    3622    3623    3624  # Hw-Ow-Hw
   2379   17    3625    3626    3627  # Hw-Ow-Hw
   2380   17    3628    3629    3630  # Hw-Ow-Hw
   2381   17    3631    3632    3633  # Hw-Ow-Hw
   2382   17    3634    3635    3636  # Hw-Ow-Hw
   2383   17    3637    3638    3639  # Hw-Ow-Hw
   2384   17    3640    3641    3642  # Hw-Ow-Hw
   2385   17    3643    3644    3645  # Hw-Ow-Hw
   2386   17    3646    3647    3648  # Hw-Ow-Hw
   2387   17    3649    3650    3651  # Hw-Ow-Hw
   2388   17    3652    3653    3654  # Hw-Ow-Hw
   2389   17    3655    3656    3657  # Hw-Ow-Hw
   2390   17    3658    3659    3660  # Hw-Ow-Hw
   2391   17    3661    3662    3663  # Hw-Ow-Hw
   2392   17    3664    3665    3666  # Hw-Ow-Hw
   2393   17    3667    3668    3669  # Hw-Ow-Hw
   2394   17    3670    3671    3672  # Hw-Ow-Hw
   2395   17    3673    3674    3675  # Hw-Ow-Hw
   2396   17    3676    3677    3678  # Hw-Ow-Hw
   2397   17    3679    3680    3681  # Hw-Ow-Hw
   2398   17    3682    3683    3684  # Hw-Ow-Hw
   2399   17    3685    3686    3687  # Hw-Ow-Hw
   2400   17    3688    3689    3690  # Hw-Ow-Hw
   2401   17    3691    3692    3693  # Hw-Ow-Hw
   2402   17    3694    3695    3696  # Hw-Ow-Hw
   2403   17    3697    3698    3699  # Hw-Ow-Hw
   2404   17    3700    3701    3702  # Hw-Ow-Hw
   2405   17    3703    3704    3705  # Hw-Ow-Hw
   2406   17    3706    3707    3708  # Hw-Ow-Hw
   2407   17    3709    3710    3711  # Hw-Ow-Hw
   2408   17    3712    3713    3714  # Hw-Ow-Hw
   2409   17    3715    3716    3717  # Hw-Ow-Hw
   2410   17    3718    3719    3720  # Hw-Ow-Hw
   2411   17    3721    3722    3723  # Hw-Ow-Hw
   2412   17    3724    3725    3726  # Hw-Ow-Hw
   2413   17    3727    3728    3729  # Hw-Ow-Hw
   2414   17    3730    3731    3732  # Hw-Ow-Hw
   2415   17    3733    3734    3735  # Hw-Ow-Hw
   2416   17    3736    3737    3738  # Hw-Ow-Hw
   2417   17    3739    3740    3741  # Hw-Ow-Hw
   2418   17    3742    3743    3744  # Hw-Ow-Hw
   2419   17    3745    3746    3747  # Hw-Ow-Hw
   2420   17    3748    3749    3750  # Hw-Ow-Hw
   2421   17    3751    3752    3753  # Hw-Ow-Hw
   2422   17    3754    3755    3756  # Hw-Ow-Hw
   2423   17    3757    3758    3759  # Hw-Ow-Hw
   2424   17    3760    3761    3762  # Hw-Ow-Hw
   2425   17    3763    3764    3765  # Hw-Ow-Hw
   2426   17    3766    3767    3768  # Hw-Ow-Hw
   2427   17    3769    3770    3771  # Hw-Ow-Hw
   2428   17    3772    3773    3774  # Hw-Ow-Hw
   2429   17    3775    3776    3777  # Hw-Ow-Hw
   2430   17    3778    3779    3780  # Hw-Ow-Hw
   2431   17    3781    3782    3783  # Hw-Ow-Hw
   2432   17    3784    3785    3786  # Hw-Ow-Hw
   2433   17    3787    3788    3789  # Hw-Ow-Hw
   2434   17    3790    3791    3792  # Hw-Ow-Hw
   2435   17    3793    3794    3795  # Hw-Ow-Hw
   2436   17    3796    3797    3798  # Hw-Ow-Hw
   2437   17    3799    3800    3801  # Hw-Ow-Hw
   2438   17    3802    3803    3804  # Hw-Ow-Hw
   2439   17    3805    3806    3807  # Hw-Ow-Hw
   2440   17    3808    3809    3810  # Hw-Ow-Hw

Dihedrals

      1    1       1      13      19      14  # O0-C12-C18-C13
      2    2       1      13      19      25  # O0-C12-C18-C24
      3    3      21      13      19      14  # C20-C12-C18-C13
      4    4      21      13      19      25  # C20-C12-C18-C24
      5    3      19      13      21      15  # C18-C12-C20-C14
      6    4      19      13      21      27  # C18-C12-C20-C26
      7    1       1      13      21      15  # O0-C12-C20-C14
      8    2       1      13      21      27  # O0-C12-C20-C26
      9    1       2      14      20      15  # O1-C13-C19-C14
     10    2       2      14      20      26  # O1-C13-C19-C25
     11    3      19      14      20      15  # C18-C13-C19-C14
     12    4      19      14      20      26  # C18-C13-C19-C25
     13    1       2      14      19      13  # O1-C13-C18-C12
     14    2       2      14      19      25  # O1-C13-C18-C24
     15    3      20      14      19      13  # C19-C13-C18-C12
     16    4      20      14      19      25  # C19-C13-C18-C24
     17    1       4      16      24      18  # O3-C15-C23-C17
     18    2       4      16      24      30  # O3-C15-C23-C29
     19    3      22      16      24      18  # C21-C15-C23-C17
     20    4      22      16      24      30  # C21-C15-C23-C29
     21    3      24      16      22      17  # C23-C15-C21-C16
     22    4      24      16      22      28  # C23-C15-C21-C27
     23    1       4      16      22      17  # O3-C15-C21-C16
     24    2       4      16      22      28  # O3-C15-C21-C27
     25    3      23      17      22      16  # C22-C16-C21-C15
     26    4      23      17      22      28  # C22-C16-C21-C27
     27    1       5      17      22      16  # O4-C16-C21-C15
     28    2       5      17      22      28  # O4-C16-C21-C27
     29    3      22      17      23      18  # C21-C16-C22-C17
     30    4      22      17      23      29  # C21-C16-C22-C28
     31    1       5      17      23      18  # O4-C16-C22-C17
     32    2       5      17      23      29  # O4-C16-C22-C28
     33    5      25       7      31      43  # C24-N6-C30-C42
     34    5      25       7      31      37  # C24-N6-C30-C36
     35    6      31       7      25      19  # C30-N6-C24-C18
     36    5      26       8      32      38  # C25-N7-C31-C37
     37    5      26       8      32      44  # C25-N7-C31-C43
     38    6      32       8      26      20  # C31-N7-C25-C19
     39    6      33       9      27      21  # C32-N8-C26-C20
     40    5      27       9      33      39  # C26-N8-C32-C38
     41    5      27       9      33      45  # C26-N8-C32-C44
     42    6      34      10      28      22  # C33-N9-C27-C21
     43    5      28      10      34      40  # C27-N9-C33-C39
     44    5      28      10      34      46  # C27-N9-C33-C45
     45    6      35      11      29      23  # C34-N10-C28-C22
     46    5      29      11      35      47  # C28-N10-C34-C46
     47    5      29      11      35      41  # C28-N10-C34-C40
     48    5      30      12      36      48  # C29-N11-C35-C47
     49    5      30      12      36      42  # C29-N11-C35-C41
     50    6      36      12      30      24  # C35-N11-C29-C23
     51    1       3      15      20      14  # O2-C14-C19-C13
     52    2       3      15      20      26  # O2-C14-C19-C25
     53    3      21      15      20      14  # C20-C14-C19-C13
     54    4      21      15      20      26  # C20-C14-C19-C25
     55    1       3      15      21      13  # O2-C14-C20-C12
     56    2       3      15      21      27  # O2-C14-C20-C26
     57    3      20      15      21      13  # C19-C14-C20-C12
     58    4      20      15      21      27  # C19-C14-C20-C26
     59    1       6      18      24      16  # O5-C17-C23-C15
     60    2       6      18      24      30  # O5-C17-C23-C29
     61    3      23      18      24      16  # C22-C17-C23-C15
     62    4      23      18      24      30  # C22-C17-C23-C29
     63    1       6      18      23      17  # O5-C17-C22-C16
     64    2       6      18      23      29  # O5-C17-C22-C28
     65    3      24      18      23      17  # C23-C17-C22-C16
     66    4      24      18      23      29  # C23-C17-C22-C28
     67    7      13      19      25       7  # C12-C18-C24-N6
     68    7      14      19      25       7  # C13-C18-C24-N6
     69    7      14      20      26       8  # C13-C19-C25-N7
     70    7      15      20      26       8  # C14-C19-C25-N7
     71    7      13      21      27       9  # C12-C20-C26-N8
     72    7      15      21      27       9  # C14-C20-C26-N8
     73    7      16      22      28      10  # C15-C21-C27-N9
     74    7      17      22      28      10  # C16-C21-C27-N9
     75    7      17      23      29      11  # C16-C22-C28-N10
     76    7      18      23      29      11  # C17-C22-C28-N10
     77    7      16      24      30      12  # C15-C23-C29-N11
     78    7      18      24      30      12  # C17-C23-C29-N11
     79    8       7      31      43      40  # N6-C30-C42-C39
     80    9       7      31      43      61  # N6-C30-C42-H60
     81   10      37      31      43      40  # C36-C30-C42-C39
     82   11      37      31      43      61  # C36-C30-C42-H60
     83    8       7      31      37      46  # N6-C30-C36-C45
     84    9       7      31      37      49  # N6-C30-C36-H48
     85   10      43      31      37      46  # C42-C30-C36-C45
     86   11      43      31      37      49  # C42-C30-C36-H48
     87    9       8      32      38      50  # N7-C31-C37-H49
     88    8       8      32      38     128  # N7-C31-C37-C46
     89   11      44      32      38      50  # C43-C31-C37-H49
     90   10      44      32      38     128  # C43-C31-C37-C46
     91   10      32      44     122     116  # C31-C43-C40-C34
     92   11      32      44     122     134  # C31-C43-C40-H52
     93   11      62      44     122     116  # H61-C43-C40-C34
     94   12      62      44     122     134  # H61-C43-C40-H52
     95    8       8      32      44     122  # N7-C31-C43-C40
     96    9       8      32      44      62  # N7-C31-C43-H61
     97   10      38      32      44     122  # C37-C31-C43-C40
     98   11      38      32      44      62  # C37-C31-C43-H61
     99    9       9      33      39      51  # N8-C32-C38-H50
    100    8       9      33      39     129  # N8-C32-C38-C47
    101   11      45      33      39      51  # C44-C32-C38-H50
    102   10      45      33      39     129  # C44-C32-C38-C47
    103    9       9      33      45      63  # N8-C32-C44-H62
    104    8       9      33      45     123  # N8-C32-C44-C41
    105   11      39      33      45      63  # C38-C32-C44-H62
    106   10      39      33      45     123  # C38-C32-C44-C41
    107   10      33      39     129     117  # C32-C38-C47-C35
    108   13      33      39     129     159  # C32-C38-C47-S77
    109   11      51      39     129     117  # H50-C38-C47-C35
    110   14      51      39     129     159  # H50-C38-C47-S77
    111    9      10      34      40      52  # N9-C33-C39-H51
    112    8      10      34      40      43  # N9-C33-C39-C42
    113   11      46      34      40      52  # C45-C33-C39-H51
    114   10      46      34      40      43  # C45-C33-C39-C42
    115    8      10      34      46      37  # N9-C33-C45-C36
    116   15      10      34      46      70  # N9-C33-C45-S69
    117   10      40      34      46      37  # C39-C33-C45-C36
    118   13      40      34      46      70  # C39-C33-C45-S69
    119   16      35      47      74      76  # C34-C46-S73-O75
    120   16      35      47      74      75  # C34-C46-S73-O74
    121   16      35      47      74      77  # C34-C46-S73-O76
    122   16     119      47      74      76  # C37-C46-S73-O75
    123   16     119      47      74      75  # C37-C46-S73-O74
    124   16     119      47      74      77  # C37-C46-S73-O76
    125   15      11      35      47      74  # N10-C34-C46-S73
    126    8      11      35      47     119  # N10-C34-C46-C37
    127   13      41      35      47      74  # C40-C34-C46-S73
    128   10      41      35      47     119  # C40-C34-C46-C37
    129   13      74      47     119     113  # S73-C46-C37-C31
    130   14      74      47     119     131  # S73-C46-C37-H49
    131   10      35      47     119     113  # C34-C46-C37-C31
    132   11      35      47     119     131  # C34-C46-C37-H49
    133    8      11      35      41     125  # N10-C34-C40-C43
    134    9      11      35      41      53  # N10-C34-C40-H52
    135   10      47      35      41     125  # C46-C34-C40-C43
    136   11      47      35      41      53  # C46-C34-C40-H52
    137   11      54      42     126     114  # H53-C41-C44-C32
    138   12      54      42     126     144  # H53-C41-C44-H62
    139   10      36      42     126     114  # C35-C41-C44-C32
    140   11      36      42     126     144  # C35-C41-C44-H62
    141    8      12      36      48     120  # N11-C35-C47-C38
    142   15      12      36      48      78  # N11-C35-C47-S77
    143   10      42      36      48     120  # C41-C35-C47-C38
    144   13      42      36      48      78  # C41-C35-C47-S77
    145    8      12      36      42     126  # N11-C35-C41-C44
    146    9      12      36      42      54  # N11-C35-C41-H53
    147   10      48      36      42     126  # C47-C35-C41-C44
    148   11      48      36      42      54  # C47-C35-C41-H53
    149   10      31      37      46      34  # C30-C36-C45-C33
    150   13      31      37      46      70  # C30-C36-C45-S69
    151   11      49      37      46      34  # H48-C36-C45-C33
    152   14      49      37      46      70  # H48-C36-C45-S69
    153   13      32      38     128     155  # C31-C37-C46-S73
    154   10      32      38     128     116  # C31-C37-C46-C34
    155   14      50      38     128     155  # H49-C37-C46-S73
    156   11      50      38     128     116  # H49-C37-C46-C34
    157   10      34      40      43      31  # C33-C39-C42-C30
    158   11      34      40      43      61  # C33-C39-C42-H60
    159   11      52      40      43      31  # H51-C39-C42-C30
    160   12      52      40      43      61  # H51-C39-C42-H60
    161   10      35      41     125     113  # C34-C40-C43-C31
    162   11      35      41     125     143  # C34-C40-C43-H61
    163   11      53      41     125     113  # H52-C40-C43-C31
    164   12      53      41     125     143  # H52-C40-C43-H61
    165   10      33      45     123     117  # C32-C44-C41-C35
    166   11      33      45     123     135  # C32-C44-C41-H53
    167   11      63      45     123     117  # H62-C44-C41-C35
    168   12      63      45     123     135  # H62-C44-C41-H53
    169   16      34      46      70      72  # C33-C45-S69-O71
    170   16      34      46      70      73  # C33-C45-S69-O72
    171   16      34      46      70      71  # C33-C45-S69-O70
    172   16      37      46      70      72  # C36-C45-S69-O71
    173   16      37      46      70      73  # C36-C45-S69-O72
    174   16      37      46      70      71  # C36-C45-S69-O70
    175   11      36      48     120     132  # C35-C47-C38-H50
    176   10      36      48     120     114  # C35-C47-C38-C32
    177   14      78      48     120     132  # S77-C47-C38-H50
    178   13      78      48     120     114  # S77-C47-C38-C32
    179   16      36      48      78      79  # C35-C47-S77-O78
    180   16      36      48      78      80  # C35-C47-S77-O79
    181   16      36      48      78      81  # C35-C47-S77-O80
    182   16     120      48      78      79  # C38-C47-S77-O78
    183   16     120      48      78      80  # C38-C47-S77-O79
    184   16     120      48      78      81  # C38-C47-S77-O80
    185    6     112      88     106     100  # C30-N6-C24-C18
    186    5     106      88     112     124  # C24-N6-C30-C42
    187    5     106      88     112     118  # C24-N6-C30-C36
    188    5     107      89     113     119  # C25-N7-C31-C37
    189    5     107      89     113     125  # C25-N7-C31-C43
    190    6     113      89     107     101  # C31-N7-C25-C19
    191    6     114      90     108     102  # C32-N8-C26-C20
    192    5     108      90     114     126  # C26-N8-C32-C44
    193    5     108      90     114     120  # C26-N8-C32-C38
    194    5     109      91     115     121  # C27-N9-C33-C39
    195    5     109      91     115     127  # C27-N9-C33-C45
    196    6     115      91     109     103  # C33-N9-C27-C21
    197    6     116      92     110     104  # C34-N10-C28-C22
    198    5     110      92     116     128  # C28-N10-C34-C46
    199    5     110      92     116     122  # C28-N10-C34-C40
    200    5     111      93     117     123  # C29-N11-C35-C41
    201    5     111      93     117     129  # C29-N11-C35-C47
    202    6     117      93     111     105  # C35-N11-C29-C23
    203    2      82      94     100     106  # O0-C12-C18-C24
    204    1      82      94     100      95  # O0-C12-C18-C13
    205    4     102      94     100     106  # C20-C12-C18-C24
    206    3     102      94     100      95  # C20-C12-C18-C13
    207    1      82      94     102      96  # O0-C12-C20-C14
    208    2      82      94     102     108  # O0-C12-C20-C26
    209    3     100      94     102      96  # C18-C12-C20-C14
    210    4     100      94     102     108  # C18-C12-C20-C26
    211    7      94     100     106      88  # C12-C18-C24-N6
    212    7      95     100     106      88  # C13-C18-C24-N6
    213    1      83      95     100      94  # O1-C13-C18-C12
    214    2      83      95     100     106  # O1-C13-C18-C24
    215    3     101      95     100      94  # C19-C13-C18-C12
    216    4     101      95     100     106  # C19-C13-C18-C24
    217    1      83      95     101      96  # O1-C13-C19-C14
    218    2      83      95     101     107  # O1-C13-C19-C25
    219    3     100      95     101      96  # C18-C13-C19-C14
    220    4     100      95     101     107  # C18-C13-C19-C25
    221    1      84      96     101      95  # O2-C14-C19-C13
    222    2      84      96     101     107  # O2-C14-C19-C25
    223    3     102      96     101      95  # C20-C14-C19-C13
    224    4     102      96     101     107  # C20-C14-C19-C25
    225    1      84      96     102      94  # O2-C14-C20-C12
    226    2      84      96     102     108  # O2-C14-C20-C26
    227    3     101      96     102      94  # C19-C14-C20-C12
    228    4     101      96     102     108  # C19-C14-C20-C26
    229    7      94     102     108      90  # C12-C20-C26-N8
    230    7      96     102     108      90  # C14-C20-C26-N8
    231    2      85      97     105     111  # O3-C15-C23-C29
    232    1      85      97     105      99  # O3-C15-C23-C17
    233    4     103      97     105     111  # C21-C15-C23-C29
    234    3     103      97     105      99  # C21-C15-C23-C17
    235    1      85      97     103      98  # O3-C15-C21-C16
    236    2      85      97     103     109  # O3-C15-C21-C27
    237    3     105      97     103      98  # C23-C15-C21-C16
    238    4     105      97     103     109  # C23-C15-C21-C27
    239    1      86      98     104      99  # O4-C16-C22-C17
    240    2      86      98     104     110  # O4-C16-C22-C28
    241    3     103      98     104      99  # C21-C16-C22-C17
    242    4     103      98     104     110  # C21-C16-C22-C28
    243    1      86      98     103      97  # O4-C16-C21-C15
    244    2      86      98     103     109  # O4-C16-C21-C27
    245    3     104      98     103      97  # C22-C16-C21-C15
    246    4     104      98     103     109  # C22-C16-C21-C27
    247    7      97     103     109      91  # C15-C21-C27-N9
    248    7      98     103     109      91  # C16-C21-C27-N9
    249    7      97     105     111      93  # C15-C23-C29-N11
    250    7      99     105     111      93  # C17-C23-C29-N11
    251    1      87      99     105      97  # O5-C17-C23-C15
    252    2      87      99     105     111  # O5-C17-C23-C29
    253    3     104      99     105      97  # C22-C17-C23-C15
    254    4     104      99     105     111  # C22-C17-C23-C29
    255    1      87      99     104      98  # O5-C17-C22-C16
    256    2      87      99     104     110  # O5-C17-C22-C28
    257    3     105      99     104      98  # C23-C17-C22-C16
    258    4     105      99     104     110  # C23-C17-C22-C28
    259    7      95     101     107      89  # C13-C19-C25-N7
    260    7      96     101     107      89  # C14-C19-C25-N7
    261    7      98     104     110      92  # C16-C22-C28-N10
    262    7      99     104     110      92  # C17-C22-C28-N10
    263    8      88     112     124     121  # N6-C30-C42-C39
    264    9      88     112     124     142  # N6-C30-C42-H60
    265   10     118     112     124     121  # C36-C30-C42-C39
    266   11     118     112     124     142  # C36-C30-C42-H60
    267   10     112     118     127     115  # C30-C36-C45-C33
    268   13     112     118     127     151  # C30-C36-C45-S69
    269   11     130     118     127     115  # H48-C36-C45-C33
    270   14     130     118     127     151  # H48-C36-C45-S69
    271    8      88     112     118     127  # N6-C30-C36-C45
    272    9      88     112     118     130  # N6-C30-C36-H48
    273   10     124     112     118     127  # C42-C30-C36-C45
    274   11     124     112     118     130  # C42-C30-C36-H48
    275    8      89     113     119      47  # N7-C31-C37-C46
    276    9      89     113     119     131  # N7-C31-C37-H49
    277   10     125     113     119      47  # C43-C31-C37-C46
    278   11     125     113     119     131  # C43-C31-C37-H49
    279    8      89     113     125      41  # N7-C31-C43-C40
    280    9      89     113     125     143  # N7-C31-C43-H61
    281   10     119     113     125      41  # C37-C31-C43-C40
    282   11     119     113     125     143  # C37-C31-C43-H61
    283    8      90     114     126      42  # N8-C32-C44-C41
    284    9      90     114     126     144  # N8-C32-C44-H62
    285   10     120     114     126      42  # C38-C32-C44-C41
    286   11     120     114     126     144  # C38-C32-C44-H62
    287    8      90     114     120      48  # N8-C32-C38-C47
    288    9      90     114     120     132  # N8-C32-C38-H50
    289   10     126     114     120      48  # C44-C32-C38-C47
    290   11     126     114     120     132  # C44-C32-C38-H50
    291    9      91     115     121     133  # N9-C33-C39-H51
    292    8      91     115     121     124  # N9-C33-C39-C42
    293   11     127     115     121     133  # C45-C33-C39-H51
    294   10     127     115     121     124  # C45-C33-C39-C42
    295   11     133     121     124     112  # H51-C39-C42-C30
    296   12     133     121     124     142  # H51-C39-C42-H60
    297   10     115     121     124     112  # C33-C39-C42-C30
    298   11     115     121     124     142  # C33-C39-C42-H60
    299    8      91     115     127     118  # N9-C33-C45-C36
    300   15      91     115     127     151  # N9-C33-C45-S69
    301   10     121     115     127     118  # C39-C33-C45-C36
    302   13     121     115     127     151  # C39-C33-C45-S69
    303   16      38     128     155     157  # C37-C46-S73-O75
    304   16      38     128     155     158  # C37-C46-S73-O76
    305   16      38     128     155     156  # C37-C46-S73-O74
    306   16     116     128     155     157  # C34-C46-S73-O75
    307   16     116     128     155     158  # C34-C46-S73-O76
    308   16     116     128     155     156  # C34-C46-S73-O74
    309    8      92     116     128      38  # N10-C34-C46-C37
    310   15      92     116     128     155  # N10-C34-C46-S73
    311   10     122     116     128      38  # C40-C34-C46-C37
    312   13     122     116     128     155  # C40-C34-C46-S73
    313    8      92     116     122      44  # N10-C34-C40-C43
    314    9      92     116     122     134  # N10-C34-C40-H52
    315   10     128     116     122      44  # C46-C34-C40-C43
    316   11     128     116     122     134  # C46-C34-C40-H52
    317    8      93     117     123      45  # N11-C35-C41-C44
    318    9      93     117     123     135  # N11-C35-C41-H53
    319   10     129     117     123      45  # C47-C35-C41-C44
    320   11     129     117     123     135  # C47-C35-C41-H53
    321    8      93     117     129      39  # N11-C35-C47-C38
    322   15      93     117     129     159  # N11-C35-C47-S77
    323   10     123     117     129      39  # C41-C35-C47-C38
    324   13     123     117     129     159  # C41-C35-C47-S77
    325   16     118     127     151     153  # C36-C45-S69-O71
    326   16     118     127     151     154  # C36-C45-S69-O72
    327   16     118     127     151     152  # C36-C45-S69-O70
    328   16     115     127     151     153  # C33-C45-S69-O71
    329   16     115     127     151     154  # C33-C45-S69-O72
    330   16     115     127     151     152  # C33-C45-S69-O70
    331   16      39     129     159     160  # C38-C47-S77-O78
    332   16      39     129     159     161  # C38-C47-S77-O79
    333   16      39     129     159     162  # C38-C47-S77-O80
    334   16     117     129     159     160  # C35-C47-S77-O78
    335   16     117     129     159     161  # C35-C47-S77-O79
    336   16     117     129     159     162  # C35-C47-S77-O80
    337   17       1      19      13      21  # O0-C18-C12-C20
    338   17       2      20      14      19  # O1-C19-C13-C18
    339   17       3      20      15      21  # O2-C19-C14-C20
    340   17       4      24      16      22  # O3-C23-C15-C21
    341   17       5      22      17      23  # O4-C21-C16-C22
    342   17       6      24      18      23  # O5-C23-C17-C22
    343   18      13      14      19      25  # C12-C13-C18-C24
    344   18      14      15      20      26  # C13-C14-C19-C25
    345   18      13      15      21      27  # C12-C14-C20-C26
    346   18      16      17      22      28  # C15-C16-C21-C27
    347   18      17      18      23      29  # C16-C17-C22-C28
    348   18      16      18      24      30  # C15-C17-C23-C29
    349    8       7      31      43      37  # N6-C30-C42-C36
    350    8       8      32      38      44  # N7-C31-C37-C43
    351    8       9      33      39      45  # N8-C32-C38-C44
    352    8      10      34      40      46  # N9-C33-C39-C45
    353    8      11      35      47      41  # N10-C34-C46-C40
    354    8      12      36      48      42  # N11-C35-C47-C41
    355   19      49      37      31      46  # H48-C36-C30-C45
    356   19      50      38      32     128  # H49-C37-C31-C46
    357   19      51      39      33     129  # H50-C38-C32-C47
    358   19      52      40      34      43  # H51-C39-C33-C42
    359   19      53      41      35     125  # H52-C40-C34-C43
    360   19      54      42     126      36  # H53-C41-C44-C35
    361   19      61      43      31      40  # H60-C42-C30-C39
    362   19      62      44     122      32  # H61-C43-C40-C31
    363   19      63      45      33     123  # H62-C44-C32-C41
    364   20      70      46      34      37  # S69-C45-C33-C36
    365   20      74      47      35     119  # S73-C46-C34-C37
    366   20      78      48      36     120  # S77-C47-C35-C38
    367   17      82     100      94     102  # O0-C18-C12-C20
    368   17      83     100      95     101  # O1-C18-C13-C19
    369   17      84     101      96     102  # O2-C19-C14-C20
    370   17      85     105      97     103  # O3-C23-C15-C21
    371   17      86     104      98     103  # O4-C22-C16-C21
    372   17      87     105      99     104  # O5-C23-C17-C22
    373   18      94      95     100     106  # C12-C13-C18-C24
    374   18      95      96     101     107  # C13-C14-C19-C25
    375   18      94      96     102     108  # C12-C14-C20-C26
    376   18      97      98     103     109  # C15-C16-C21-C27
    377   18      98      99     104     110  # C16-C17-C22-C28
    378   18      97      99     105     111  # C15-C17-C23-C29
    379    8      88     112     124     118  # N6-C30-C42-C36
    380    8      89     113     119     125  # N7-C31-C37-C43
    381    8      90     114     126     120  # N8-C32-C44-C38
    382    8      91     115     121     127  # N9-C33-C39-C45
    383    8      92     116     128     122  # N10-C34-C46-C40
    384    8      93     117     123     129  # N11-C35-C41-C47
    385   19     130     118     127     112  # H48-C36-C45-C30
    386   19     131     119      47     113  # H49-C37-C46-C31
    387   19     132     120      48     114  # H50-C38-C47-C32
    388   19     133     121     115     124  # H51-C39-C33-C42
    389   19     134     122      44     116  # H52-C40-C43-C34
    390   19     135     123      45     117  # H53-C41-C44-C35
    391   19     142     124     112     121  # H60-C42-C30-C39
    392   19     143     125      41     113  # H61-C43-C40-C31
    393   19     144     126      42     114  # H62-C44-C41-C32
    394   20     151     127     118     115  # S69-C45-C36-C33
    395   20     155     128      38     116  # S73-C46-C37-C34
    396   20     159     129      39     117  # S77-C47-C38-C35
    397    1     163     175     181     176  # O0-C12-C18-C13
    398    2     163     175     181     187  # O0-C12-C18-C24
    399    3     183     175     181     176  # C20-C12-C18-C13
    400    4     183     175     181     187  # C20-C12-C18-C24
    401    3     181     175     183     177  # C18-C12-C20-C14
    402    4     181     175     183     189  # C18-C12-C20-C26
    403    1     163     175     183     177  # O0-C12-C20-C14
    404    2     163     175     183     189  # O0-C12-C20-C26
    405    1     164     176     182     177  # O1-C13-C19-C14
    406    2     164     176     182     188  # O1-C13-C19-C25
    407    3     181     176     182     177  # C18-C13-C19-C14
    408    4     181     176     182     188  # C18-C13-C19-C25
    409    1     164     176     181     175  # O1-C13-C18-C12
    410    2     164     176     181     187  # O1-C13-C18-C24
    411    3     182     176     181     175  # C19-C13-C18-C12
    412    4     182     176     181     187  # C19-C13-C18-C24
    413    1     166     178     186     180  # O3-C15-C23-C17
    414    2     166     178     186     192  # O3-C15-C23-C29
    415    3     184     178     186     180  # C21-C15-C23-C17
    416    4     184     178     186     192  # C21-C15-C23-C29
    417    3     186     178     184     179  # C23-C15-C21-C16
    418    4     186     178     184     190  # C23-C15-C21-C27
    419    1     166     178     184     179  # O3-C15-C21-C16
    420    2     166     178     184     190  # O3-C15-C21-C27
    421    3     185     179     184     178  # C22-C16-C21-C15
    422    4     185     179     184     190  # C22-C16-C21-C27
    423    1     167     179     184     178  # O4-C16-C21-C15
    424    2     167     179     184     190  # O4-C16-C21-C27
    425    3     184     179     185     180  # C21-C16-C22-C17
    426    4     184     179     185     191  # C21-C16-C22-C28
    427    1     167     179     185     180  # O4-C16-C22-C17
    428    2     167     179     185     191  # O4-C16-C22-C28
    429    5     187     169     193     205  # C24-N6-C30-C42
    430    5     187     169     193     199  # C24-N6-C30-C36
    431    6     193     169     187     181  # C30-N6-C24-C18
    432    5     188     170     194     200  # C25-N7-C31-C37
    433    5     188     170     194     206  # C25-N7-C31-C43
    434    6     194     170     188     182  # C31-N7-C25-C19
    435    6     195     171     189     183  # C32-N8-C26-C20
    436    5     189     171     195     201  # C26-N8-C32-C38
    437    5     189     171     195     207  # C26-N8-C32-C44
    438    6     196     172     190     184  # C33-N9-C27-C21
    439    5     190     172     196     202  # C27-N9-C33-C39
    440    5     190     172     196     208  # C27-N9-C33-C45
    441    6     197     173     191     185  # C34-N10-C28-C22
    442    5     191     173     197     209  # C28-N10-C34-C46
    443    5     191     173     197     203  # C28-N10-C34-C40
    444    5     192     174     198     210  # C29-N11-C35-C47
    445    5     192     174     198     204  # C29-N11-C35-C41
    446    6     198     174     192     186  # C35-N11-C29-C23
    447    1     165     177     182     176  # O2-C14-C19-C13
    448    2     165     177     182     188  # O2-C14-C19-C25
    449    3     183     177     182     176  # C20-C14-C19-C13
    450    4     183     177     182     188  # C20-C14-C19-C25
    451    1     165     177     183     175  # O2-C14-C20-C12
    452    2     165     177     183     189  # O2-C14-C20-C26
    453    3     182     177     183     175  # C19-C14-C20-C12
    454    4     182     177     183     189  # C19-C14-C20-C26
    455    1     168     180     186     178  # O5-C17-C23-C15
    456    2     168     180     186     192  # O5-C17-C23-C29
    457    3     185     180     186     178  # C22-C17-C23-C15
    458    4     185     180     186     192  # C22-C17-C23-C29
    459    1     168     180     185     179  # O5-C17-C22-C16
    460    2     168     180     185     191  # O5-C17-C22-C28
    461    3     186     180     185     179  # C23-C17-C22-C16
    462    4     186     180     185     191  # C23-C17-C22-C28
    463    7     175     181     187     169  # C12-C18-C24-N6
    464    7     176     181     187     169  # C13-C18-C24-N6
    465    7     176     182     188     170  # C13-C19-C25-N7
    466    7     177     182     188     170  # C14-C19-C25-N7
    467    7     175     183     189     171  # C12-C20-C26-N8
    468    7     177     183     189     171  # C14-C20-C26-N8
    469    7     178     184     190     172  # C15-C21-C27-N9
    470    7     179     184     190     172  # C16-C21-C27-N9
    471    7     179     185     191     173  # C16-C22-C28-N10
    472    7     180     185     191     173  # C17-C22-C28-N10
    473    7     178     186     192     174  # C15-C23-C29-N11
    474    7     180     186     192     174  # C17-C23-C29-N11
    475    8     169     193     205     202  # N6-C30-C42-C39
    476    9     169     193     205     223  # N6-C30-C42-H60
    477   10     199     193     205     202  # C36-C30-C42-C39
    478   11     199     193     205     223  # C36-C30-C42-H60
    479    8     169     193     199     208  # N6-C30-C36-C45
    480    9     169     193     199     211  # N6-C30-C36-H48
    481   10     205     193     199     208  # C42-C30-C36-C45
    482   11     205     193     199     211  # C42-C30-C36-H48
    483    9     170     194     200     212  # N7-C31-C37-H49
    484    8     170     194     200     290  # N7-C31-C37-C46
    485   11     206     194     200     212  # C43-C31-C37-H49
    486   10     206     194     200     290  # C43-C31-C37-C46
    487   10     194     206     284     278  # C31-C43-C40-C34
    488   11     194     206     284     296  # C31-C43-C40-H52
    489   11     224     206     284     278  # H61-C43-C40-C34
    490   12     224     206     284     296  # H61-C43-C40-H52
    491    8     170     194     206     284  # N7-C31-C43-C40
    492    9     170     194     206     224  # N7-C31-C43-H61
    493   10     200     194     206     284  # C37-C31-C43-C40
    494   11     200     194     206     224  # C37-C31-C43-H61
    495    9     171     195     201     213  # N8-C32-C38-H50
    496    8     171     195     201     291  # N8-C32-C38-C47
    497   11     207     195     201     213  # C44-C32-C38-H50
    498   10     207     195     201     291  # C44-C32-C38-C47
    499    9     171     195     207     225  # N8-C32-C44-H62
    500    8     171     195     207     285  # N8-C32-C44-C41
    501   11     201     195     207     225  # C38-C32-C44-H62
    502   10     201     195     207     285  # C38-C32-C44-C41
    503   10     195     201     291     279  # C32-C38-C47-C35
    504   13     195     201     291     321  # C32-C38-C47-S77
    505   11     213     201     291     279  # H50-C38-C47-C35
    506   14     213     201     291     321  # H50-C38-C47-S77
    507    9     172     196     202     214  # N9-C33-C39-H51
    508    8     172     196     202     205  # N9-C33-C39-C42
    509   11     208     196     202     214  # C45-C33-C39-H51
    510   10     208     196     202     205  # C45-C33-C39-C42
    511    8     172     196     208     199  # N9-C33-C45-C36
    512   15     172     196     208     232  # N9-C33-C45-S69
    513   10     202     196     208     199  # C39-C33-C45-C36
    514   13     202     196     208     232  # C39-C33-C45-S69
    515   16     197     209     236     238  # C34-C46-S73-O75
    516   16     197     209     236     237  # C34-C46-S73-O74
    517   16     197     209     236     239  # C34-C46-S73-O76
    518   16     281     209     236     238  # C37-C46-S73-O75
    519   16     281     209     236     237  # C37-C46-S73-O74
    520   16     281     209     236     239  # C37-C46-S73-O76
    521   15     173     197     209     236  # N10-C34-C46-S73
    522    8     173     197     209     281  # N10-C34-C46-C37
    523   13     203     197     209     236  # C40-C34-C46-S73
    524   10     203     197     209     281  # C40-C34-C46-C37
    525   13     236     209     281     275  # S73-C46-C37-C31
    526   14     236     209     281     293  # S73-C46-C37-H49
    527   10     197     209     281     275  # C34-C46-C37-C31
    528   11     197     209     281     293  # C34-C46-C37-H49
    529    8     173     197     203     287  # N10-C34-C40-C43
    530    9     173     197     203     215  # N10-C34-C40-H52
    531   10     209     197     203     287  # C46-C34-C40-C43
    532   11     209     197     203     215  # C46-C34-C40-H52
    533   11     216     204     288     276  # H53-C41-C44-C32
    534   12     216     204     288     306  # H53-C41-C44-H62
    535   10     198     204     288     276  # C35-C41-C44-C32
    536   11     198     204     288     306  # C35-C41-C44-H62
    537    8     174     198     210     282  # N11-C35-C47-C38
    538   15     174     198     210     240  # N11-C35-C47-S77
    539   10     204     198     210     282  # C41-C35-C47-C38
    540   13     204     198     210     240  # C41-C35-C47-S77
    541    8     174     198     204     288  # N11-C35-C41-C44
    542    9     174     198     204     216  # N11-C35-C41-H53
    543   10     210     198     204     288  # C47-C35-C41-C44
    544   11     210     198     204     216  # C47-C35-C41-H53
    545   10     193     199     208     196  # C30-C36-C45-C33
    546   13     193     199     208     232  # C30-C36-C45-S69
    547   11     211     199     208     196  # H48-C36-C45-C33
    548   14     211     199     208     232  # H48-C36-C45-S69
    549   13     194     200     290     317  # C31-C37-C46-S73
    550   10     194     200     290     278  # C31-C37-C46-C34
    551   14     212     200     290     317  # H49-C37-C46-S73
    552   11     212     200     290     278  # H49-C37-C46-C34
    553   10     196     202     205     193  # C33-C39-C42-C30
    554   11     196     202     205     223  # C33-C39-C42-H60
    555   11     214     202     205     193  # H51-C39-C42-C30
    556   12     214     202     205     223  # H51-C39-C42-H60
    557   10     197     203     287     275  # C34-C40-C43-C31
    558   11     197     203     287     305  # C34-C40-C43-H61
    559   11     215     203     287     275  # H52-C40-C43-C31
    560   12     215     203     287     305  # H52-C40-C43-H61
    561   10     195     207     285     279  # C32-C44-C41-C35
    562   11     195     207     285     297  # C32-C44-C41-H53
    563   11     225     207     285     279  # H62-C44-C41-C35
    564   12     225     207     285     297  # H62-C44-C41-H53
    565   16     196     208     232     234  # C33-C45-S69-O71
    566   16     196     208     232     235  # C33-C45-S69-O72
    567   16     196     208     232     233  # C33-C45-S69-O70
    568   16     199     208     232     234  # C36-C45-S69-O71
    569   16     199     208     232     235  # C36-C45-S69-O72
    570   16     199     208     232     233  # C36-C45-S69-O70
    571   11     198     210     282     294  # C35-C47-C38-H50
    572   10     198     210     282     276  # C35-C47-C38-C32
    573   14     240     210     282     294  # S77-C47-C38-H50
    574   13     240     210     282     276  # S77-C47-C38-C32
    575   16     198     210     240     241  # C35-C47-S77-O78
    576   16     198     210     240     242  # C35-C47-S77-O79
    577   16     198     210     240     243  # C35-C47-S77-O80
    578   16     282     210     240     241  # C38-C47-S77-O78
    579   16     282     210     240     242  # C38-C47-S77-O79
    580   16     282     210     240     243  # C38-C47-S77-O80
    581    6     274     250     268     262  # C30-N6-C24-C18
    582    5     268     250     274     286  # C24-N6-C30-C42
    583    5     268     250     274     280  # C24-N6-C30-C36
    584    5     269     251     275     281  # C25-N7-C31-C37
    585    5     269     251     275     287  # C25-N7-C31-C43
    586    6     275     251     269     263  # C31-N7-C25-C19
    587    6     276     252     270     264  # C32-N8-C26-C20
    588    5     270     252     276     288  # C26-N8-C32-C44
    589    5     270     252     276     282  # C26-N8-C32-C38
    590    5     271     253     277     283  # C27-N9-C33-C39
    591    5     271     253     277     289  # C27-N9-C33-C45
    592    6     277     253     271     265  # C33-N9-C27-C21
    593    6     278     254     272     266  # C34-N10-C28-C22
    594    5     272     254     278     290  # C28-N10-C34-C46
    595    5     272     254     278     284  # C28-N10-C34-C40
    596    5     273     255     279     285  # C29-N11-C35-C41
    597    5     273     255     279     291  # C29-N11-C35-C47
    598    6     279     255     273     267  # C35-N11-C29-C23
    599    2     244     256     262     268  # O0-C12-C18-C24
    600    1     244     256     262     257  # O0-C12-C18-C13
    601    4     264     256     262     268  # C20-C12-C18-C24
    602    3     264     256     262     257  # C20-C12-C18-C13
    603    1     244     256     264     258  # O0-C12-C20-C14
    604    2     244     256     264     270  # O0-C12-C20-C26
    605    3     262     256     264     258  # C18-C12-C20-C14
    606    4     262     256     264     270  # C18-C12-C20-C26
    607    7     256     262     268     250  # C12-C18-C24-N6
    608    7     257     262     268     250  # C13-C18-C24-N6
    609    1     245     257     262     256  # O1-C13-C18-C12
    610    2     245     257     262     268  # O1-C13-C18-C24
    611    3     263     257     262     256  # C19-C13-C18-C12
    612    4     263     257     262     268  # C19-C13-C18-C24
    613    1     245     257     263     258  # O1-C13-C19-C14
    614    2     245     257     263     269  # O1-C13-C19-C25
    615    3     262     257     263     258  # C18-C13-C19-C14
    616    4     262     257     263     269  # C18-C13-C19-C25
    617    1     246     258     263     257  # O2-C14-C19-C13
    618    2     246     258     263     269  # O2-C14-C19-C25
    619    3     264     258     263     257  # C20-C14-C19-C13
    620    4     264     258     263     269  # C20-C14-C19-C25
    621    1     246     258     264     256  # O2-C14-C20-C12
    622    2     246     258     264     270  # O2-C14-C20-C26
    623    3     263     258     264     256  # C19-C14-C20-C12
    624    4     263     258     264     270  # C19-C14-C20-C26
    625    7     256     264     270     252  # C12-C20-C26-N8
    626    7     258     264     270     252  # C14-C20-C26-N8
    627    2     247     259     267     273  # O3-C15-C23-C29
    628    1     247     259     267     261  # O3-C15-C23-C17
    629    4     265     259     267     273  # C21-C15-C23-C29
    630    3     265     259     267     261  # C21-C15-C23-C17
    631    1     247     259     265     260  # O3-C15-C21-C16
    632    2     247     259     265     271  # O3-C15-C21-C27
    633    3     267     259     265     260  # C23-C15-C21-C16
    634    4     267     259     265     271  # C23-C15-C21-C27
    635    1     248     260     266     261  # O4-C16-C22-C17
    636    2     248     260     266     272  # O4-C16-C22-C28
    637    3     265     260     266     261  # C21-C16-C22-C17
    638    4     265     260     266     272  # C21-C16-C22-C28
    639    1     248     260     265     259  # O4-C16-C21-C15
    640    2     248     260     265     271  # O4-C16-C21-C27
    641    3     266     260     265     259  # C22-C16-C21-C15
    642    4     266     260     265     271  # C22-C16-C21-C27
    643    7     259     265     271     253  # C15-C21-C27-N9
    644    7     260     265     271     253  # C16-C21-C27-N9
    645    7     259     267     273     255  # C15-C23-C29-N11
    646    7     261     267     273     255  # C17-C23-C29-N11
    647    1     249     261     267     259  # O5-C17-C23-C15
    648    2     249     261     267     273  # O5-C17-C23-C29
    649    3     266     261     267     259  # C22-C17-C23-C15
    650    4     266     261     267     273  # C22-C17-C23-C29
    651    1     249     261     266     260  # O5-C17-C22-C16
    652    2     249     261     266     272  # O5-C17-C22-C28
    653    3     267     261     266     260  # C23-C17-C22-C16
    654    4     267     261     266     272  # C23-C17-C22-C28
    655    7     257     263     269     251  # C13-C19-C25-N7
    656    7     258     263     269     251  # C14-C19-C25-N7
    657    7     260     266     272     254  # C16-C22-C28-N10
    658    7     261     266     272     254  # C17-C22-C28-N10
    659    8     250     274     286     283  # N6-C30-C42-C39
    660    9     250     274     286     304  # N6-C30-C42-H60
    661   10     280     274     286     283  # C36-C30-C42-C39
    662   11     280     274     286     304  # C36-C30-C42-H60
    663   10     274     280     289     277  # C30-C36-C45-C33
    664   13     274     280     289     313  # C30-C36-C45-S69
    665   11     292     280     289     277  # H48-C36-C45-C33
    666   14     292     280     289     313  # H48-C36-C45-S69
    667    8     250     274     280     289  # N6-C30-C36-C45
    668    9     250     274     280     292  # N6-C30-C36-H48
    669   10     286     274     280     289  # C42-C30-C36-C45
    670   11     286     274     280     292  # C42-C30-C36-H48
    671    8     251     275     281     209  # N7-C31-C37-C46
    672    9     251     275     281     293  # N7-C31-C37-H49
    673   10     287     275     281     209  # C43-C31-C37-C46
    674   11     287     275     281     293  # C43-C31-C37-H49
    675    8     251     275     287     203  # N7-C31-C43-C40
    676    9     251     275     287     305  # N7-C31-C43-H61
    677   10     281     275     287     203  # C37-C31-C43-C40
    678   11     281     275     287     305  # C37-C31-C43-H61
    679    8     252     276     288     204  # N8-C32-C44-C41
    680    9     252     276     288     306  # N8-C32-C44-H62
    681   10     282     276     288     204  # C38-C32-C44-C41
    682   11     282     276     288     306  # C38-C32-C44-H62
    683    8     252     276     282     210  # N8-C32-C38-C47
    684    9     252     276     282     294  # N8-C32-C38-H50
    685   10     288     276     282     210  # C44-C32-C38-C47
    686   11     288     276     282     294  # C44-C32-C38-H50
    687    9     253     277     283     295  # N9-C33-C39-H51
    688    8     253     277     283     286  # N9-C33-C39-C42
    689   11     289     277     283     295  # C45-C33-C39-H51
    690   10     289     277     283     286  # C45-C33-C39-C42
    691   11     295     283     286     274  # H51-C39-C42-C30
    692   12     295     283     286     304  # H51-C39-C42-H60
    693   10     277     283     286     274  # C33-C39-C42-C30
    694   11     277     283     286     304  # C33-C39-C42-H60
    695    8     253     277     289     280  # N9-C33-C45-C36
    696   15     253     277     289     313  # N9-C33-C45-S69
    697   10     283     277     289     280  # C39-C33-C45-C36
    698   13     283     277     289     313  # C39-C33-C45-S69
    699   16     200     290     317     319  # C37-C46-S73-O75
    700   16     200     290     317     320  # C37-C46-S73-O76
    701   16     200     290     317     318  # C37-C46-S73-O74
    702   16     278     290     317     319  # C34-C46-S73-O75
    703   16     278     290     317     320  # C34-C46-S73-O76
    704   16     278     290     317     318  # C34-C46-S73-O74
    705    8     254     278     290     200  # N10-C34-C46-C37
    706   15     254     278     290     317  # N10-C34-C46-S73
    707   10     284     278     290     200  # C40-C34-C46-C37
    708   13     284     278     290     317  # C40-C34-C46-S73
    709    8     254     278     284     206  # N10-C34-C40-C43
    710    9     254     278     284     296  # N10-C34-C40-H52
    711   10     290     278     284     206  # C46-C34-C40-C43
    712   11     290     278     284     296  # C46-C34-C40-H52
    713    8     255     279     285     207  # N11-C35-C41-C44
    714    9     255     279     285     297  # N11-C35-C41-H53
    715   10     291     279     285     207  # C47-C35-C41-C44
    716   11     291     279     285     297  # C47-C35-C41-H53
    717    8     255     279     291     201  # N11-C35-C47-C38
    718   15     255     279     291     321  # N11-C35-C47-S77
    719   10     285     279     291     201  # C41-C35-C47-C38
    720   13     285     279     291     321  # C41-C35-C47-S77
    721   16     280     289     313     315  # C36-C45-S69-O71
    722   16     280     289     313     316  # C36-C45-S69-O72
    723   16     280     289     313     314  # C36-C45-S69-O70
    724   16     277     289     313     315  # C33-C45-S69-O71
    725   16     277     289     313     316  # C33-C45-S69-O72
    726   16     277     289     313     314  # C33-C45-S69-O70
    727   16     201     291     321     322  # C38-C47-S77-O78
    728   16     201     291     321     323  # C38-C47-S77-O79
    729   16     201     291     321     324  # C38-C47-S77-O80
    730   16     279     291     321     322  # C35-C47-S77-O78
    731   16     279     291     321     323  # C35-C47-S77-O79
    732   16     279     291     321     324  # C35-C47-S77-O80
    733   17     163     181     175     183  # O0-C18-C12-C20
    734   17     164     182     176     181  # O1-C19-C13-C18
    735   17     165     182     177     183  # O2-C19-C14-C20
    736   17     166     186     178     184  # O3-C23-C15-C21
    737   17     167     184     179     185  # O4-C21-C16-C22
    738   17     168     186     180     185  # O5-C23-C17-C22
    739   18     175     176     181     187  # C12-C13-C18-C24
    740   18     176     177     182     188  # C13-C14-C19-C25
    741   18     175     177     183     189  # C12-C14-C20-C26
    742   18     178     179     184     190  # C15-C16-C21-C27
    743   18     179     180     185     191  # C16-C17-C22-C28
    744   18     178     180     186     192  # C15-C17-C23-C29
    745    8     169     193     205     199  # N6-C30-C42-C36
    746    8     170     194     200     206  # N7-C31-C37-C43
    747    8     171     195     201     207  # N8-C32-C38-C44
    748    8     172     196     202     208  # N9-C33-C39-C45
    749    8     173     197     209     203  # N10-C34-C46-C40
    750    8     174     198     210     204  # N11-C35-C47-C41
    751   19     211     199     193     208  # H48-C36-C30-C45
    752   19     212     200     194     290  # H49-C37-C31-C46
    753   19     213     201     195     291  # H50-C38-C32-C47
    754   19     214     202     196     205  # H51-C39-C33-C42
    755   19     215     203     197     287  # H52-C40-C34-C43
    756   19     216     204     288     198  # H53-C41-C44-C35
    757   19     223     205     193     202  # H60-C42-C30-C39
    758   19     224     206     284     194  # H61-C43-C40-C31
    759   19     225     207     195     285  # H62-C44-C32-C41
    760   20     232     208     196     199  # S69-C45-C33-C36
    761   20     236     209     197     281  # S73-C46-C34-C37
    762   20     240     210     198     282  # S77-C47-C35-C38
    763   17     244     262     256     264  # O0-C18-C12-C20
    764   17     245     262     257     263  # O1-C18-C13-C19
    765   17     246     263     258     264  # O2-C19-C14-C20
    766   17     247     267     259     265  # O3-C23-C15-C21
    767   17     248     266     260     265  # O4-C22-C16-C21
    768   17     249     267     261     266  # O5-C23-C17-C22
    769   18     256     257     262     268  # C12-C13-C18-C24
    770   18     257     258     263     269  # C13-C14-C19-C25
    771   18     256     258     264     270  # C12-C14-C20-C26
    772   18     259     260     265     271  # C15-C16-C21-C27
    773   18     260     261     266     272  # C16-C17-C22-C28
    774   18     259     261     267     273  # C15-C17-C23-C29
    775    8     250     274     286     280  # N6-C30-C42-C36
    776    8     251     275     281     287  # N7-C31-C37-C43
    777    8     252     276     288     282  # N8-C32-C44-C38
    778    8     253     277     283     289  # N9-C33-C39-C45
    779    8     254     278     290     284  # N10-C34-C46-C40
    780    8     255     279     285     291  # N11-C35-C41-C47
    781   19     292     280     289     274  # H48-C36-C45-C30
    782   19     293     281     209     275  # H49-C37-C46-C31
    783   19     294     282     210     276  # H50-C38-C47-C32
    784   19     295     283     277     286  # H51-C39-C33-C42
    785   19     296     284     206     278  # H52-C40-C43-C34
    786   19     297     285     207     279  # H53-C41-C44-C35
    787   19     304     286     274     283  # H60-C42-C30-C39
    788   19     305     287     203     275  # H61-C43-C40-C31
    789   19     306     288     204     276  # H62-C44-C41-C32
    790   20     313     289     280     277  # S69-C45-C36-C33
    791   20     317     290     200     278  # S73-C46-C37-C34
    792   20     321     291     201     279  # S77-C47-C38-C35
    793    1     325     337     343     338  # O0-C12-C18-C13
    794    2     325     337     343     349  # O0-C12-C18-C24
    795    3     345     337     343     338  # C20-C12-C18-C13
    796    4     345     337     343     349  # C20-C12-C18-C24
    797    3     343     337     345     339  # C18-C12-C20-C14
    798    4     343     337     345     351  # C18-C12-C20-C26
    799    1     325     337     345     339  # O0-C12-C20-C14
    800    2     325     337     345     351  # O0-C12-C20-C26
    801    1     326     338     344     339  # O1-C13-C19-C14
    802    2     326     338     344     350  # O1-C13-C19-C25
    803    3     343     338     344     339  # C18-C13-C19-C14
    804    4     343     338     344     350  # C18-C13-C19-C25
    805    1     326     338     343     337  # O1-C13-C18-C12
    806    2     326     338     343     349  # O1-C13-C18-C24
    807    3     344     338     343     337  # C19-C13-C18-C12
    808    4     344     338     343     349  # C19-C13-C18-C24
    809    1     328     340     348     342  # O3-C15-C23-C17
    810    2     328     340     348     354  # O3-C15-C23-C29
    811    3     346     340     348     342  # C21-C15-C23-C17
    812    4     346     340     348     354  # C21-C15-C23-C29
    813    3     348     340     346     341  # C23-C15-C21-C16
    814    4     348     340     346     352  # C23-C15-C21-C27
    815    1     328     340     346     341  # O3-C15-C21-C16
    816    2     328     340     346     352  # O3-C15-C21-C27
    817    3     347     341     346     340  # C22-C16-C21-C15
    818    4     347     341     346     352  # C22-C16-C21-C27
    819    1     329     341     346     340  # O4-C16-C21-C15
    820    2     329     341     346     352  # O4-C16-C21-C27
    821    3     346     341     347     342  # C21-C16-C22-C17
    822    4     346     341     347     353  # C21-C16-C22-C28
    823    1     329     341     347     342  # O4-C16-C22-C17
    824    2     329     341     347     353  # O4-C16-C22-C28
    825    5     349     331     355     367  # C24-N6-C30-C42
    826    5     349     331     355     361  # C24-N6-C30-C36
    827    6     355     331     349     343  # C30-N6-C24-C18
    828    5     350     332     356     362  # C25-N7-C31-C37
    829    5     350     332     356     368  # C25-N7-C31-C43
    830    6     356     332     350     344  # C31-N7-C25-C19
    831    6     357     333     351     345  # C32-N8-C26-C20
    832    5     351     333     357     363  # C26-N8-C32-C38
    833    5     351     333     357     369  # C26-N8-C32-C44
    834    6     358     334     352     346  # C33-N9-C27-C21
    835    5     352     334     358     364  # C27-N9-C33-C39
    836    5     352     334     358     370  # C27-N9-C33-C45
    837    6     359     335     353     347  # C34-N10-C28-C22
    838    5     353     335     359     371  # C28-N10-C34-C46
    839    5     353     335     359     365  # C28-N10-C34-C40
    840    5     354     336     360     372  # C29-N11-C35-C47
    841    5     354     336     360     366  # C29-N11-C35-C41
    842    6     360     336     354     348  # C35-N11-C29-C23
    843    1     327     339     344     338  # O2-C14-C19-C13
    844    2     327     339     344     350  # O2-C14-C19-C25
    845    3     345     339     344     338  # C20-C14-C19-C13
    846    4     345     339     344     350  # C20-C14-C19-C25
    847    1     327     339     345     337  # O2-C14-C20-C12
    848    2     327     339     345     351  # O2-C14-C20-C26
    849    3     344     339     345     337  # C19-C14-C20-C12
    850    4     344     339     345     351  # C19-C14-C20-C26
    851    1     330     342     348     340  # O5-C17-C23-C15
    852    2     330     342     348     354  # O5-C17-C23-C29
    853    3     347     342     348     340  # C22-C17-C23-C15
    854    4     347     342     348     354  # C22-C17-C23-C29
    855    1     330     342     347     341  # O5-C17-C22-C16
    856    2     330     342     347     353  # O5-C17-C22-C28
    857    3     348     342     347     341  # C23-C17-C22-C16
    858    4     348     342     347     353  # C23-C17-C22-C28
    859    7     337     343     349     331  # C12-C18-C24-N6
    860    7     338     343     349     331  # C13-C18-C24-N6
    861    7     338     344     350     332  # C13-C19-C25-N7
    862    7     339     344     350     332  # C14-C19-C25-N7
    863    7     337     345     351     333  # C12-C20-C26-N8
    864    7     339     345     351     333  # C14-C20-C26-N8
    865    7     340     346     352     334  # C15-C21-C27-N9
    866    7     341     346     352     334  # C16-C21-C27-N9
    867    7     341     347     353     335  # C16-C22-C28-N10
    868    7     342     347     353     335  # C17-C22-C28-N10
    869    7     340     348     354     336  # C15-C23-C29-N11
    870    7     342     348     354     336  # C17-C23-C29-N11
    871    8     331     355     367     364  # N6-C30-C42-C39
    872    9     331     355     367     385  # N6-C30-C42-H60
    873   10     361     355     367     364  # C36-C30-C42-C39
    874   11     361     355     367     385  # C36-C30-C42-H60
    875    8     331     355     361     370  # N6-C30-C36-C45
    876    9     331     355     361     373  # N6-C30-C36-H48
    877   10     367     355     361     370  # C42-C30-C36-C45
    878   11     367     355     361     373  # C42-C30-C36-H48
    879    9     332     356     362     374  # N7-C31-C37-H49
    880    8     332     356     362     452  # N7-C31-C37-C46
    881   11     368     356     362     374  # C43-C31-C37-H49
    882   10     368     356     362     452  # C43-C31-C37-C46
    883   10     356     368     446     440  # C31-C43-C40-C34
    884   11     356     368     446     458  # C31-C43-C40-H52
    885   11     386     368     446     440  # H61-C43-C40-C34
    886   12     386     368     446     458  # H61-C43-C40-H52
    887    8     332     356     368     446  # N7-C31-C43-C40
    888    9     332     356     368     386  # N7-C31-C43-H61
    889   10     362     356     368     446  # C37-C31-C43-C40
    890   11     362     356     368     386  # C37-C31-C43-H61
    891    9     333     357     363     375  # N8-C32-C38-H50
    892    8     333     357     363     453  # N8-C32-C38-C47
    893   11     369     357     363     375  # C44-C32-C38-H50
    894   10     369     357     363     453  # C44-C32-C38-C47
    895    9     333     357     369     387  # N8-C32-C44-H62
    896    8     333     357     369     447  # N8-C32-C44-C41
    897   11     363     357     369     387  # C38-C32-C44-H62
    898   10     363     357     369     447  # C38-C32-C44-C41
    899   10     357     363     453     441  # C32-C38-C47-C35
    900   13     357     363     453     483  # C32-C38-C47-S77
    901   11     375     363     453     441  # H50-C38-C47-C35
    902   14     375     363     453     483  # H50-C38-C47-S77
    903    9     334     358     364     376  # N9-C33-C39-H51
    904    8     334     358     364     367  # N9-C33-C39-C42
    905   11     370     358     364     376  # C45-C33-C39-H51
    906   10     370     358     364     367  # C45-C33-C39-C42
    907    8     334     358     370     361  # N9-C33-C45-C36
    908   15     334     358     370     394  # N9-C33-C45-S69
    909   10     364     358     370     361  # C39-C33-C45-C36
    910   13     364     358     370     394  # C39-C33-C45-S69
    911   16     359     371     398     400  # C34-C46-S73-O75
    912   16     359     371     398     399  # C34-C46-S73-O74
    913   16     359     371     398     401  # C34-C46-S73-O76
    914   16     443     371     398     400  # C37-C46-S73-O75
    915   16     443     371     398     399  # C37-C46-S73-O74
    916   16     443     371     398     401  # C37-C46-S73-O76
    917   15     335     359     371     398  # N10-C34-C46-S73
    918    8     335     359     371     443  # N10-C34-C46-C37
    919   13     365     359     371     398  # C40-C34-C46-S73
    920   10     365     359     371     443  # C40-C34-C46-C37
    921   13     398     371     443     437  # S73-C46-C37-C31
    922   14     398     371     443     455  # S73-C46-C37-H49
    923   10     359     371     443     437  # C34-C46-C37-C31
    924   11     359     371     443     455  # C34-C46-C37-H49
    925    8     335     359     365     449  # N10-C34-C40-C43
    926    9     335     359     365     377  # N10-C34-C40-H52
    927   10     371     359     365     449  # C46-C34-C40-C43
    928   11     371     359     365     377  # C46-C34-C40-H52
    929   11     378     366     450     438  # H53-C41-C44-C32
    930   12     378     366     450     468  # H53-C41-C44-H62
    931   10     360     366     450     438  # C35-C41-C44-C32
    932   11     360     366     450     468  # C35-C41-C44-H62
    933    8     336     360     372     444  # N11-C35-C47-C38
    934   15     336     360     372     402  # N11-C35-C47-S77
    935   10     366     360     372     444  # C41-C35-C47-C38
    936   13     366     360     372     402  # C41-C35-C47-S77
    937    8     336     360     366     450  # N11-C35-C41-C44
    938    9     336     360     366     378  # N11-C35-C41-H53
    939   10     372     360     366     450  # C47-C35-C41-C44
    940   11     372     360     366     378  # C47-C35-C41-H53
    941   10     355     361     370     358  # C30-C36-C45-C33
    942   13     355     361     370     394  # C30-C36-C45-S69
    943   11     373     361     370     358  # H48-C36-C45-C33
    944   14     373     361     370     394  # H48-C36-C45-S69
    945   13     356     362     452     479  # C31-C37-C46-S73
    946   10     356     362     452     440  # C31-C37-C46-C34
    947   14     374     362     452     479  # H49-C37-C46-S73
    948   11     374     362     452     440  # H49-C37-C46-C34
    949   10     358     364     367     355  # C33-C39-C42-C30
    950   11     358     364     367     385  # C33-C39-C42-H60
    951   11     376     364     367     355  # H51-C39-C42-C30
    952   12     376     364     367     385  # H51-C39-C42-H60
    953   10     359     365     449     437  # C34-C40-C43-C31
    954   11     359     365     449     467  # C34-C40-C43-H61
    955   11     377     365     449     437  # H52-C40-C43-C31
    956   12     377     365     449     467  # H52-C40-C43-H61
    957   10     357     369     447     441  # C32-C44-C41-C35
    958   11     357     369     447     459  # C32-C44-C41-H53
    959   11     387     369     447     441  # H62-C44-C41-C35
    960   12     387     369     447     459  # H62-C44-C41-H53
    961   16     358     370     394     396  # C33-C45-S69-O71
    962   16     358     370     394     397  # C33-C45-S69-O72
    963   16     358     370     394     395  # C33-C45-S69-O70
    964   16     361     370     394     396  # C36-C45-S69-O71
    965   16     361     370     394     397  # C36-C45-S69-O72
    966   16     361     370     394     395  # C36-C45-S69-O70
    967   11     360     372     444     456  # C35-C47-C38-H50
    968   10     360     372     444     438  # C35-C47-C38-C32
    969   14     402     372     444     456  # S77-C47-C38-H50
    970   13     402     372     444     438  # S77-C47-C38-C32
    971   16     360     372     402     403  # C35-C47-S77-O78
    972   16     360     372     402     404  # C35-C47-S77-O79
    973   16     360     372     402     405  # C35-C47-S77-O80
    974   16     444     372     402     403  # C38-C47-S77-O78
    975   16     444     372     402     404  # C38-C47-S77-O79
    976   16     444     372     402     405  # C38-C47-S77-O80
    977    6     436     412     430     424  # C30-N6-C24-C18
    978    5     430     412     436     448  # C24-N6-C30-C42
    979    5     430     412     436     442  # C24-N6-C30-C36
    980    5     431     413     437     443  # C25-N7-C31-C37
    981    5     431     413     437     449  # C25-N7-C31-C43
    982    6     437     413     431     425  # C31-N7-C25-C19
    983    6     438     414     432     426  # C32-N8-C26-C20
    984    5     432     414     438     450  # C26-N8-C32-C44
    985    5     432     414     438     444  # C26-N8-C32-C38
    986    5     433     415     439     445  # C27-N9-C33-C39
    987    5     433     415     439     451  # C27-N9-C33-C45
    988    6     439     415     433     427  # C33-N9-C27-C21
    989    6     440     416     434     428  # C34-N10-C28-C22
    990    5     434     416     440     452  # C28-N10-C34-C46
    991    5     434     416     440     446  # C28-N10-C34-C40
    992    5     435     417     441     447  # C29-N11-C35-C41
    993    5     435     417     441     453  # C29-N11-C35-C47
    994    6     441     417     435     429  # C35-N11-C29-C23
    995    2     406     418     424     430  # O0-C12-C18-C24
    996    1     406     418     424     419  # O0-C12-C18-C13
    997    4     426     418     424     430  # C20-C12-C18-C24
    998    3     426     418     424     419  # C20-C12-C18-C13
    999    1     406     418     426     420  # O0-C12-C20-C14
   1000    2     406     418     426     432  # O0-C12-C20-C26
   1001    3     424     418     426     420  # C18-C12-C20-C14
   1002    4     424     418     426     432  # C18-C12-C20-C26
   1003    7     418     424     430     412  # C12-C18-C24-N6
   1004    7     419     424     430     412  # C13-C18-C24-N6
   1005    1     407     419     424     418  # O1-C13-C18-C12
   1006    2     407     419     424     430  # O1-C13-C18-C24
   1007    3     425     419     424     418  # C19-C13-C18-C12
   1008    4     425     419     424     430  # C19-C13-C18-C24
   1009    1     407     419     425     420  # O1-C13-C19-C14
   1010    2     407     419     425     431  # O1-C13-C19-C25
   1011    3     424     419     425     420  # C18-C13-C19-C14
   1012    4     424     419     425     431  # C18-C13-C19-C25
   1013    1     408     420     425     419  # O2-C14-C19-C13
   1014    2     408     420     425     431  # O2-C14-C19-C25
   1015    3     426     420     425     419  # C20-C14-C19-C13
   1016    4     426     420     425     431  # C20-C14-C19-C25
   1017    1     408     420     426     418  # O2-C14-C20-C12
   1018    2     408     420     426     432  # O2-C14-C20-C26
   1019    3     425     420     426     418  # C19-C14-C20-C12
   1020    4     425     420     426     432  # C19-C14-C20-C26
   1021    7     418     426     432     414  # C12-C20-C26-N8
   1022    7     420     426     432     414  # C14-C20-C26-N8
   1023    2     409     421     429     435  # O3-C15-C23-C29
   1024    1     409     421     429     423  # O3-C15-C23-C17
   1025    4     427     421     429     435  # C21-C15-C23-C29
   1026    3     427     421     429     423  # C21-C15-C23-C17
   1027    1     409     421     427     422  # O3-C15-C21-C16
   1028    2     409     421     427     433  # O3-C15-C21-C27
   1029    3     429     421     427     422  # C23-C15-C21-C16
   1030    4     429     421     427     433  # C23-C15-C21-C27
   1031    1     410     422     428     423  # O4-C16-C22-C17
   1032    2     410     422     428     434  # O4-C16-C22-C28
   1033    3     427     422     428     423  # C21-C16-C22-C17
   1034    4     427     422     428     434  # C21-C16-C22-C28
   1035    1     410     422     427     421  # O4-C16-C21-C15
   1036    2     410     422     427     433  # O4-C16-C21-C27
   1037    3     428     422     427     421  # C22-C16-C21-C15
   1038    4     428     422     427     433  # C22-C16-C21-C27
   1039    7     421     427     433     415  # C15-C21-C27-N9
   1040    7     422     427     433     415  # C16-C21-C27-N9
   1041    7     421     429     435     417  # C15-C23-C29-N11
   1042    7     423     429     435     417  # C17-C23-C29-N11
   1043    1     411     423     429     421  # O5-C17-C23-C15
   1044    2     411     423     429     435  # O5-C17-C23-C29
   1045    3     428     423     429     421  # C22-C17-C23-C15
   1046    4     428     423     429     435  # C22-C17-C23-C29
   1047    1     411     423     428     422  # O5-C17-C22-C16
   1048    2     411     423     428     434  # O5-C17-C22-C28
   1049    3     429     423     428     422  # C23-C17-C22-C16
   1050    4     429     423     428     434  # C23-C17-C22-C28
   1051    7     419     425     431     413  # C13-C19-C25-N7
   1052    7     420     425     431     413  # C14-C19-C25-N7
   1053    7     422     428     434     416  # C16-C22-C28-N10
   1054    7     423     428     434     416  # C17-C22-C28-N10
   1055    8     412     436     448     445  # N6-C30-C42-C39
   1056    9     412     436     448     466  # N6-C30-C42-H60
   1057   10     442     436     448     445  # C36-C30-C42-C39
   1058   11     442     436     448     466  # C36-C30-C42-H60
   1059   10     436     442     451     439  # C30-C36-C45-C33
   1060   13     436     442     451     475  # C30-C36-C45-S69
   1061   11     454     442     451     439  # H48-C36-C45-C33
   1062   14     454     442     451     475  # H48-C36-C45-S69
   1063    8     412     436     442     451  # N6-C30-C36-C45
   1064    9     412     436     442     454  # N6-C30-C36-H48
   1065   10     448     436     442     451  # C42-C30-C36-C45
   1066   11     448     436     442     454  # C42-C30-C36-H48
   1067    8     413     437     443     371  # N7-C31-C37-C46
   1068    9     413     437     443     455  # N7-C31-C37-H49
   1069   10     449     437     443     371  # C43-C31-C37-C46
   1070   11     449     437     443     455  # C43-C31-C37-H49
   1071    8     413     437     449     365  # N7-C31-C43-C40
   1072    9     413     437     449     467  # N7-C31-C43-H61
   1073   10     443     437     449     365  # C37-C31-C43-C40
   1074   11     443     437     449     467  # C37-C31-C43-H61
   1075    8     414     438     450     366  # N8-C32-C44-C41
   1076    9     414     438     450     468  # N8-C32-C44-H62
   1077   10     444     438     450     366  # C38-C32-C44-C41
   1078   11     444     438     450     468  # C38-C32-C44-H62
   1079    8     414     438     444     372  # N8-C32-C38-C47
   1080    9     414     438     444     456  # N8-C32-C38-H50
   1081   10     450     438     444     372  # C44-C32-C38-C47
   1082   11     450     438     444     456  # C44-C32-C38-H50
   1083    9     415     439     445     457  # N9-C33-C39-H51
   1084    8     415     439     445     448  # N9-C33-C39-C42
   1085   11     451     439     445     457  # C45-C33-C39-H51
   1086   10     451     439     445     448  # C45-C33-C39-C42
   1087   11     457     445     448     436  # H51-C39-C42-C30
   1088   12     457     445     448     466  # H51-C39-C42-H60
   1089   10     439     445     448     436  # C33-C39-C42-C30
   1090   11     439     445     448     466  # C33-C39-C42-H60
   1091    8     415     439     451     442  # N9-C33-C45-C36
   1092   15     415     439     451     475  # N9-C33-C45-S69
   1093   10     445     439     451     442  # C39-C33-C45-C36
   1094   13     445     439     451     475  # C39-C33-C45-S69
   1095   16     362     452     479     481  # C37-C46-S73-O75
   1096   16     362     452     479     482  # C37-C46-S73-O76
   1097   16     362     452     479     480  # C37-C46-S73-O74
   1098   16     440     452     479     481  # C34-C46-S73-O75
   1099   16     440     452     479     482  # C34-C46-S73-O76
   1100   16     440     452     479     480  # C34-C46-S73-O74
   1101    8     416     440     452     362  # N10-C34-C46-C37
   1102   15     416     440     452     479  # N10-C34-C46-S73
   1103   10     446     440     452     362  # C40-C34-C46-C37
   1104   13     446     440     452     479  # C40-C34-C46-S73
   1105    8     416     440     446     368  # N10-C34-C40-C43
   1106    9     416     440     446     458  # N10-C34-C40-H52
   1107   10     452     440     446     368  # C46-C34-C40-C43
   1108   11     452     440     446     458  # C46-C34-C40-H52
   1109    8     417     441     447     369  # N11-C35-C41-C44
   1110    9     417     441     447     459  # N11-C35-C41-H53
   1111   10     453     441     447     369  # C47-C35-C41-C44
   1112   11     453     441     447     459  # C47-C35-C41-H53
   1113    8     417     441     453     363  # N11-C35-C47-C38
   1114   15     417     441     453     483  # N11-C35-C47-S77
   1115   10     447     441     453     363  # C41-C35-C47-C38
   1116   13     447     441     453     483  # C41-C35-C47-S77
   1117   16     442     451     475     477  # C36-C45-S69-O71
   1118   16     442     451     475     478  # C36-C45-S69-O72
   1119   16     442     451     475     476  # C36-C45-S69-O70
   1120   16     439     451     475     477  # C33-C45-S69-O71
   1121   16     439     451     475     478  # C33-C45-S69-O72
   1122   16     439     451     475     476  # C33-C45-S69-O70
   1123   16     363     453     483     484  # C38-C47-S77-O78
   1124   16     363     453     483     485  # C38-C47-S77-O79
   1125   16     363     453     483     486  # C38-C47-S77-O80
   1126   16     441     453     483     484  # C35-C47-S77-O78
   1127   16     441     453     483     485  # C35-C47-S77-O79
   1128   16     441     453     483     486  # C35-C47-S77-O80
   1129   17     325     343     337     345  # O0-C18-C12-C20
   1130   17     326     344     338     343  # O1-C19-C13-C18
   1131   17     327     344     339     345  # O2-C19-C14-C20
   1132   17     328     348     340     346  # O3-C23-C15-C21
   1133   17     329     346     341     347  # O4-C21-C16-C22
   1134   17     330     348     342     347  # O5-C23-C17-C22
   1135   18     337     338     343     349  # C12-C13-C18-C24
   1136   18     338     339     344     350  # C13-C14-C19-C25
   1137   18     337     339     345     351  # C12-C14-C20-C26
   1138   18     340     341     346     352  # C15-C16-C21-C27
   1139   18     341     342     347     353  # C16-C17-C22-C28
   1140   18     340     342     348     354  # C15-C17-C23-C29
   1141    8     331     355     367     361  # N6-C30-C42-C36
   1142    8     332     356     362     368  # N7-C31-C37-C43
   1143    8     333     357     363     369  # N8-C32-C38-C44
   1144    8     334     358     364     370  # N9-C33-C39-C45
   1145    8     335     359     371     365  # N10-C34-C46-C40
   1146    8     336     360     372     366  # N11-C35-C47-C41
   1147   19     373     361     355     370  # H48-C36-C30-C45
   1148   19     374     362     356     452  # H49-C37-C31-C46
   1149   19     375     363     357     453  # H50-C38-C32-C47
   1150   19     376     364     358     367  # H51-C39-C33-C42
   1151   19     377     365     359     449  # H52-C40-C34-C43
   1152   19     378     366     450     360  # H53-C41-C44-C35
   1153   19     385     367     355     364  # H60-C42-C30-C39
   1154   19     386     368     446     356  # H61-C43-C40-C31
   1155   19     387     369     357     447  # H62-C44-C32-C41
   1156   20     394     370     358     361  # S69-C45-C33-C36
   1157   20     398     371     359     443  # S73-C46-C34-C37
   1158   20     402     372     360     444  # S77-C47-C35-C38
   1159   17     406     424     418     426  # O0-C18-C12-C20
   1160   17     407     424     419     425  # O1-C18-C13-C19
   1161   17     408     425     420     426  # O2-C19-C14-C20
   1162   17     409     429     421     427  # O3-C23-C15-C21
   1163   17     410     428     422     427  # O4-C22-C16-C21
   1164   17     411     429     423     428  # O5-C23-C17-C22
   1165   18     418     419     424     430  # C12-C13-C18-C24
   1166   18     419     420     425     431  # C13-C14-C19-C25
   1167   18     418     420     426     432  # C12-C14-C20-C26
   1168   18     421     422     427     433  # C15-C16-C21-C27
   1169   18     422     423     428     434  # C16-C17-C22-C28
   1170   18     421     423     429     435  # C15-C17-C23-C29
   1171    8     412     436     448     442  # N6-C30-C42-C36
   1172    8     413     437     443     449  # N7-C31-C37-C43
   1173    8     414     438     450     444  # N8-C32-C44-C38
   1174    8     415     439     445     451  # N9-C33-C39-C45
   1175    8     416     440     452     446  # N10-C34-C46-C40
   1176    8     417     441     447     453  # N11-C35-C41-C47
   1177   19     454     442     451     436  # H48-C36-C45-C30
   1178   19     455     443     371     437  # H49-C37-C46-C31
   1179   19     456     444     372     438  # H50-C38-C47-C32
   1180   19     457     445     439     448  # H51-C39-C33-C42
   1181   19     458     446     368     440  # H52-C40-C43-C34
   1182   19     459     447     369     441  # H53-C41-C44-C35
   1183   19     466     448     436     445  # H60-C42-C30-C39
   1184   19     467     449     365     437  # H61-C43-C40-C31
   1185   19     468     450     366     438  # H62-C44-C41-C32
   1186   20     475     451     442     439  # S69-C45-C36-C33
   1187   20     479     452     362     440  # S73-C46-C37-C34
   1188   20     483     453     363     441  # S77-C47-C38-C35
   1189    1     487     499     505     500  # O0-C12-C18-C13
   1190    2     487     499     505     511  # O0-C12-C18-C24
   1191    3     507     499     505     500  # C20-C12-C18-C13
   1192    4     507     499     505     511  # C20-C12-C18-C24
   1193    3     505     499     507     501  # C18-C12-C20-C14
   1194    4     505     499     507     513  # C18-C12-C20-C26
   1195    1     487     499     507     501  # O0-C12-C20-C14
   1196    2     487     499     507     513  # O0-C12-C20-C26
   1197    1     488     500     506     501  # O1-C13-C19-C14
   1198    2     488     500     506     512  # O1-C13-C19-C25
   1199    3     505     500     506     501  # C18-C13-C19-C14
   1200    4     505     500     506     512  # C18-C13-C19-C25
   1201    1     488     500     505     499  # O1-C13-C18-C12
   1202    2     488     500     505     511  # O1-C13-C18-C24
   1203    3     506     500     505     499  # C19-C13-C18-C12
   1204    4     506     500     505     511  # C19-C13-C18-C24
   1205    1     490     502     510     504  # O3-C15-C23-C17
   1206    2     490     502     510     516  # O3-C15-C23-C29
   1207    3     508     502     510     504  # C21-C15-C23-C17
   1208    4     508     502     510     516  # C21-C15-C23-C29
   1209    3     510     502     508     503  # C23-C15-C21-C16
   1210    4     510     502     508     514  # C23-C15-C21-C27
   1211    1     490     502     508     503  # O3-C15-C21-C16
   1212    2     490     502     508     514  # O3-C15-C21-C27
   1213    3     509     503     508     502  # C22-C16-C21-C15
   1214    4     509     503     508     514  # C22-C16-C21-C27
   1215    1     491     503     508     502  # O4-C16-C21-C15
   1216    2     491     503     508     514  # O4-C16-C21-C27
   1217    3     508     503     509     504  # C21-C16-C22-C17
   1218    4     508     503     509     515  # C21-C16-C22-C28
   1219    1     491     503     509     504  # O4-C16-C22-C17
   1220    2     491     503     509     515  # O4-C16-C22-C28
   1221    5     511     493     517     529  # C24-N6-C30-C42
   1222    5     511     493     517     523  # C24-N6-C30-C36
   1223    6     517     493     511     505  # C30-N6-C24-C18
   1224    5     512     494     518     524  # C25-N7-C31-C37
   1225    5     512     494     518     530  # C25-N7-C31-C43
   1226    6     518     494     512     506  # C31-N7-C25-C19
   1227    6     519     495     513     507  # C32-N8-C26-C20
   1228    5     513     495     519     525  # C26-N8-C32-C38
   1229    5     513     495     519     531  # C26-N8-C32-C44
   1230    6     520     496     514     508  # C33-N9-C27-C21
   1231    5     514     496     520     526  # C27-N9-C33-C39
   1232    5     514     496     520     532  # C27-N9-C33-C45
   1233    6     521     497     515     509  # C34-N10-C28-C22
   1234    5     515     497     521     533  # C28-N10-C34-C46
   1235    5     515     497     521     527  # C28-N10-C34-C40
   1236    5     516     498     522     534  # C29-N11-C35-C47
   1237    5     516     498     522     528  # C29-N11-C35-C41
   1238    6     522     498     516     510  # C35-N11-C29-C23
   1239    1     489     501     506     500  # O2-C14-C19-C13
   1240    2     489     501     506     512  # O2-C14-C19-C25
   1241    3     507     501     506     500  # C20-C14-C19-C13
   1242    4     507     501     506     512  # C20-C14-C19-C25
   1243    1     489     501     507     499  # O2-C14-C20-C12
   1244    2     489     501     507     513  # O2-C14-C20-C26
   1245    3     506     501     507     499  # C19-C14-C20-C12
   1246    4     506     501     507     513  # C19-C14-C20-C26
   1247    1     492     504     510     502  # O5-C17-C23-C15
   1248    2     492     504     510     516  # O5-C17-C23-C29
   1249    3     509     504     510     502  # C22-C17-C23-C15
   1250    4     509     504     510     516  # C22-C17-C23-C29
   1251    1     492     504     509     503  # O5-C17-C22-C16
   1252    2     492     504     509     515  # O5-C17-C22-C28
   1253    3     510     504     509     503  # C23-C17-C22-C16
   1254    4     510     504     509     515  # C23-C17-C22-C28
   1255    7     499     505     511     493  # C12-C18-C24-N6
   1256    7     500     505     511     493  # C13-C18-C24-N6
   1257    7     500     506     512     494  # C13-C19-C25-N7
   1258    7     501     506     512     494  # C14-C19-C25-N7
   1259    7     499     507     513     495  # C12-C20-C26-N8
   1260    7     501     507     513     495  # C14-C20-C26-N8
   1261    7     502     508     514     496  # C15-C21-C27-N9
   1262    7     503     508     514     496  # C16-C21-C27-N9
   1263    7     503     509     515     497  # C16-C22-C28-N10
   1264    7     504     509     515     497  # C17-C22-C28-N10
   1265    7     502     510     516     498  # C15-C23-C29-N11
   1266    7     504     510     516     498  # C17-C23-C29-N11
   1267    8     493     517     529     526  # N6-C30-C42-C39
   1268    9     493     517     529     547  # N6-C30-C42-H60
   1269   10     523     517     529     526  # C36-C30-C42-C39
   1270   11     523     517     529     547  # C36-C30-C42-H60
   1271    8     493     517     523     532  # N6-C30-C36-C45
   1272    9     493     517     523     535  # N6-C30-C36-H48
   1273   10     529     517     523     532  # C42-C30-C36-C45
   1274   11     529     517     523     535  # C42-C30-C36-H48
   1275    9     494     518     524     536  # N7-C31-C37-H49
   1276    8     494     518     524     614  # N7-C31-C37-C46
   1277   11     530     518     524     536  # C43-C31-C37-H49
   1278   10     530     518     524     614  # C43-C31-C37-C46
   1279   10     518     530     608     602  # C31-C43-C40-C34
   1280   11     518     530     608     620  # C31-C43-C40-H52
   1281   11     548     530     608     602  # H61-C43-C40-C34
   1282   12     548     530     608     620  # H61-C43-C40-H52
   1283    8     494     518     530     608  # N7-C31-C43-C40
   1284    9     494     518     530     548  # N7-C31-C43-H61
   1285   10     524     518     530     608  # C37-C31-C43-C40
   1286   11     524     518     530     548  # C37-C31-C43-H61
   1287    9     495     519     525     537  # N8-C32-C38-H50
   1288    8     495     519     525     615  # N8-C32-C38-C47
   1289   11     531     519     525     537  # C44-C32-C38-H50
   1290   10     531     519     525     615  # C44-C32-C38-C47
   1291    9     495     519     531     549  # N8-C32-C44-H62
   1292    8     495     519     531     609  # N8-C32-C44-C41
   1293   11     525     519     531     549  # C38-C32-C44-H62
   1294   10     525     519     531     609  # C38-C32-C44-C41
   1295   10     519     525     615     603  # C32-C38-C47-C35
   1296   13     519     525     615     645  # C32-C38-C47-S77
   1297   11     537     525     615     603  # H50-C38-C47-C35
   1298   14     537     525     615     645  # H50-C38-C47-S77
   1299    9     496     520     526     538  # N9-C33-C39-H51
   1300    8     496     520     526     529  # N9-C33-C39-C42
   1301   11     532     520     526     538  # C45-C33-C39-H51
   1302   10     532     520     526     529  # C45-C33-C39-C42
   1303    8     496     520     532     523  # N9-C33-C45-C36
   1304   15     496     520     532     556  # N9-C33-C45-S69
   1305   10     526     520     532     523  # C39-C33-C45-C36
   1306   13     526     520     532     556  # C39-C33-C45-S69
   1307   16     521     533     560     562  # C34-C46-S73-O75
   1308   16     521     533     560     561  # C34-C46-S73-O74
   1309   16     521     533     560     563  # C34-C46-S73-O76
   1310   16     605     533     560     562  # C37-C46-S73-O75
   1311   16     605     533     560     561  # C37-C46-S73-O74
   1312   16     605     533     560     563  # C37-C46-S73-O76
   1313   15     497     521     533     560  # N10-C34-C46-S73
   1314    8     497     521     533     605  # N10-C34-C46-C37
   1315   13     527     521     533     560  # C40-C34-C46-S73
   1316   10     527     521     533     605  # C40-C34-C46-C37
   1317   13     560     533     605     599  # S73-C46-C37-C31
   1318   14     560     533     605     617  # S73-C46-C37-H49
   1319   10     521     533     605     599  # C34-C46-C37-C31
   1320   11     521     533     605     617  # C34-C46-C37-H49
   1321    8     497     521     527     611  # N10-C34-C40-C43
   1322    9     497     521     527     539  # N10-C34-C40-H52
   1323   10     533     521     527     611  # C46-C34-C40-C43
   1324   11     533     521     527     539  # C46-C34-C40-H52
   1325   11     540     528     612     600  # H53-C41-C44-C32
   1326   12     540     528     612     630  # H53-C41-C44-H62
   1327   10     522     528     612     600  # C35-C41-C44-C32
   1328   11     522     528     612     630  # C35-C41-C44-H62
   1329    8     498     522     534     606  # N11-C35-C47-C38
   1330   15     498     522     534     564  # N11-C35-C47-S77
   1331   10     528     522     534     606  # C41-C35-C47-C38
   1332   13     528     522     534     564  # C41-C35-C47-S77
   1333    8     498     522     528     612  # N11-C35-C41-C44
   1334    9     498     522     528     540  # N11-C35-C41-H53
   1335   10     534     522     528     612  # C47-C35-C41-C44
   1336   11     534     522     528     540  # C47-C35-C41-H53
   1337   10     517     523     532     520  # C30-C36-C45-C33
   1338   13     517     523     532     556  # C30-C36-C45-S69
   1339   11     535     523     532     520  # H48-C36-C45-C33
   1340   14     535     523     532     556  # H48-C36-C45-S69
   1341   13     518     524     614     641  # C31-C37-C46-S73
   1342   10     518     524     614     602  # C31-C37-C46-C34
   1343   14     536     524     614     641  # H49-C37-C46-S73
   1344   11     536     524     614     602  # H49-C37-C46-C34
   1345   10     520     526     529     517  # C33-C39-C42-C30
   1346   11     520     526     529     547  # C33-C39-C42-H60
   1347   11     538     526     529     517  # H51-C39-C42-C30
   1348   12     538     526     529     547  # H51-C39-C42-H60
   1349   10     521     527     611     599  # C34-C40-C43-C31
   1350   11     521     527     611     629  # C34-C40-C43-H61
   1351   11     539     527     611     599  # H52-C40-C43-C31
   1352   12     539     527     611     629  # H52-C40-C43-H61
   1353   10     519     531     609     603  # C32-C44-C41-C35
   1354   11     519     531     609     621  # C32-C44-C41-H53
   1355   11     549     531     609     603  # H62-C44-C41-C35
   1356   12     549     531     609     621  # H62-C44-C41-H53
   1357   16     520     532     556     558  # C33-C45-S69-O71
   1358   16     520     532     556     559  # C33-C45-S69-O72
   1359   16     520     532     556     557  # C33-C45-S69-O70
   1360   16     523     532     556     558  # C36-C45-S69-O71
   1361   16     523     532     556     559  # C36-C45-S69-O72
   1362   16     523     532     556     557  # C36-C45-S69-O70
   1363   11     522     534     606     618  # C35-C47-C38-H50
   1364   10     522     534     606     600  # C35-C47-C38-C32
   1365   14     564     534     606     618  # S77-C47-C38-H50
   1366   13     564     534     606     600  # S77-C47-C38-C32
   1367   16     522     534     564     565  # C35-C47-S77-O78
   1368   16     522     534     564     566  # C35-C47-S77-O79
   1369   16     522     534     564     567  # C35-C47-S77-O80
   1370   16     606     534     564     565  # C38-C47-S77-O78
   1371   16     606     534     564     566  # C38-C47-S77-O79
   1372   16     606     534     564     567  # C38-C47-S77-O80
   1373    6     598     574     592     586  # C30-N6-C24-C18
   1374    5     592     574     598     610  # C24-N6-C30-C42
   1375    5     592     574     598     604  # C24-N6-C30-C36
   1376    5     593     575     599     605  # C25-N7-C31-C37
   1377    5     593     575     599     611  # C25-N7-C31-C43
   1378    6     599     575     593     587  # C31-N7-C25-C19
   1379    6     600     576     594     588  # C32-N8-C26-C20
   1380    5     594     576     600     612  # C26-N8-C32-C44
   1381    5     594     576     600     606  # C26-N8-C32-C38
   1382    5     595     577     601     607  # C27-N9-C33-C39
   1383    5     595     577     601     613  # C27-N9-C33-C45
   1384    6     601     577     595     589  # C33-N9-C27-C21
   1385    6     602     578     596     590  # C34-N10-C28-C22
   1386    5     596     578     602     614  # C28-N10-C34-C46
   1387    5     596     578     602     608  # C28-N10-C34-C40
   1388    5     597     579     603     609  # C29-N11-C35-C41
   1389    5     597     579     603     615  # C29-N11-C35-C47
   1390    6     603     579     597     591  # C35-N11-C29-C23
   1391    2     568     580     586     592  # O0-C12-C18-C24
   1392    1     568     580     586     581  # O0-C12-C18-C13
   1393    4     588     580     586     592  # C20-C12-C18-C24
   1394    3     588     580     586     581  # C20-C12-C18-C13
   1395    1     568     580     588     582  # O0-C12-C20-C14
   1396    2     568     580     588     594  # O0-C12-C20-C26
   1397    3     586     580     588     582  # C18-C12-C20-C14
   1398    4     586     580     588     594  # C18-C12-C20-C26
   1399    7     580     586     592     574  # C12-C18-C24-N6
   1400    7     581     586     592     574  # C13-C18-C24-N6
   1401    1     569     581     586     580  # O1-C13-C18-C12
   1402    2     569     581     586     592  # O1-C13-C18-C24
   1403    3     587     581     586     580  # C19-C13-C18-C12
   1404    4     587     581     586     592  # C19-C13-C18-C24
   1405    1     569     581     587     582  # O1-C13-C19-C14
   1406    2     569     581     587     593  # O1-C13-C19-C25
   1407    3     586     581     587     582  # C18-C13-C19-C14
   1408    4     586     581     587     593  # C18-C13-C19-C25
   1409    1     570     582     587     581  # O2-C14-C19-C13
   1410    2     570     582     587     593  # O2-C14-C19-C25
   1411    3     588     582     587     581  # C20-C14-C19-C13
   1412    4     588     582     587     593  # C20-C14-C19-C25
   1413    1     570     582     588     580  # O2-C14-C20-C12
   1414    2     570     582     588     594  # O2-C14-C20-C26
   1415    3     587     582     588     580  # C19-C14-C20-C12
   1416    4     587     582     588     594  # C19-C14-C20-C26
   1417    7     580     588     594     576  # C12-C20-C26-N8
   1418    7     582     588     594     576  # C14-C20-C26-N8
   1419    2     571     583     591     597  # O3-C15-C23-C29
   1420    1     571     583     591     585  # O3-C15-C23-C17
   1421    4     589     583     591     597  # C21-C15-C23-C29
   1422    3     589     583     591     585  # C21-C15-C23-C17
   1423    1     571     583     589     584  # O3-C15-C21-C16
   1424    2     571     583     589     595  # O3-C15-C21-C27
   1425    3     591     583     589     584  # C23-C15-C21-C16
   1426    4     591     583     589     595  # C23-C15-C21-C27
   1427    1     572     584     590     585  # O4-C16-C22-C17
   1428    2     572     584     590     596  # O4-C16-C22-C28
   1429    3     589     584     590     585  # C21-C16-C22-C17
   1430    4     589     584     590     596  # C21-C16-C22-C28
   1431    1     572     584     589     583  # O4-C16-C21-C15
   1432    2     572     584     589     595  # O4-C16-C21-C27
   1433    3     590     584     589     583  # C22-C16-C21-C15
   1434    4     590     584     589     595  # C22-C16-C21-C27
   1435    7     583     589     595     577  # C15-C21-C27-N9
   1436    7     584     589     595     577  # C16-C21-C27-N9
   1437    7     583     591     597     579  # C15-C23-C29-N11
   1438    7     585     591     597     579  # C17-C23-C29-N11
   1439    1     573     585     591     583  # O5-C17-C23-C15
   1440    2     573     585     591     597  # O5-C17-C23-C29
   1441    3     590     585     591     583  # C22-C17-C23-C15
   1442    4     590     585     591     597  # C22-C17-C23-C29
   1443    1     573     585     590     584  # O5-C17-C22-C16
   1444    2     573     585     590     596  # O5-C17-C22-C28
   1445    3     591     585     590     584  # C23-C17-C22-C16
   1446    4     591     585     590     596  # C23-C17-C22-C28
   1447    7     581     587     593     575  # C13-C19-C25-N7
   1448    7     582     587     593     575  # C14-C19-C25-N7
   1449    7     584     590     596     578  # C16-C22-C28-N10
   1450    7     585     590     596     578  # C17-C22-C28-N10
   1451    8     574     598     610     607  # N6-C30-C42-C39
   1452    9     574     598     610     628  # N6-C30-C42-H60
   1453   10     604     598     610     607  # C36-C30-C42-C39
   1454   11     604     598     610     628  # C36-C30-C42-H60
   1455   10     598     604     613     601  # C30-C36-C45-C33
   1456   13     598     604     613     637  # C30-C36-C45-S69
   1457   11     616     604     613     601  # H48-C36-C45-C33
   1458   14     616     604     613     637  # H48-C36-C45-S69
   1459    8     574     598     604     613  # N6-C30-C36-C45
   1460    9     574     598     604     616  # N6-C30-C36-H48
   1461   10     610     598     604     613  # C42-C30-C36-C45
   1462   11     610     598     604     616  # C42-C30-C36-H48
   1463    8     575     599     605     533  # N7-C31-C37-C46
   1464    9     575     599     605     617  # N7-C31-C37-H49
   1465   10     611     599     605     533  # C43-C31-C37-C46
   1466   11     611     599     605     617  # C43-C31-C37-H49
   1467    8     575     599     611     527  # N7-C31-C43-C40
   1468    9     575     599     611     629  # N7-C31-C43-H61
   1469   10     605     599     611     527  # C37-C31-C43-C40
   1470   11     605     599     611     629  # C37-C31-C43-H61
   1471    8     576     600     612     528  # N8-C32-C44-C41
   1472    9     576     600     612     630  # N8-C32-C44-H62
   1473   10     606     600     612     528  # C38-C32-C44-C41
   1474   11     606     600     612     630  # C38-C32-C44-H62
   1475    8     576     600     606     534  # N8-C32-C38-C47
   1476    9     576     600     606     618  # N8-C32-C38-H50
   1477   10     612     600     606     534  # C44-C32-C38-C47
   1478   11     612     600     606     618  # C44-C32-C38-H50
   1479    9     577     601     607     619  # N9-C33-C39-H51
   1480    8     577     601     607     610  # N9-C33-C39-C42
   1481   11     613     601     607     619  # C45-C33-C39-H51
   1482   10     613     601     607     610  # C45-C33-C39-C42
   1483   11     619     607     610     598  # H51-C39-C42-C30
   1484   12     619     607     610     628  # H51-C39-C42-H60
   1485   10     601     607     610     598  # C33-C39-C42-C30
   1486   11     601     607     610     628  # C33-C39-C42-H60
   1487    8     577     601     613     604  # N9-C33-C45-C36
   1488   15     577     601     613     637  # N9-C33-C45-S69
   1489   10     607     601     613     604  # C39-C33-C45-C36
   1490   13     607     601     613     637  # C39-C33-C45-S69
   1491   16     524     614     641     643  # C37-C46-S73-O75
   1492   16     524     614     641     644  # C37-C46-S73-O76
   1493   16     524     614     641     642  # C37-C46-S73-O74
   1494   16     602     614     641     643  # C34-C46-S73-O75
   1495   16     602     614     641     644  # C34-C46-S73-O76
   1496   16     602     614     641     642  # C34-C46-S73-O74
   1497    8     578     602     614     524  # N10-C34-C46-C37
   1498   15     578     602     614     641  # N10-C34-C46-S73
   1499   10     608     602     614     524  # C40-C34-C46-C37
   1500   13     608     602     614     641  # C40-C34-C46-S73
   1501    8     578     602     608     530  # N10-C34-C40-C43
   1502    9     578     602     608     620  # N10-C34-C40-H52
   1503   10     614     602     608     530  # C46-C34-C40-C43
   1504   11     614     602     608     620  # C46-C34-C40-H52
   1505    8     579     603     609     531  # N11-C35-C41-C44
   1506    9     579     603     609     621  # N11-C35-C41-H53
   1507   10     615     603     609     531  # C47-C35-C41-C44
   1508   11     615     603     609     621  # C47-C35-C41-H53
   1509    8     579     603     615     525  # N11-C35-C47-C38
   1510   15     579     603     615     645  # N11-C35-C47-S77
   1511   10     609     603     615     525  # C41-C35-C47-C38
   1512   13     609     603     615     645  # C41-C35-C47-S77
   1513   16     604     613     637     639  # C36-C45-S69-O71
   1514   16     604     613     637     640  # C36-C45-S69-O72
   1515   16     604     613     637     638  # C36-C45-S69-O70
   1516   16     601     613     637     639  # C33-C45-S69-O71
   1517   16     601     613     637     640  # C33-C45-S69-O72
   1518   16     601     613     637     638  # C33-C45-S69-O70
   1519   16     525     615     645     646  # C38-C47-S77-O78
   1520   16     525     615     645     647  # C38-C47-S77-O79
   1521   16     525     615     645     648  # C38-C47-S77-O80
   1522   16     603     615     645     646  # C35-C47-S77-O78
   1523   16     603     615     645     647  # C35-C47-S77-O79
   1524   16     603     615     645     648  # C35-C47-S77-O80
   1525   17     487     505     499     507  # O0-C18-C12-C20
   1526   17     488     506     500     505  # O1-C19-C13-C18
   1527   17     489     506     501     507  # O2-C19-C14-C20
   1528   17     490     510     502     508  # O3-C23-C15-C21
   1529   17     491     508     503     509  # O4-C21-C16-C22
   1530   17     492     510     504     509  # O5-C23-C17-C22
   1531   18     499     500     505     511  # C12-C13-C18-C24
   1532   18     500     501     506     512  # C13-C14-C19-C25
   1533   18     499     501     507     513  # C12-C14-C20-C26
   1534   18     502     503     508     514  # C15-C16-C21-C27
   1535   18     503     504     509     515  # C16-C17-C22-C28
   1536   18     502     504     510     516  # C15-C17-C23-C29
   1537    8     493     517     529     523  # N6-C30-C42-C36
   1538    8     494     518     524     530  # N7-C31-C37-C43
   1539    8     495     519     525     531  # N8-C32-C38-C44
   1540    8     496     520     526     532  # N9-C33-C39-C45
   1541    8     497     521     533     527  # N10-C34-C46-C40
   1542    8     498     522     534     528  # N11-C35-C47-C41
   1543   19     535     523     517     532  # H48-C36-C30-C45
   1544   19     536     524     518     614  # H49-C37-C31-C46
   1545   19     537     525     519     615  # H50-C38-C32-C47
   1546   19     538     526     520     529  # H51-C39-C33-C42
   1547   19     539     527     521     611  # H52-C40-C34-C43
   1548   19     540     528     612     522  # H53-C41-C44-C35
   1549   19     547     529     517     526  # H60-C42-C30-C39
   1550   19     548     530     608     518  # H61-C43-C40-C31
   1551   19     549     531     519     609  # H62-C44-C32-C41
   1552   20     556     532     520     523  # S69-C45-C33-C36
   1553   20     560     533     521     605  # S73-C46-C34-C37
   1554   20     564     534     522     606  # S77-C47-C35-C38
   1555   17     568     586     580     588  # O0-C18-C12-C20
   1556   17     569     586     581     587  # O1-C18-C13-C19
   1557   17     570     587     582     588  # O2-C19-C14-C20
   1558   17     571     591     583     589  # O3-C23-C15-C21
   1559   17     572     590     584     589  # O4-C22-C16-C21
   1560   17     573     591     585     590  # O5-C23-C17-C22
   1561   18     580     581     586     592  # C12-C13-C18-C24
   1562   18     581     582     587     593  # C13-C14-C19-C25
   1563   18     580     582     588     594  # C12-C14-C20-C26
   1564   18     583     584     589     595  # C15-C16-C21-C27
   1565   18     584     585     590     596  # C16-C17-C22-C28
   1566   18     583     585     591     597  # C15-C17-C23-C29
   1567    8     574     598     610     604  # N6-C30-C42-C36
   1568    8     575     599     605     611  # N7-C31-C37-C43
   1569    8     576     600     612     606  # N8-C32-C44-C38
   1570    8     577     601     607     613  # N9-C33-C39-C45
   1571    8     578     602     614     608  # N10-C34-C46-C40
   1572    8     579     603     609     615  # N11-C35-C41-C47
   1573   19     616     604     613     598  # H48-C36-C45-C30
   1574   19     617     605     533     599  # H49-C37-C46-C31
   1575   19     618     606     534     600  # H50-C38-C47-C32
   1576   19     619     607     601     610  # H51-C39-C33-C42
   1577   19     620     608     530     602  # H52-C40-C43-C34
   1578   19     621     609     531     603  # H53-C41-C44-C35
   1579   19     628     610     598     607  # H60-C42-C30-C39
   1580   19     629     611     527     599  # H61-C43-C40-C31
   1581   19     630     612     528     600  # H62-C44-C41-C32
   1582   20     637     613     604     601  # S69-C45-C36-C33
   1583   20     641     614     524     602  # S73-C46-C37-C34
   1584   20     645     615     525     603  # S77-C47-C38-C35
   1585    1     649     661     667     662  # O0-C12-C18-C13
   1586    2     649     661     667     673  # O0-C12-C18-C24
   1587    3     669     661     667     662  # C20-C12-C18-C13
   1588    4     669     661     667     673  # C20-C12-C18-C24
   1589    3     667     661     669     663  # C18-C12-C20-C14
   1590    4     667     661     669     675  # C18-C12-C20-C26
   1591    1     649     661     669     663  # O0-C12-C20-C14
   1592    2     649     661     669     675  # O0-C12-C20-C26
   1593    1     650     662     668     663  # O1-C13-C19-C14
   1594    2     650     662     668     674  # O1-C13-C19-C25
   1595    3     667     662     668     663  # C18-C13-C19-C14
   1596    4     667     662     668     674  # C18-C13-C19-C25
   1597    1     650     662     667     661  # O1-C13-C18-C12
   1598    2     650     662     667     673  # O1-C13-C18-C24
   1599    3     668     662     667     661  # C19-C13-C18-C12
   1600    4     668     662     667     673  # C19-C13-C18-C24
   1601    1     652     664     672     666  # O3-C15-C23-C17
   1602    2     652     664     672     678  # O3-C15-C23-C29
   1603    3     670     664     672     666  # C21-C15-C23-C17
   1604    4     670     664     672     678  # C21-C15-C23-C29
   1605    3     672     664     670     665  # C23-C15-C21-C16
   1606    4     672     664     670     676  # C23-C15-C21-C27
   1607    1     652     664     670     665  # O3-C15-C21-C16
   1608    2     652     664     670     676  # O3-C15-C21-C27
   1609    3     671     665     670     664  # C22-C16-C21-C15
   1610    4     671     665     670     676  # C22-C16-C21-C27
   1611    1     653     665     670     664  # O4-C16-C21-C15
   1612    2     653     665     670     676  # O4-C16-C21-C27
   1613    3     670     665     671     666  # C21-C16-C22-C17
   1614    4     670     665     671     677  # C21-C16-C22-C28
   1615    1     653     665     671     666  # O4-C16-C22-C17
   1616    2     653     665     671     677  # O4-C16-C22-C28
   1617    5     673     655     679     691  # C24-N6-C30-C42
   1618    5     673     655     679     685  # C24-N6-C30-C36
   1619    6     679     655     673     667  # C30-N6-C24-C18
   1620    5     674     656     680     686  # C25-N7-C31-C37
   1621    5     674     656     680     692  # C25-N7-C31-C43
   1622    6     680     656     674     668  # C31-N7-C25-C19
   1623    6     681     657     675     669  # C32-N8-C26-C20
   1624    5     675     657     681     687  # C26-N8-C32-C38
   1625    5     675     657     681     693  # C26-N8-C32-C44
   1626    6     682     658     676     670  # C33-N9-C27-C21
   1627    5     676     658     682     688  # C27-N9-C33-C39
   1628    5     676     658     682     694  # C27-N9-C33-C45
   1629    6     683     659     677     671  # C34-N10-C28-C22
   1630    5     677     659     683     695  # C28-N10-C34-C46
   1631    5     677     659     683     689  # C28-N10-C34-C40
   1632    5     678     660     684     696  # C29-N11-C35-C47
   1633    5     678     660     684     690  # C29-N11-C35-C41
   1634    6     684     660     678     672  # C35-N11-C29-C23
   1635    1     651     663     668     662  # O2-C14-C19-C13
   1636    2     651     663     668     674  # O2-C14-C19-C25
   1637    3     669     663     668     662  # C20-C14-C19-C13
   1638    4     669     663     668     674  # C20-C14-C19-C25
   1639    1     651     663     669     661  # O2-C14-C20-C12
   1640    2     651     663     669     675  # O2-C14-C20-C26
   1641    3     668     663     669     661  # C19-C14-C20-C12
   1642    4     668     663     669     675  # C19-C14-C20-C26
   1643    1     654     666     672     664  # O5-C17-C23-C15
   1644    2     654     666     672     678  # O5-C17-C23-C29
   1645    3     671     666     672     664  # C22-C17-C23-C15
   1646    4     671     666     672     678  # C22-C17-C23-C29
   1647    1     654     666     671     665  # O5-C17-C22-C16
   1648    2     654     666     671     677  # O5-C17-C22-C28
   1649    3     672     666     671     665  # C23-C17-C22-C16
   1650    4     672     666     671     677  # C23-C17-C22-C28
   1651    7     661     667     673     655  # C12-C18-C24-N6
   1652    7     662     667     673     655  # C13-C18-C24-N6
   1653    7     662     668     674     656  # C13-C19-C25-N7
   1654    7     663     668     674     656  # C14-C19-C25-N7
   1655    7     661     669     675     657  # C12-C20-C26-N8
   1656    7     663     669     675     657  # C14-C20-C26-N8
   1657    7     664     670     676     658  # C15-C21-C27-N9
   1658    7     665     670     676     658  # C16-C21-C27-N9
   1659    7     665     671     677     659  # C16-C22-C28-N10
   1660    7     666     671     677     659  # C17-C22-C28-N10
   1661    7     664     672     678     660  # C15-C23-C29-N11
   1662    7     666     672     678     660  # C17-C23-C29-N11
   1663    8     655     679     691     688  # N6-C30-C42-C39
   1664    9     655     679     691     709  # N6-C30-C42-H60
   1665   10     685     679     691     688  # C36-C30-C42-C39
   1666   11     685     679     691     709  # C36-C30-C42-H60
   1667    8     655     679     685     694  # N6-C30-C36-C45
   1668    9     655     679     685     697  # N6-C30-C36-H48
   1669   10     691     679     685     694  # C42-C30-C36-C45
   1670   11     691     679     685     697  # C42-C30-C36-H48
   1671    9     656     680     686     698  # N7-C31-C37-H49
   1672    8     656     680     686     776  # N7-C31-C37-C46
   1673   11     692     680     686     698  # C43-C31-C37-H49
   1674   10     692     680     686     776  # C43-C31-C37-C46
   1675   10     680     692     770     764  # C31-C43-C40-C34
   1676   11     680     692     770     782  # C31-C43-C40-H52
   1677   11     710     692     770     764  # H61-C43-C40-C34
   1678   12     710     692     770     782  # H61-C43-C40-H52
   1679    8     656     680     692     770  # N7-C31-C43-C40
   1680    9     656     680     692     710  # N7-C31-C43-H61
   1681   10     686     680     692     770  # C37-C31-C43-C40
   1682   11     686     680     692     710  # C37-C31-C43-H61
   1683    9     657     681     687     699  # N8-C32-C38-H50
   1684    8     657     681     687     777  # N8-C32-C38-C47
   1685   11     693     681     687     699  # C44-C32-C38-H50
   1686   10     693     681     687     777  # C44-C32-C38-C47
   1687    9     657     681     693     711  # N8-C32-C44-H62
   1688    8     657     681     693     771  # N8-C32-C44-C41
   1689   11     687     681     693     711  # C38-C32-C44-H62
   1690   10     687     681     693     771  # C38-C32-C44-C41
   1691   10     681     687     777     765  # C32-C38-C47-C35
   1692   13     681     687     777     807  # C32-C38-C47-S77
   1693   11     699     687     777     765  # H50-C38-C47-C35
   1694   14     699     687     777     807  # H50-C38-C47-S77
   1695    9     658     682     688     700  # N9-C33-C39-H51
   1696    8     658     682     688     691  # N9-C33-C39-C42
   1697   11     694     682     688     700  # C45-C33-C39-H51
   1698   10     694     682     688     691  # C45-C33-C39-C42
   1699    8     658     682     694     685  # N9-C33-C45-C36
   1700   15     658     682     694     718  # N9-C33-C45-S69
   1701   10     688     682     694     685  # C39-C33-C45-C36
   1702   13     688     682     694     718  # C39-C33-C45-S69
   1703   16     683     695     722     724  # C34-C46-S73-O75
   1704   16     683     695     722     723  # C34-C46-S73-O74
   1705   16     683     695     722     725  # C34-C46-S73-O76
   1706   16     767     695     722     724  # C37-C46-S73-O75
   1707   16     767     695     722     723  # C37-C46-S73-O74
   1708   16     767     695     722     725  # C37-C46-S73-O76
   1709   15     659     683     695     722  # N10-C34-C46-S73
   1710    8     659     683     695     767  # N10-C34-C46-C37
   1711   13     689     683     695     722  # C40-C34-C46-S73
   1712   10     689     683     695     767  # C40-C34-C46-C37
   1713   13     722     695     767     761  # S73-C46-C37-C31
   1714   14     722     695     767     779  # S73-C46-C37-H49
   1715   10     683     695     767     761  # C34-C46-C37-C31
   1716   11     683     695     767     779  # C34-C46-C37-H49
   1717    8     659     683     689     773  # N10-C34-C40-C43
   1718    9     659     683     689     701  # N10-C34-C40-H52
   1719   10     695     683     689     773  # C46-C34-C40-C43
   1720   11     695     683     689     701  # C46-C34-C40-H52
   1721   11     702     690     774     762  # H53-C41-C44-C32
   1722   12     702     690     774     792  # H53-C41-C44-H62
   1723   10     684     690     774     762  # C35-C41-C44-C32
   1724   11     684     690     774     792  # C35-C41-C44-H62
   1725    8     660     684     696     768  # N11-C35-C47-C38
   1726   15     660     684     696     726  # N11-C35-C47-S77
   1727   10     690     684     696     768  # C41-C35-C47-C38
   1728   13     690     684     696     726  # C41-C35-C47-S77
   1729    8     660     684     690     774  # N11-C35-C41-C44
   1730    9     660     684     690     702  # N11-C35-C41-H53
   1731   10     696     684     690     774  # C47-C35-C41-C44
   1732   11     696     684     690     702  # C47-C35-C41-H53
   1733   10     679     685     694     682  # C30-C36-C45-C33
   1734   13     679     685     694     718  # C30-C36-C45-S69
   1735   11     697     685     694     682  # H48-C36-C45-C33
   1736   14     697     685     694     718  # H48-C36-C45-S69
   1737   13     680     686     776     803  # C31-C37-C46-S73
   1738   10     680     686     776     764  # C31-C37-C46-C34
   1739   14     698     686     776     803  # H49-C37-C46-S73
   1740   11     698     686     776     764  # H49-C37-C46-C34
   1741   10     682     688     691     679  # C33-C39-C42-C30
   1742   11     682     688     691     709  # C33-C39-C42-H60
   1743   11     700     688     691     679  # H51-C39-C42-C30
   1744   12     700     688     691     709  # H51-C39-C42-H60
   1745   10     683     689     773     761  # C34-C40-C43-C31
   1746   11     683     689     773     791  # C34-C40-C43-H61
   1747   11     701     689     773     761  # H52-C40-C43-C31
   1748   12     701     689     773     791  # H52-C40-C43-H61
   1749   10     681     693     771     765  # C32-C44-C41-C35
   1750   11     681     693     771     783  # C32-C44-C41-H53
   1751   11     711     693     771     765  # H62-C44-C41-C35
   1752   12     711     693     771     783  # H62-C44-C41-H53
   1753   16     682     694     718     720  # C33-C45-S69-O71
   1754   16     682     694     718     721  # C33-C45-S69-O72
   1755   16     682     694     718     719  # C33-C45-S69-O70
   1756   16     685     694     718     720  # C36-C45-S69-O71
   1757   16     685     694     718     721  # C36-C45-S69-O72
   1758   16     685     694     718     719  # C36-C45-S69-O70
   1759   11     684     696     768     780  # C35-C47-C38-H50
   1760   10     684     696     768     762  # C35-C47-C38-C32
   1761   14     726     696     768     780  # S77-C47-C38-H50
   1762   13     726     696     768     762  # S77-C47-C38-C32
   1763   16     684     696     726     727  # C35-C47-S77-O78
   1764   16     684     696     726     728  # C35-C47-S77-O79
   1765   16     684     696     726     729  # C35-C47-S77-O80
   1766   16     768     696     726     727  # C38-C47-S77-O78
   1767   16     768     696     726     728  # C38-C47-S77-O79
   1768   16     768     696     726     729  # C38-C47-S77-O80
   1769    6     760     736     754     748  # C30-N6-C24-C18
   1770    5     754     736     760     772  # C24-N6-C30-C42
   1771    5     754     736     760     766  # C24-N6-C30-C36
   1772    5     755     737     761     767  # C25-N7-C31-C37
   1773    5     755     737     761     773  # C25-N7-C31-C43
   1774    6     761     737     755     749  # C31-N7-C25-C19
   1775    6     762     738     756     750  # C32-N8-C26-C20
   1776    5     756     738     762     774  # C26-N8-C32-C44
   1777    5     756     738     762     768  # C26-N8-C32-C38
   1778    5     757     739     763     769  # C27-N9-C33-C39
   1779    5     757     739     763     775  # C27-N9-C33-C45
   1780    6     763     739     757     751  # C33-N9-C27-C21
   1781    6     764     740     758     752  # C34-N10-C28-C22
   1782    5     758     740     764     776  # C28-N10-C34-C46
   1783    5     758     740     764     770  # C28-N10-C34-C40
   1784    5     759     741     765     771  # C29-N11-C35-C41
   1785    5     759     741     765     777  # C29-N11-C35-C47
   1786    6     765     741     759     753  # C35-N11-C29-C23
   1787    2     730     742     748     754  # O0-C12-C18-C24
   1788    1     730     742     748     743  # O0-C12-C18-C13
   1789    4     750     742     748     754  # C20-C12-C18-C24
   1790    3     750     742     748     743  # C20-C12-C18-C13
   1791    1     730     742     750     744  # O0-C12-C20-C14
   1792    2     730     742     750     756  # O0-C12-C20-C26
   1793    3     748     742     750     744  # C18-C12-C20-C14
   1794    4     748     742     750     756  # C18-C12-C20-C26
   1795    7     742     748     754     736  # C12-C18-C24-N6
   1796    7     743     748     754     736  # C13-C18-C24-N6
   1797    1     731     743     748     742  # O1-C13-C18-C12
   1798    2     731     743     748     754  # O1-C13-C18-C24
   1799    3     749     743     748     742  # C19-C13-C18-C12
   1800    4     749     743     748     754  # C19-C13-C18-C24
   1801    1     731     743     749     744  # O1-C13-C19-C14
   1802    2     731     743     749     755  # O1-C13-C19-C25
   1803    3     748     743     749     744  # C18-C13-C19-C14
   1804    4     748     743     749     755  # C18-C13-C19-C25
   1805    1     732     744     749     743  # O2-C14-C19-C13
   1806    2     732     744     749     755  # O2-C14-C19-C25
   1807    3     750     744     749     743  # C20-C14-C19-C13
   1808    4     750     744     749     755  # C20-C14-C19-C25
   1809    1     732     744     750     742  # O2-C14-C20-C12
   1810    2     732     744     750     756  # O2-C14-C20-C26
   1811    3     749     744     750     742  # C19-C14-C20-C12
   1812    4     749     744     750     756  # C19-C14-C20-C26
   1813    7     742     750     756     738  # C12-C20-C26-N8
   1814    7     744     750     756     738  # C14-C20-C26-N8
   1815    2     733     745     753     759  # O3-C15-C23-C29
   1816    1     733     745     753     747  # O3-C15-C23-C17
   1817    4     751     745     753     759  # C21-C15-C23-C29
   1818    3     751     745     753     747  # C21-C15-C23-C17
   1819    1     733     745     751     746  # O3-C15-C21-C16
   1820    2     733     745     751     757  # O3-C15-C21-C27
   1821    3     753     745     751     746  # C23-C15-C21-C16
   1822    4     753     745     751     757  # C23-C15-C21-C27
   1823    1     734     746     752     747  # O4-C16-C22-C17
   1824    2     734     746     752     758  # O4-C16-C22-C28
   1825    3     751     746     752     747  # C21-C16-C22-C17
   1826    4     751     746     752     758  # C21-C16-C22-C28
   1827    1     734     746     751     745  # O4-C16-C21-C15
   1828    2     734     746     751     757  # O4-C16-C21-C27
   1829    3     752     746     751     745  # C22-C16-C21-C15
   1830    4     752     746     751     757  # C22-C16-C21-C27
   1831    7     745     751     757     739  # C15-C21-C27-N9
   1832    7     746     751     757     739  # C16-C21-C27-N9
   1833    7     745     753     759     741  # C15-C23-C29-N11
   1834    7     747     753     759     741  # C17-C23-C29-N11
   1835    1     735     747     753     745  # O5-C17-C23-C15
   1836    2     735     747     753     759  # O5-C17-C23-C29
   1837    3     752     747     753     745  # C22-C17-C23-C15
   1838    4     752     747     753     759  # C22-C17-C23-C29
   1839    1     735     747     752     746  # O5-C17-C22-C16
   1840    2     735     747     752     758  # O5-C17-C22-C28
   1841    3     753     747     752     746  # C23-C17-C22-C16
   1842    4     753     747     752     758  # C23-C17-C22-C28
   1843    7     743     749     755     737  # C13-C19-C25-N7
   1844    7     744     749     755     737  # C14-C19-C25-N7
   1845    7     746     752     758     740  # C16-C22-C28-N10
   1846    7     747     752     758     740  # C17-C22-C28-N10
   1847    8     736     760     772     769  # N6-C30-C42-C39
   1848    9     736     760     772     790  # N6-C30-C42-H60
   1849   10     766     760     772     769  # C36-C30-C42-C39
   1850   11     766     760     772     790  # C36-C30-C42-H60
   1851   10     760     766     775     763  # C30-C36-C45-C33
   1852   13     760     766     775     799  # C30-C36-C45-S69
   1853   11     778     766     775     763  # H48-C36-C45-C33
   1854   14     778     766     775     799  # H48-C36-C45-S69
   1855    8     736     760     766     775  # N6-C30-C36-C45
   1856    9     736     760     766     778  # N6-C30-C36-H48
   1857   10     772     760     766     775  # C42-C30-C36-C45
   1858   11     772     760     766     778  # C42-C30-C36-H48
   1859    8     737     761     767     695  # N7-C31-C37-C46
   1860    9     737     761     767     779  # N7-C31-C37-H49
   1861   10     773     761     767     695  # C43-C31-C37-C46
   1862   11     773     761     767     779  # C43-C31-C37-H49
   1863    8     737     761     773     689  # N7-C31-C43-C40
   1864    9     737     761     773     791  # N7-C31-C43-H61
   1865   10     767     761     773     689  # C37-C31-C43-C40
   1866   11     767     761     773     791  # C37-C31-C43-H61
   1867    8     738     762     774     690  # N8-C32-C44-C41
   1868    9     738     762     774     792  # N8-C32-C44-H62
   1869   10     768     762     774     690  # C38-C32-C44-C41
   1870   11     768     762     774     792  # C38-C32-C44-H62
   1871    8     738     762     768     696  # N8-C32-C38-C47
   1872    9     738     762     768     780  # N8-C32-C38-H50
   1873   10     774     762     768     696  # C44-C32-C38-C47
   1874   11     774     762     768     780  # C44-C32-C38-H50
   1875    9     739     763     769     781  # N9-C33-C39-H51
   1876    8     739     763     769     772  # N9-C33-C39-C42
   1877   11     775     763     769     781  # C45-C33-C39-H51
   1878   10     775     763     769     772  # C45-C33-C39-C42
   1879   11     781     769     772     760  # H51-C39-C42-C30
   1880   12     781     769     772     790  # H51-C39-C42-H60
   1881   10     763     769     772     760  # C33-C39-C42-C30
   1882   11     763     769     772     790  # C33-C39-C42-H60
   1883    8     739     763     775     766  # N9-C33-C45-C36
   1884   15     739     763     775     799  # N9-C33-C45-S69
   1885   10     769     763     775     766  # C39-C33-C45-C36
   1886   13     769     763     775     799  # C39-C33-C45-S69
   1887   16     686     776     803     805  # C37-C46-S73-O75
   1888   16     686     776     803     806  # C37-C46-S73-O76
   1889   16     686     776     803     804  # C37-C46-S73-O74
   1890   16     764     776     803     805  # C34-C46-S73-O75
   1891   16     764     776     803     806  # C34-C46-S73-O76
   1892   16     764     776     803     804  # C34-C46-S73-O74
   1893    8     740     764     776     686  # N10-C34-C46-C37
   1894   15     740     764     776     803  # N10-C34-C46-S73
   1895   10     770     764     776     686  # C40-C34-C46-C37
   1896   13     770     764     776     803  # C40-C34-C46-S73
   1897    8     740     764     770     692  # N10-C34-C40-C43
   1898    9     740     764     770     782  # N10-C34-C40-H52
   1899   10     776     764     770     692  # C46-C34-C40-C43
   1900   11     776     764     770     782  # C46-C34-C40-H52
   1901    8     741     765     771     693  # N11-C35-C41-C44
   1902    9     741     765     771     783  # N11-C35-C41-H53
   1903   10     777     765     771     693  # C47-C35-C41-C44
   1904   11     777     765     771     783  # C47-C35-C41-H53
   1905    8     741     765     777     687  # N11-C35-C47-C38
   1906   15     741     765     777     807  # N11-C35-C47-S77
   1907   10     771     765     777     687  # C41-C35-C47-C38
   1908   13     771     765     777     807  # C41-C35-C47-S77
   1909   16     766     775     799     801  # C36-C45-S69-O71
   1910   16     766     775     799     802  # C36-C45-S69-O72
   1911   16     766     775     799     800  # C36-C45-S69-O70
   1912   16     763     775     799     801  # C33-C45-S69-O71
   1913   16     763     775     799     802  # C33-C45-S69-O72
   1914   16     763     775     799     800  # C33-C45-S69-O70
   1915   16     687     777     807     808  # C38-C47-S77-O78
   1916   16     687     777     807     809  # C38-C47-S77-O79
   1917   16     687     777     807     810  # C38-C47-S77-O80
   1918   16     765     777     807     808  # C35-C47-S77-O78
   1919   16     765     777     807     809  # C35-C47-S77-O79
   1920   16     765     777     807     810  # C35-C47-S77-O80
   1921   17     649     667     661     669  # O0-C18-C12-C20
   1922   17     650     668     662     667  # O1-C19-C13-C18
   1923   17     651     668     663     669  # O2-C19-C14-C20
   1924   17     652     672     664     670  # O3-C23-C15-C21
   1925   17     653     670     665     671  # O4-C21-C16-C22
   1926   17     654     672     666     671  # O5-C23-C17-C22
   1927   18     661     662     667     673  # C12-C13-C18-C24
   1928   18     662     663     668     674  # C13-C14-C19-C25
   1929   18     661     663     669     675  # C12-C14-C20-C26
   1930   18     664     665     670     676  # C15-C16-C21-C27
   1931   18     665     666     671     677  # C16-C17-C22-C28
   1932   18     664     666     672     678  # C15-C17-C23-C29
   1933    8     655     679     691     685  # N6-C30-C42-C36
   1934    8     656     680     686     692  # N7-C31-C37-C43
   1935    8     657     681     687     693  # N8-C32-C38-C44
   1936    8     658     682     688     694  # N9-C33-C39-C45
   1937    8     659     683     695     689  # N10-C34-C46-C40
   1938    8     660     684     696     690  # N11-C35-C47-C41
   1939   19     697     685     679     694  # H48-C36-C30-C45
   1940   19     698     686     680     776  # H49-C37-C31-C46
   1941   19     699     687     681     777  # H50-C38-C32-C47
   1942   19     700     688     682     691  # H51-C39-C33-C42
   1943   19     701     689     683     773  # H52-C40-C34-C43
   1944   19     702     690     774     684  # H53-C41-C44-C35
   1945   19     709     691     679     688  # H60-C42-C30-C39
   1946   19     710     692     770     680  # H61-C43-C40-C31
   1947   19     711     693     681     771  # H62-C44-C32-C41
   1948   20     718     694     682     685  # S69-C45-C33-C36
   1949   20     722     695     683     767  # S73-C46-C34-C37
   1950   20     726     696     684     768  # S77-C47-C35-C38
   1951   17     730     748     742     750  # O0-C18-C12-C20
   1952   17     731     748     743     749  # O1-C18-C13-C19
   1953   17     732     749     744     750  # O2-C19-C14-C20
   1954   17     733     753     745     751  # O3-C23-C15-C21
   1955   17     734     752     746     751  # O4-C22-C16-C21
   1956   17     735     753     747     752  # O5-C23-C17-C22
   1957   18     742     743     748     754  # C12-C13-C18-C24
   1958   18     743     744     749     755  # C13-C14-C19-C25
   1959   18     742     744     750     756  # C12-C14-C20-C26
   1960   18     745     746     751     757  # C15-C16-C21-C27
   1961   18     746     747     752     758  # C16-C17-C22-C28
   1962   18     745     747     753     759  # C15-C17-C23-C29
   1963    8     736     760     772     766  # N6-C30-C42-C36
   1964    8     737     761     767     773  # N7-C31-C37-C43
   1965    8     738     762     774     768  # N8-C32-C44-C38
   1966    8     739     763     769     775  # N9-C33-C39-C45
   1967    8     740     764     776     770  # N10-C34-C46-C40
   1968    8     741     765     771     777  # N11-C35-C41-C47
   1969   19     778     766     775     760  # H48-C36-C45-C30
   1970   19     779     767     695     761  # H49-C37-C46-C31
   1971   19     780     768     696     762  # H50-C38-C47-C32
   1972   19     781     769     763     772  # H51-C39-C33-C42
   1973   19     782     770     692     764  # H52-C40-C43-C34
   1974   19     783     771     693     765  # H53-C41-C44-C35
   1975   19     790     772     760     769  # H60-C42-C30-C39
   1976   19     791     773     689     761  # H61-C43-C40-C31
   1977   19     792     774     690     762  # H62-C44-C41-C32
   1978   20     799     775     766     763  # S69-C45-C36-C33
   1979   20     803     776     686     764  # S73-C46-C37-C34
   1980   20     807     777     687     765  # S77-C47-C38-C35
