LAMMPS (4 Jul 2026 - Development - patch_4Jul2026-178-gc4fe7a5bcf)
# =============================================================================
# C06 · COF 膜–水–Na 短程平衡（~501 ps）
# -----------------------------------------------------------------------------
# 体系：data.lmp（五层磺酸 COF + 1000 SPC/E + 30 Na；pair.lmp）
# 流程：最小化 → NVT 预松弛（0.2 fs × 5000 ≈ 1 ps）→ NVT 100 ps → NPT(z) 400 ps
#       （部分键角与力场平衡角差较大，先用小步长让高力缓和，再恢复 1 fs）
# 约束：骨架 C/N（type 2–5）fix spring/self（同 C05；仍可动并进全体热浴）
# 控压：仅 z 方向（膜面 xy 固定）；热浴 / NPT 挂 all；thermo 记录 T、pzz、lz
# 输出：log.lammps；NPT 段轨迹 result_atoms.lammpstrj；eq / final data
# =============================================================================

# ----- 可调参数 -----
variable        myrand          equal   58938
variable        mytemp          equal   300.0           # [K]
variable        mypress         equal   1.0             # [atm]，仅 z
variable        tdamp           equal   100.0           # [fs]
variable        pdamp           equal   1000.0          # [fs]
variable        Kspring         equal   100.0           # spring/self [kcal/mol/A^2]

# 段长度
variable        nvt_pre_steps   equal   5000            # 0.2 fs × 5000 ≈ 1 ps 预松弛
variable        nvt_steps       equal   100000          # NVT 100 ps（timestep = 1 fs）
variable        npt_steps       equal   400000          # NPT(z) 400 ps
variable        thermo_every    equal   1000
variable        dump_every      equal   5000            # 5 ps @ 1 fs

# ----- 基本设置 -----
units           real
boundary        p p p

atom_style      full
bond_style      harmonic
angle_style     harmonic
dihedral_style  fourier

special_bonds   lj 0.0 0.0 0.5 coul 0.0 0.0 0.8333
pair_style      lj/cut/coul/cut  12.0  12.0
pair_modify     mix arithmetic  shift yes
#kspace_style    pppm  1.0e-5

read_data       data.lmp
Reading data file ...
  orthogonal box = (-11.278 -19.5341 -25) to (11.278 19.5341 25)
  1 by 2 by 2 MPI processor grid
  reading atoms ...
  3840 atoms
  scanning bonds ...
  3 = max bonds/atom
  scanning angles ...
  6 = max angles/atom
  scanning dihedrals ...
  11 = max dihedrals/atom
  orthogonal box = (-11.278 -19.5341 -25) to (11.278 19.5341 25)
  1 by 2 by 2 MPI processor grid
  reading bonds ...
  2870 bonds
  reading angles ...
  2440 angles
  reading dihedrals ...
  1980 dihedrals
Finding 1-2 1-3 1-4 neighbors ...
  special bond factors lj:    0        0        0.5     
  special bond factors coul:  0        0        0.8333  
     4 = max # of 1-2 neighbors
     7 = max # of 1-3 neighbors
    15 = max # of 1-4 neighbors
    17 = max # of special neighbors
  special bonds CPU = 0.000 seconds
  read_data CPU = 0.023 seconds
include         pair.lmp
pair_coeff    1    1     0.146300     3.048121  # o
pair_coeff    2    2     0.154500     3.279042  # nu
pair_coeff    3    3     0.098800     3.315212  # c
pair_coeff    4    4     0.098800     3.315212  # ca
pair_coeff    5    5     0.098800     3.315212  # ce
pair_coeff    6    6     0.016100     2.625479  # ha
pair_coeff    7    7     0.016100     2.536389  # h4
pair_coeff    8    8     0.010000     1.106496  # hn
pair_coeff    9    9     0.061400     4.058400  # s6
pair_coeff   10   10     0.000000     0.000000  # Hw
pair_coeff   11   11     0.155300     3.166000  # Ow
pair_coeff   12   12     0.352642     2.159538  # Na

neighbor        2.0  bin
neigh_modify    delay 0  every 1  check yes

# ----- 能量最小化（最小化时冻住 COF，只放松水 / Na）-----
group           cof  type  1  2  3  4  5  6  7  8  9
810 atoms in group cof
fix             freecof  cof  setforce  0  0  0
minimize        0.0  1.0e-8  1000  100000
Generated 66 of 66 mixed pair_coeff terms from arithmetic mixing rule
Neighbor list info ...
  update: every = 1 steps, delay = 0 steps, check = yes
  max neighbors/atom: 2000, page size: 100000
  master list distance cutoff = 14
  ghost atom cutoff = 14
  binsize = 7, bins = 4 6 8
  1 neighbor lists, perpetual/occasional/extra = 1 0 0
  (1) pair lj/cut/coul/cut, perpetual
      attributes: half, newton on
      pair build: half/bin/newton
      stencil: half/bin/3d
      bin: standard
WARNING: Inconsistent image flags
For more information see https://docs.lammps.org/err0027 (src/domain.cpp:1052)
Per MPI rank memory allocation (min/avg/max) = 15.69 | 15.88 | 16.08 Mbytes
   Step          Temp          E_pair         E_mol          TotEng         Press     
         0   0              19422.621      5811.5347      25234.156      78104.816    
         7   0              11526.155      6684.3215      18210.477      63399.102    
Loop time of 0.310712 on 4 procs for 7 steps with 3840 atoms

99.8% CPU use with 4 MPI tasks x no OpenMP threads

Minimization stats:
  Stopping criterion = linesearch alpha is zero
  Energy initial, next-to-last, final = 
       25234.155556488   18210.4769311281   18210.4769311281
  Force two-norm initial, final = 1707.9808 1172.6927
  Force max component initial, final = 100.27375 67.04123
  Final line search alpha, max atom move = 5.4264798e-15 3.6379788e-13
  Iterations, force evaluations = 7 86

MPI task timing breakdown:
Section |  min time  |  avg time  |  max time  |%varavg| %total
---------------------------------------------------------------
Pair    | 0.25458    | 0.27895    | 0.30109    |   4.0 | 89.78
Bond    | 0.0015562  | 0.00183    | 0.0021029  |   0.6 |  0.59
Neigh   | 0          | 0          | 0          |   0.0 |  0.00
Comm    | 0.0066113  | 0.028962   | 0.053555   |  12.5 |  9.32
Output  | 0          | 0          | 0          |   0.0 |  0.00
Modify  | 5.7289e-05 | 7.2946e-05 | 9.9208e-05 |   0.0 |  0.02
Other   |            | 0.000893   |            |       |  0.29

Nlocal:            960 ave        1020 max         899 min
Histogram: 2 0 0 0 0 0 0 0 0 2
Nghost:          10274 ave       10420 max       10139 min
Histogram: 1 0 0 1 0 0 1 0 0 1
Neighs:         480551 ave      513170 max      442790 min
Histogram: 1 1 0 0 0 0 0 0 0 2

Total # of neighbors = 1922203
Ave neighs/atom = 500.5737
Ave special neighs/atom = 3.78125
Neighbor list builds = 0
Dangerous builds = 0
unfix           freecof
reset_timestep  0

# SPC/E：Ow–Hw（bond 12）+ H–O–H（angle 17）；COF 含 H 键 5/7/9 一并 SHAKE
# 注意：SO3 的 s6-o 勿缺键，否则未成键 O 会在第 1 步被斥飞 → Bond atoms missing
fix             myshake  all  shake  0.0001  20  0  b  5  7  9  12
Finding SHAKE clusters ...
      90 = # of size 2 clusters
    1060 = # of size 3 clusters
       0 = # of size 4 clusters
       0 = # of frozen angles
  find clusters CPU = 0.000 seconds

# ----- 分组：骨架 C/N 弹簧钉扎（仍参与热浴 / 积分，可动）-----
# type：2=N(nu), 3–5=C；水 Hw/Ow=10/11，Na=12。若 data.lmp 编号不同请改
group           backbone  type  2  3  4  5
420 atoms in group backbone
fix             pinbb  backbone  spring/self  ${Kspring}
fix             pinbb  backbone  spring/self  100

# ----- 热力学 -----
thermo_style    custom  step  time  temp  press  pzz  lx  ly  lz  density
thermo_modify   flush yes
thermo          ${thermo_every}
thermo          1000

# ----- 初速度 -----
velocity        all  create  ${mytemp}  ${myrand}  dist gaussian  mom yes  rot yes
velocity        all  create  300  ${myrand}  dist gaussian  mom yes  rot yes
velocity        all  create  300  58938  dist gaussian  mom yes  rot yes

write_data      result_atoms.data  nofix
System init for write_data ...
Generated 66 of 66 mixed pair_coeff terms from arithmetic mixing rule

# =============================================================================
# 0. NVT 预松弛：0.2 fs × 5000（≈ 1 ps）
#    部分键角（如 -SO3 的 O–S–O）与平衡角差较大，小步长先缓和高力
# =============================================================================

timestep        0.5                                      # [fs]
fix             mynvt  all  nvt  temp  ${mytemp}  ${mytemp}  ${tdamp}
fix             mynvt  all  nvt  temp  300  ${mytemp}  ${tdamp}
fix             mynvt  all  nvt  temp  300  300  ${tdamp}
fix             mynvt  all  nvt  temp  300  300  100
run             ${nvt_pre_steps}
run             5000
Generated 66 of 66 mixed pair_coeff terms from arithmetic mixing rule
WARNING: Inconsistent image flags
For more information see https://docs.lammps.org/err0027 (src/domain.cpp:1052)
Per MPI rank memory allocation (min/avg/max) = 15.94 | 16.13 | 16.33 Mbytes
   Step          Time           Temp          Press           Pzz             Lx             Ly             Lz          Density    
         0   0              300            52151.833     -7064.7702      22.556         39.0682        50             1.0342257    
      1000   500            428.02805      5753.4622     -1851.7958      22.556         39.0682        50             1.0342257    
      2000   1000           286.15648      2608.8772     -6065.8004      22.556         39.0682        50             1.0342257    
      3000   1500           291.90154      6065.4854     -2653.404       22.556         39.0682        50             1.0342257    
      4000   2000           302.84671      6914.7483     -957.29817      22.556         39.0682        50             1.0342257    
      5000   2500           305.74908      4963.7945     -2965.1916      22.556         39.0682        50             1.0342257    
Loop time of 15.4938 on 4 procs for 5000 steps with 3840 atoms

Performance: 13.941 ns/day, 1.722 hours/ns, 322.709 timesteps/s, 1.239 Matom-step/s
99.8% CPU use with 4 MPI tasks x no OpenMP threads

MPI task timing breakdown:
Section |  min time  |  avg time  |  max time  |%varavg| %total
---------------------------------------------------------------
Pair    | 11.732     | 12.573     | 13.247     |  17.7 | 81.15
Bond    | 0.088315   | 0.091199   | 0.09521    |   0.8 |  0.59
Neigh   | 1.2865     | 1.2866     | 1.2867     |   0.0 |  8.30
Comm    | 0.57623    | 1.2538     | 2.0934     |  56.1 |  8.09
Output  | 6.2708e-05 | 0.00010936 | 0.00024521 |   0.0 |  0.00
Modify  | 0.2631     | 0.26457    | 0.26608    |   0.3 |  1.71
Other   |            | 0.02487    |            |       |  0.16

Nlocal:            960 ave         982 max         927 min
Histogram: 1 0 0 0 0 1 0 0 1 1
Nghost:        10240.5 ave       10317 max       10161 min
Histogram: 1 0 0 0 1 1 0 0 0 1
Neighs:         481501 ave      501213 max      449689 min
Histogram: 1 0 0 0 1 0 0 0 0 2

Total # of neighbors = 1926003
Ave neighs/atom = 501.56328
Ave special neighs/atom = 3.78125
Neighbor list builds = 177
Dangerous builds = 0
unfix           mynvt

# =============================================================================
# 1. NVT 100 ps（恢复 1 fs；盒边固定；全体热浴；骨架 spring/self）
# =============================================================================

timestep        1.0                                     # [fs]
fix             mynvt  all  nvt  temp  ${mytemp}  ${mytemp}  ${tdamp}
fix             mynvt  all  nvt  temp  300  ${mytemp}  ${tdamp}
fix             mynvt  all  nvt  temp  300  300  ${tdamp}
fix             mynvt  all  nvt  temp  300  300  100
run             ${nvt_steps}
run             100000
Generated 66 of 66 mixed pair_coeff terms from arithmetic mixing rule
WARNING: Inconsistent image flags
For more information see https://docs.lammps.org/err0027 (src/domain.cpp:1052)
Per MPI rank memory allocation (min/avg/max) = 15.94 | 16.14 | 16.33 Mbytes
   Step          Time           Temp          Press           Pzz             Lx             Ly             Lz          Density    
      5000   2500           305.74908      4398.3146     -3004.1124      22.556         39.0682        50             1.0342257    
      6000   3500           299.63498      5371.8868     -1361.8228      22.556         39.0682        50             1.0342257    
      7000   4500           296.01393      4746.4482     -2715.6498      22.556         39.0682        50             1.0342257    
      8000   5500           308.09568      4977.4675     -2737.8152      22.556         39.0682        50             1.0342257    
      9000   6500           301.94113      4102.8357     -4605.9969      22.556         39.0682        50             1.0342257    
     10000   7500           290.45929      4070.3572     -2615.4775      22.556         39.0682        50             1.0342257    
     11000   8500           300.73368      6475.3318     -2236.0929      22.556         39.0682        50             1.0342257    
     12000   9500           302.34992      5742.544      -3480.2237      22.556         39.0682        50             1.0342257    
     13000   10500          300.40835      5837.4718     -4389.7959      22.556         39.0682        50             1.0342257    
     14000   11500          302.31277      4823.8057     -3204.3031      22.556         39.0682        50             1.0342257    
     15000   12500          304.58218      7134.7723     -746.43463      22.556         39.0682        50             1.0342257    
     16000   13500          302.92069      7606.1723     -2207.9499      22.556         39.0682        50             1.0342257    
     17000   14500          306.89265      5359.1921     -2605.8634      22.556         39.0682        50             1.0342257    
     18000   15500          305.77042      5365.6492     -4644.2564      22.556         39.0682        50             1.0342257    
     19000   16500          301.07579      5788.5935     -3399.783       22.556         39.0682        50             1.0342257    
     20000   17500          302.30979      7711.301      -2719.0473      22.556         39.0682        50             1.0342257    
     21000   18500          315.25287      4832.3022     -5168.1121      22.556         39.0682        50             1.0342257    
     22000   19500          300.09412      4987.3491     -3444.5058      22.556         39.0682        50             1.0342257    
     23000   20500          305.64874      6478.5175     -1957.4171      22.556         39.0682        50             1.0342257    
     24000   21500          298.99185      4695.9641     -1648.5603      22.556         39.0682        50             1.0342257    
     25000   22500          301.44528      4444.6189     -4082.5559      22.556         39.0682        50             1.0342257    
     26000   23500          301.03638      5965.5953     -2669.4767      22.556         39.0682        50             1.0342257    
     27000   24500          312.96005      6664.4055     -2017.594       22.556         39.0682        50             1.0342257    
     28000   25500          299.4349       7336.6564     -1142.5197      22.556         39.0682        50             1.0342257    
     29000   26500          303.40499      5646.3536     -2947.2668      22.556         39.0682        50             1.0342257    
     30000   27500          299.02978      4068.1325     -3504.5342      22.556         39.0682        50             1.0342257    
     31000   28500          302.42558      4661.8158     -3762.6147      22.556         39.0682        50             1.0342257    
     32000   29500          298.27779      8091.1912     -58.304728      22.556         39.0682        50             1.0342257    
     33000   30500          297.42084      4696.474      -1197.2907      22.556         39.0682        50             1.0342257    
     34000   31500          307.05869      4804.4845     -2764.662       22.556         39.0682        50             1.0342257    
     35000   32500          295.74899      5635.8273     -4767.0773      22.556         39.0682        50             1.0342257    
     36000   33500          306.91507      3964.6775     -3822.4823      22.556         39.0682        50             1.0342257    
     37000   34500          296.38318      5420.2647     -2960.8451      22.556         39.0682        50             1.0342257    
     38000   35500          297.72022      6155.3126     -1906.523       22.556         39.0682        50             1.0342257    
     39000   36500          295.85506      3932.0309     -4750.8183      22.556         39.0682        50             1.0342257    
     40000   37500          298.58965      3958.0894     -4654.2423      22.556         39.0682        50             1.0342257    
     41000   38500          297.28306      6908.2318      1086.1221      22.556         39.0682        50             1.0342257    
     42000   39500          286.56024      5893.7469     -1014.0965      22.556         39.0682        50             1.0342257    
     43000   40500          304.81335      5851.4341      139.7433       22.556         39.0682        50             1.0342257    
     44000   41500          298.52968      7152.7615     -1268.1906      22.556         39.0682        50             1.0342257    
     45000   42500          305.08794      4122.3707     -4691.991       22.556         39.0682        50             1.0342257    
     46000   43500          296.15777      5921.8835     -1849.8131      22.556         39.0682        50             1.0342257    
     47000   44500          302.11727      3662.9177     -4655.6634      22.556         39.0682        50             1.0342257    
     48000   45500          296.96748      6319.5114     -1543.8825      22.556         39.0682        50             1.0342257    
     49000   46500          296.31033      4477.1878     -3208.1953      22.556         39.0682        50             1.0342257    
     50000   47500          299.26133      6096.5543     -2238.7721      22.556         39.0682        50             1.0342257    
     51000   48500          303.93647      4748.4619     -4392.3738      22.556         39.0682        50             1.0342257    
     52000   49500          296.89508      7337.666      -821.18955      22.556         39.0682        50             1.0342257    
     53000   50500          303.17198      3476.5393     -5068.6609      22.556         39.0682        50             1.0342257    
     54000   51500          299.82856      5900.1824     -967.89689      22.556         39.0682        50             1.0342257    
     55000   52500          303.50474      6632.7988     -429.57133      22.556         39.0682        50             1.0342257    
     56000   53500          307.52106      5824.0294     -2675.7858      22.556         39.0682        50             1.0342257    
     57000   54500          299.94913      5754.4113     -2499.7331      22.556         39.0682        50             1.0342257    
     58000   55500          297.82673      6503.2855     -966.9884       22.556         39.0682        50             1.0342257    
     59000   56500          303.24173      6253.4152     -2132.795       22.556         39.0682        50             1.0342257    
     60000   57500          296.68508      7233.1458     -537.94405      22.556         39.0682        50             1.0342257    
     61000   58500          296.70279      6111.476      -2533.2199      22.556         39.0682        50             1.0342257    
     62000   59500          297.2188       6494.2228     -1736.9553      22.556         39.0682        50             1.0342257    
     63000   60500          311.22229      5446.2819     -2009.4907      22.556         39.0682        50             1.0342257    
     64000   61500          294.93611      6393.4921     -3128.5542      22.556         39.0682        50             1.0342257    
     65000   62500          299.35435      5171.8073     -2010.6026      22.556         39.0682        50             1.0342257    
     66000   63500          295.59971      4663.9921     -4144.8497      22.556         39.0682        50             1.0342257    
     67000   64500          306.43893      7697.2603     -779.24138      22.556         39.0682        50             1.0342257    
     68000   65500          300.46962      5681.9112     -1300.8693      22.556         39.0682        50             1.0342257    
     69000   66500          296.86737      6417.4436     -1640.1409      22.556         39.0682        50             1.0342257    
     70000   67500          301.09504      5105.0757     -3247.3957      22.556         39.0682        50             1.0342257    
     71000   68500          296.7487       7363.5615     -239.86831      22.556         39.0682        50             1.0342257    
     72000   69500          303.17355      6781.4384     -756.36847      22.556         39.0682        50             1.0342257    
     73000   70500          293.69572      5913.2155     -4792.4868      22.556         39.0682        50             1.0342257    
     74000   71500          307.89427      6814.4343     -909.04371      22.556         39.0682        50             1.0342257    
     75000   72500          300.41765      5801.7665     -1809.1375      22.556         39.0682        50             1.0342257    
     76000   73500          300.22836      6373.4046     -1922.6665      22.556         39.0682        50             1.0342257    
     77000   74500          304.63668      3709.7887     -3509.9077      22.556         39.0682        50             1.0342257    
     78000   75500          305.19891      6070.7072     -99.151862      22.556         39.0682        50             1.0342257    
     79000   76500          303.86097      5816.3121     -2274.2916      22.556         39.0682        50             1.0342257    
     80000   77500          298.39673      4472.8236     -3484.5461      22.556         39.0682        50             1.0342257    
     81000   78500          297.04621      5505.9346     -2115.942       22.556         39.0682        50             1.0342257    
     82000   79500          297.21712      4787.0729     -1759.1631      22.556         39.0682        50             1.0342257    
     83000   80500          302.44428      6518.8203     -2033.5045      22.556         39.0682        50             1.0342257    
     84000   81500          305.38971      4842.1568     -3357.7401      22.556         39.0682        50             1.0342257    
     85000   82500          297.20504      3760.9384     -3392.1244      22.556         39.0682        50             1.0342257    
     86000   83500          295.2115       5797.0311     -2936.0131      22.556         39.0682        50             1.0342257    
     87000   84500          304.71754      5604.6812     -2430.3763      22.556         39.0682        50             1.0342257    
     88000   85500          306.09681      6614.3049     -1185.9671      22.556         39.0682        50             1.0342257    
     89000   86500          297.18507      5421.9899     -2119.8906      22.556         39.0682        50             1.0342257    
     90000   87500          302.6989       6031.9794     -1127.4146      22.556         39.0682        50             1.0342257    
     91000   88500          306.27991      3234.9824     -5509.5685      22.556         39.0682        50             1.0342257    
     92000   89500          303.11686      3611.5806     -4824.2751      22.556         39.0682        50             1.0342257    
     93000   90500          304.82188      6195.5575     -1006.3699      22.556         39.0682        50             1.0342257    
     94000   91500          301.75885      5237.6126     -1549.2302      22.556         39.0682        50             1.0342257    
     95000   92500          297.56395      4938.6413     -3489.9682      22.556         39.0682        50             1.0342257    
     96000   93500          298.07046      6985.8024     -451.4866       22.556         39.0682        50             1.0342257    
     97000   94500          303.38         5868.7695     -2084.4762      22.556         39.0682        50             1.0342257    
     98000   95500          290.18771      6461.6076     -501.14967      22.556         39.0682        50             1.0342257    
     99000   96500          301.12333      6994.1194     -655.19444      22.556         39.0682        50             1.0342257    
    100000   97500          298.22446      6026.9389     -1734.6226      22.556         39.0682        50             1.0342257    
    101000   98500          296.28963      3639.8452     -6565.3066      22.556         39.0682        50             1.0342257    
    102000   99500          309.58619      4693.6494     -4522.2215      22.556         39.0682        50             1.0342257    
    103000   100500         304.42445      6068.9878     -1925.3524      22.556         39.0682        50             1.0342257    
    104000   101500         298.94605      5615.5194     -2349.9835      22.556         39.0682        50             1.0342257    
    105000   102500         300.64259      6842.238      -2250.9197      22.556         39.0682        50             1.0342257    
Loop time of 333.507 on 4 procs for 100000 steps with 3840 atoms

Performance: 25.907 ns/day, 0.926 hours/ns, 299.844 timesteps/s, 1.151 Matom-step/s
99.7% CPU use with 4 MPI tasks x no OpenMP threads

MPI task timing breakdown:
Section |  min time  |  avg time  |  max time  |%varavg| %total
---------------------------------------------------------------
Pair    | 233.35     | 262.14     | 277.62     | 106.8 | 78.60
Bond    | 1.7863     | 1.8351     | 1.9175     |   3.8 |  0.55
Neigh   | 35.561     | 35.566     | 35.569     |   0.0 | 10.66
Comm    | 12.396     | 27.891     | 56.693     | 327.8 |  8.36
Output  | 0.0012947  | 0.0036425  | 0.010673   |   6.7 |  0.00
Modify  | 5.5475     | 5.5675     | 5.5997     |   0.9 |  1.67
Other   |            | 0.5056     |            |       |  0.15

Nlocal:            960 ave         984 max         908 min
Histogram: 1 0 0 0 0 0 0 0 1 2
Nghost:          10236 ave       10309 max       10166 min
Histogram: 1 0 1 0 0 0 1 0 0 1
Neighs:         483124 ave      508162 max      436006 min
Histogram: 1 0 0 0 0 0 1 0 0 2

Total # of neighbors = 1932498
Ave neighs/atom = 503.25469
Ave special neighs/atom = 3.78125
Neighbor list builds = 4679
Dangerous builds = 0
unfix           mynvt

# =============================================================================
# 2. NPT(z) 400 ps @ 1 atm（仅 z 耦合；xy 边长不变；全体热浴）
# =============================================================================

reset_timestep  0
write_data      result_atoms.eq.data  nofix
System init for write_data ...
Generated 66 of 66 mixed pair_coeff terms from arithmetic mixing rule

dump            mydump  all  custom  ${dump_every}                  result_atoms.lammpstrj  id  mol  type  xsu  ysu  zsu
dump            mydump  all  custom  5000                  result_atoms.lammpstrj  id  mol  type  xsu  ysu  zsu
dump_modify     mydump  sort id

fix             mynpt  all  npt  temp  ${mytemp}  ${mytemp}  ${tdamp}                  z  ${mypress}  ${mypress}  ${pdamp}
fix             mynpt  all  npt  temp  300  ${mytemp}  ${tdamp}                  z  ${mypress}  ${mypress}  ${pdamp}
fix             mynpt  all  npt  temp  300  300  ${tdamp}                  z  ${mypress}  ${mypress}  ${pdamp}
fix             mynpt  all  npt  temp  300  300  100                  z  ${mypress}  ${mypress}  ${pdamp}
fix             mynpt  all  npt  temp  300  300  100                  z  1  ${mypress}  ${pdamp}
fix             mynpt  all  npt  temp  300  300  100                  z  1  1  ${pdamp}
fix             mynpt  all  npt  temp  300  300  100                  z  1  1  1000
run             ${npt_steps}
run             400000
Generated 66 of 66 mixed pair_coeff terms from arithmetic mixing rule
WARNING: Inconsistent image flags
For more information see https://docs.lammps.org/err0027 (src/domain.cpp:1052)
Per MPI rank memory allocation (min/avg/max) = 15.96 | 16.25 | 16.35 Mbytes
   Step          Time           Temp          Press           Pzz             Lx             Ly             Lz          Density    
         0   0              300.64259      6295.9816     -2276.6593      22.556         39.0682        50             1.0342257    
      1000   1000           298.21832      7044.3516      2131.5024      22.556         39.0682        49.720527      1.040039     
      2000   2000           303.97599      7496.9203      23.381792      22.556         39.0682        49.856033      1.0372122    
      3000   3000           293.97196      6755.2525     -302.87545      22.556         39.0682        49.687628      1.0407276    
      4000   4000           302.19347      6573.0294     -3090.2557      22.556         39.0682        49.887701      1.0365538    
      5000   5000           297.1532       4837.6552     -3439.2771      22.556         39.0682        49.82215       1.0379176    
      6000   6000           301.45859      7271.5292      682.40262      22.556         39.0682        49.671067      1.0410746    
      7000   7000           300.76457      7834.1989      2101.7146      22.556         39.0682        49.746262      1.039501     
      8000   8000           309.03561      6083.5199     -582.90143      22.556         39.0682        49.801478      1.0383484    
      9000   9000           301.78154      6499.1212     -1302.0568      22.556         39.0682        49.726186      1.0399206    
     10000   10000          303.10012      6938.6418      1101.3277      22.556         39.0682        49.557392      1.0434626    
     11000   11000          304.75756      6110.5692     -1281.907       22.556         39.0682        49.795926      1.0384642    
     12000   12000          293.48182      7932.8054      1110.0836      22.556         39.0682        49.644707      1.0416274    
     13000   13000          296.45082      6139.3783     -2716.1712      22.556         39.0682        49.660362      1.041299     
     14000   14000          303.58799      6942.2516     -379.98828      22.556         39.0682        49.537075      1.0438906    
     15000   15000          305.48649      8388.6677      431.49061      22.556         39.0682        49.614546      1.0422606    
     16000   16000          309.15496      6305.0218     -1917.1269      22.556         39.0682        49.667571      1.0411479    
     17000   17000          294.15661      6325.0491     -1881.6726      22.556         39.0682        49.64989       1.0415186    
     18000   18000          302.98386      7343.7058     -1945.685       22.556         39.0682        49.697955      1.0405114    
     19000   19000          293.84208      7263.1103      821.81597      22.556         39.0682        49.644634      1.0416289    
     20000   20000          294.6075       7194.7501     -829.25982      22.556         39.0682        49.5633        1.0433382    
     21000   21000          296.29877      7163.3253     -320.77678      22.556         39.0682        49.57345       1.0431246    
     22000   22000          307.63428      6586.5723     -554.73938      22.556         39.0682        49.422224      1.0463165    
     23000   23000          303.10054      6393.8918      214.64335      22.556         39.0682        49.451789      1.0456909    
     24000   24000          297.32621      7728.6608     -461.22821      22.556         39.0682        49.492698      1.0448266    
     25000   25000          295.57348      6157.365      -2711.048       22.556         39.0682        49.578373      1.043021     
     26000   26000          299.41652      4946.3675     -1458.0732      22.556         39.0682        49.573008      1.0431339    
     27000   27000          302.16644      7885.848       2286.414       22.556         39.0682        49.387544      1.0470512    
     28000   28000          302.53174      7336.543       904.11136      22.556         39.0682        49.434258      1.0460618    
     29000   29000          294.8113       6788.2122     -229.70235      22.556         39.0682        49.448462      1.0457613    
     30000   30000          303.77507      5915.0817     -1753.3477      22.556         39.0682        49.489161      1.0449013    
     31000   31000          297.20171      6005.3701     -947.39419      22.556         39.0682        49.435305      1.0460396    
     32000   32000          303.15949      5572.1972     -308.48583      22.556         39.0682        49.455711      1.045608     
     33000   33000          303.17331      6566.8959     -2606.1232      22.556         39.0682        49.460111      1.045515     
     34000   34000          309.68725      6035.8167     -834.92595      22.556         39.0682        49.444294      1.0458494    
     35000   35000          300.9068       6697.1356     -151.00501      22.556         39.0682        49.346612      1.0479197    
     36000   36000          296.27816      7714.6838      382.5249       22.556         39.0682        49.211553      1.0507957    
     37000   37000          294.67872      6837.5005     -577.122        22.556         39.0682        49.292724      1.0490653    
     38000   38000          297.14317      9781.1327      3188.3519      22.556         39.0682        49.180215      1.0514652    
     39000   39000          301.51062      8475.2248      1486.944       22.556         39.0682        49.227465      1.050456     
     40000   40000          305.38718      4405.9409     -2305.9592      22.556         39.0682        49.238834      1.0502135    
     41000   41000          301.15281      6878.0714     -1362.577       22.556         39.0682        49.286324      1.0492015    
     42000   42000          306.01153      7202.8112     -176.64917      22.556         39.0682        49.16557       1.0517784    
     43000   43000          302.04136      8703.0477      3000.8556      22.556         39.0682        49.10233       1.053133     
     44000   44000          299.45892      6460.1335     -951.37255      22.556         39.0682        49.341267      1.0480332    
     45000   45000          298.47799      6651.0901     -1500.5006      22.556         39.0682        49.24286       1.0501276    
     46000   46000          294.10956      7291.9381      759.6702       22.556         39.0682        49.165712      1.0517754    
     47000   47000          310.87936      6663.7891     -2645.8332      22.556         39.0682        49.144155      1.0522368    
     48000   48000          300.88993      5780.6429     -834.07553      22.556         39.0682        49.17489       1.0515791    
     49000   49000          297.83145      8244.6715      2113.0862      22.556         39.0682        49.09595       1.0532699    
     50000   50000          303.00121      5964.9292      947.04556      22.556         39.0682        49.088095      1.0534384    
     51000   51000          304.03331      6573.54       -1330.2378      22.556         39.0682        49.115307      1.0528548    
     52000   52000          299.58905      6024.7032     -1393.998       22.556         39.0682        49.041198      1.0544458    
     53000   53000          295.89314      7975.0151      1059.0884      22.556         39.0682        49.211036      1.0508067    
     54000   54000          302.21782      6932.9107     -733.41962      22.556         39.0682        49.246648      1.0500468    
     55000   55000          306.72325      7229.8976      1013.3093      22.556         39.0682        49.199136      1.0510609    
     56000   56000          296.82537      5918.0649      255.14044      22.556         39.0682        49.175873      1.0515581    
     57000   57000          305.16978      7637.9445      869.29286      22.556         39.0682        49.203824      1.0509607    
     58000   58000          305.0733       8608.2251      2776.52        22.556         39.0682        49.096599      1.053256     
     59000   59000          306.12196      8035.5657      340.93188      22.556         39.0682        49.148721      1.052139     
     60000   60000          299.79866      7110.6799      995.36193      22.556         39.0682        49.09481       1.0532944    
     61000   61000          306.29137      9200.2621      3138.8312      22.556         39.0682        49.061681      1.0540056    
     62000   62000          299.30445      6735.8501     -518.57386      22.556         39.0682        49.092268      1.0533489    
     63000   63000          306.84107      7111.3392     -335.09902      22.556         39.0682        49.088609      1.0534274    
     64000   64000          301.48749      6940.7692      228.39722      22.556         39.0682        48.990846      1.0555296    
     65000   65000          303.9157       6250.6105      107.86377      22.556         39.0682        48.969348      1.055993     
     66000   66000          295.21978      6592.2362     -1046.3879      22.556         39.0682        49.057293      1.0540999    
     67000   67000          298.8524       6527.6619     -1003.555       22.556         39.0682        49.103473      1.0531085    
     68000   68000          297.90236      7462.4994     -506.78879      22.556         39.0682        49.087325      1.053455     
     69000   69000          302.73578      7841.6828      363.82701      22.556         39.0682        49.067969      1.0538705    
     70000   70000          300.84201      8626.5272      619.64682      22.556         39.0682        48.959165      1.0562126    
     71000   71000          300.73646      6106.1754     -1670.5209      22.556         39.0682        49.060424      1.0540326    
     72000   72000          304.86458      7846.072      -870.52479      22.556         39.0682        49.062368      1.0539909    
     73000   73000          298.0911       7064.0632     -1062.593       22.556         39.0682        48.944552      1.0565279    
     74000   74000          291.73594      6039.7427     -2705.5169      22.556         39.0682        49.005276      1.0552188    
     75000   75000          299.44414      7469.1497      929.20056      22.556         39.0682        48.955327      1.0562954    
     76000   76000          296.25126      8047.1376      2183.1218      22.556         39.0682        48.865114      1.0582455    
     77000   77000          299.54161      6392.8305      1715.7756      22.556         39.0682        48.867264      1.0581989    
     78000   78000          290.13514      4938.1507     -3866.7322      22.556         39.0682        48.971454      1.0559475    
     79000   79000          303.41908      8111.6725     -1282.6558      22.556         39.0682        48.896152      1.0575738    
     80000   80000          293.18402      6450.2952     -3210.9071      22.556         39.0682        48.985166      1.055652     
     81000   81000          300.01184      7812.5768      932.60248      22.556         39.0682        48.912142      1.057228     
     82000   82000          296.1306       6133.5481     -1960.4107      22.556         39.0682        49.001808      1.0552934    
     83000   83000          300.51389      8261.0471      2144.8671      22.556         39.0682        48.846138      1.0586566    
     84000   84000          300.795        7491.1586      572.55767      22.556         39.0682        48.933133      1.0567745    
     85000   85000          292.3807       7447.3119     -1178.8701      22.556         39.0682        48.908741      1.0573015    
     86000   86000          314.69469      7499.2418      95.247798      22.556         39.0682        48.825866      1.0590962    
     87000   87000          304.70468      7371.3393      119.0051       22.556         39.0682        48.912116      1.0572286    
     88000   88000          299.35148      6621.3527     -390.37584      22.556         39.0682        48.800296      1.0596511    
     89000   89000          298.81604      9393.1239      1170.174       22.556         39.0682        48.829195      1.059024     
     90000   90000          303.26007      7657.945       373.27319      22.556         39.0682        48.793602      1.0597965    
     91000   91000          301.37734      6889.9576     -1176.3639      22.556         39.0682        48.775675      1.060186     
     92000   92000          295.05407      6726.4344      612.6793       22.556         39.0682        48.683061      1.0622029    
     93000   93000          297.605        6714.731       126.90048      22.556         39.0682        48.778266      1.0601297    
     94000   94000          294.09673      6634.1067     -924.31646      22.556         39.0682        48.768697      1.0603377    
     95000   95000          293.42689      7852.6793     -186.99788      22.556         39.0682        48.733071      1.0611128    
     96000   96000          301.28761      6967.7518     -2804.3594      22.556         39.0682        48.725492      1.0612779    
     97000   97000          298.89256      7561.0641      731.24499      22.556         39.0682        48.659907      1.0627083    
     98000   98000          288.56038      8150.2061      566.34888      22.556         39.0682        48.730024      1.0611792    
     99000   99000          299.35775      8013.5307      264.66315      22.556         39.0682        48.647472      1.0629799    
    100000   100000         302.5978       7056.5273      22.059012      22.556         39.0682        48.749107      1.0607638    
    101000   101000         299.24487      5498.9537     -2050.2134      22.556         39.0682        48.766281      1.0603902    
    102000   102000         296.32977      8331.8188      187.73455      22.556         39.0682        48.675233      1.0623737    
    103000   103000         303.045        7719.7293      1924.4747      22.556         39.0682        48.684738      1.0621663    
    104000   104000         304.91574      7398.8095      2191.3498      22.556         39.0682        48.657641      1.0627578    
    105000   105000         292.9877       5822.7129     -632.68618      22.556         39.0682        48.660488      1.0626956    
    106000   106000         302.33389      4621.6963     -2308.4295      22.556         39.0682        48.716116      1.0614821    
    107000   107000         296.35929      8057.9793      478.25685      22.556         39.0682        48.622397      1.0635281    
    108000   108000         296.22926      7458.7008      1793.6197      22.556         39.0682        48.528391      1.0655883    
    109000   109000         298.567        9004.4406      3041.4424      22.556         39.0682        48.551476      1.0650817    
    110000   110000         298.7199       6685.9816     -1574.292       22.556         39.0682        48.626672      1.0634346    
    111000   111000         294.9389       8826.4836      1444.2988      22.556         39.0682        48.537611      1.0653859    
    112000   112000         297.24877      7000.1602      1396.1817      22.556         39.0682        48.613984      1.0637122    
    113000   113000         303.47437      6258.5598     -1876.818       22.556         39.0682        48.553257      1.0650426    
    114000   114000         294.73673      7546.0222      3981.7585      22.556         39.0682        48.510644      1.0659782    
    115000   115000         300.01282      6718.0231     -1376.8238      22.556         39.0682        48.635568      1.0632401    
    116000   116000         297.91337      5811.5363     -2039.6114      22.556         39.0682        48.671777      1.0624491    
    117000   117000         298.82896      7097.2925      1397.4544      22.556         39.0682        48.671914      1.0624461    
    118000   118000         297.39295      7949.0532      1961.0948      22.556         39.0682        48.508241      1.066031     
    119000   119000         302.52649      6050.6609     -4089.476       22.556         39.0682        48.763249      1.0604561    
    120000   120000         292.14448      8334.5428      1139.8199      22.556         39.0682        48.628361      1.0633977    
    121000   121000         304.69675      7176.4575     -536.45076      22.556         39.0682        48.610055      1.0637981    
    122000   122000         299.34633      5123.7543     -2022.7993      22.556         39.0682        48.675016      1.0623784    
    123000   123000         302.29626      5318.7709     -1041.1825      22.556         39.0682        48.640699      1.0631279    
    124000   124000         299.82461      8518.4394      1867.1305      22.556         39.0682        48.556362      1.0649745    
    125000   125000         300.19006      6972.6916     -737.9886       22.556         39.0682        48.666027      1.0625747    
    126000   126000         297.01033      5714.2091      312.32549      22.556         39.0682        48.590932      1.0642168    
    127000   127000         300.18725      6695.0514      649.49632      22.556         39.0682        48.621948      1.063538     
    128000   128000         294.60879      7224.9049     -615.84992      22.556         39.0682        48.600403      1.0640094    
    129000   129000         295.99472      6032.5537     -636.76649      22.556         39.0682        48.572752      1.0646151    
    130000   130000         298.70171      8553.6272      502.2145       22.556         39.0682        48.520556      1.0657604    
    131000   131000         306.6374       6572.0452     -609.69398      22.556         39.0682        48.610986      1.0637778    
    132000   132000         301.05118      8768.7558     -117.26908      22.556         39.0682        48.563088      1.064827     
    133000   133000         304.73646      6251.4307     -1071.6608      22.556         39.0682        48.691267      1.0620238    
    134000   134000         291.31149      6951.3321     -590.74542      22.556         39.0682        48.602247      1.0639691    
    135000   135000         307.43222      7782.4769      852.44008      22.556         39.0682        48.63733       1.0632016    
    136000   136000         294.79828      6310.9376      1065.8985      22.556         39.0682        48.628823      1.0633876    
    137000   137000         302.70965      7215.5085     -696.07918      22.556         39.0682        48.684692      1.0621673    
    138000   138000         302.1963       6608.6169     -1427.2475      22.556         39.0682        48.622732      1.0635208    
    139000   139000         300.31269      5700.1677     -856.05786      22.556         39.0682        48.633456      1.0632863    
    140000   140000         295.29147      6176.7589     -1467.8209      22.556         39.0682        48.544072      1.0652441    
    141000   141000         305.0138       6053.6172     -458.31528      22.556         39.0682        48.527152      1.0656155    
    142000   142000         298.70762      9062.8558      175.7864       22.556         39.0682        48.522947      1.0657079    
    143000   143000         309.0958       7937.1067      726.78752      22.556         39.0682        48.521376      1.0657424    
    144000   144000         296.21999      5966.4992     -1919.1194      22.556         39.0682        48.574283      1.0645816    
    145000   145000         296.76559      5819.3924     -1311.7731      22.556         39.0682        48.476765      1.0667231    
    146000   146000         298.60135      7934.7924      15.117799      22.556         39.0682        48.440056      1.0675315    
    147000   147000         304.95288      5983.9009     -3411.4573      22.556         39.0682        48.526253      1.0656353    
    148000   148000         299.726        9438.3472      2743.1362      22.556         39.0682        48.390247      1.0686304    
    149000   149000         312.10362      12348.595      5308.8643      22.556         39.0682        48.431166      1.0677275    
    150000   150000         296.60347      7349.4173     -2600.1785      22.556         39.0682        48.525892      1.0656432    
    151000   151000         300.66156      6891.8599     -381.13118      22.556         39.0682        48.373472      1.0690009    
    152000   152000         297.6928       7457.0613      517.60523      22.556         39.0682        48.463159      1.0670226    
    153000   153000         296.775        5977.5996     -1297.7801      22.556         39.0682        48.592905      1.0641736    
    154000   154000         305.08381      9205.779       1530.0939      22.556         39.0682        48.46184       1.0670517    
    155000   155000         301.51736      7988.7774      1500.8347      22.556         39.0682        48.529281      1.0655688    
    156000   156000         296.09982      7473.2314      2044.1705      22.556         39.0682        48.530825      1.0655349    
    157000   157000         300.77873      9428.1137      2972.8126      22.556         39.0682        48.43119       1.067727     
    158000   158000         297.14164      6218.5301     -35.783131      22.556         39.0682        48.469777      1.0668769    
    159000   159000         301.48303      7608.1299     -986.66215      22.556         39.0682        48.436938      1.0676003    
    160000   160000         293.47787      7612.647       357.64593      22.556         39.0682        48.434118      1.0676624    
    161000   161000         303.94206      8424.8084     -638.49534      22.556         39.0682        48.422508      1.0679184    
    162000   162000         306.00974      7759.6438      1174.505       22.556         39.0682        48.345073      1.0696289    
    163000   163000         303.47527      8405.5514      1700.5003      22.556         39.0682        48.345851      1.0696117    
    164000   164000         306.16119      8812.5229      934.22756      22.556         39.0682        48.370611      1.0690642    
    165000   165000         306.17732      9724.2947      2307.9091      22.556         39.0682        48.16987       1.0735193    
    166000   166000         294.41052      8256.4727      565.46185      22.556         39.0682        48.29642       1.0707064    
    167000   167000         297.31742      6612.3264     -1089.7633      22.556         39.0682        48.418371      1.0680096    
    168000   168000         290.94945      6715.1737     -970.97758      22.556         39.0682        48.380417      1.0688475    
    169000   169000         308.41         8823.826       1724.1981      22.556         39.0682        48.251503      1.0717031    
    170000   170000         305.8324       8464.0742      1890.2328      22.556         39.0682        48.236809      1.0720296    
    171000   171000         304.65314      6947.0752     -475.31265      22.556         39.0682        48.30318       1.0705566    
    172000   172000         299.10692      7268.4757     -441.24266      22.556         39.0682        48.210944      1.0726047    
    173000   173000         296.10468      7570.2893      2431.7882      22.556         39.0682        48.15714       1.0738031    
    174000   174000         299.5227       8257.9676      1567.2144      22.556         39.0682        48.214232      1.0725316    
    175000   175000         292.20843      8397.7536      875.24698      22.556         39.0682        48.159553      1.0737493    
    176000   176000         299.74283      7293.5458     -124.68405      22.556         39.0682        48.192497      1.0730153    
    177000   177000         303.2966       8014.9582      1988.674       22.556         39.0682        48.103415      1.0750024    
    178000   178000         291.14839      7314.739       636.26622      22.556         39.0682        48.156293      1.073822     
    179000   179000         294.03858      6874.8356      563.54303      22.556         39.0682        48.20172       1.07281      
    180000   180000         297.06054      6084.8531     -1211.2352      22.556         39.0682        48.19695       1.0729162    
    181000   181000         306.49659      9584.8941      1626.2228      22.556         39.0682        48.240855      1.0719397    
    182000   182000         306.53832      7584.4654      1601.184       22.556         39.0682        48.195437      1.0729498    
    183000   183000         291.96432      6196.4306     -780.31171      22.556         39.0682        48.309162      1.070424     
    184000   184000         310.02608      9217.7703      1883.2712      22.556         39.0682        48.162784      1.0736773    
    185000   185000         293.21436      6438.3966     -1114.6592      22.556         39.0682        48.370894      1.0690579    
    186000   186000         303.51366      7227.403      -989.66033      22.556         39.0682        48.326355      1.0700432    
    187000   187000         302.20683      10384.656      4509.8626      22.556         39.0682        48.217119      1.0724674    
    188000   188000         305.25856      8052.1535      440.60384      22.556         39.0682        48.178803      1.0733203    
    189000   189000         303.63068      5687.5945     -2264.564       22.556         39.0682        48.133613      1.074328     
    190000   190000         298.3571       8164.4566      1008.2951      22.556         39.0682        48.095812      1.0751723    
    191000   191000         303.455        9156.9998      2834.0085      22.556         39.0682        48.100749      1.075062     
    192000   192000         296.33694      8905.6734      2453.2763      22.556         39.0682        48.090163      1.0752986    
    193000   193000         297.62411      6580.8478     -1178.4097      22.556         39.0682        48.199472      1.07286      
    194000   194000         302.96023      9171.679       1485.0438      22.556         39.0682        48.041609      1.0763854    
    195000   195000         294.1988       6369.7368     -1096.682       22.556         39.0682        48.187122      1.073135     
    196000   196000         299.46538      7346.8954     -98.097612      22.556         39.0682        48.22428       1.0723081    
    197000   197000         303.34716      8832.4582      1532.4778      22.556         39.0682        48.12792       1.0744551    
    198000   198000         300.32194      6673.8293     -653.28335      22.556         39.0682        48.239498      1.0719698    
    199000   199000         304.74602      6138.6176     -1888.9234      22.556         39.0682        48.171815      1.073476     
    200000   200000         305.65216      8323.8889      1058.7395      22.556         39.0682        48.205243      1.0727316    
    201000   201000         302.57231      8874.1006      158.83329      22.556         39.0682        48.168803      1.0735431    
    202000   202000         304.17001      5933.0182     -1857.0719      22.556         39.0682        48.264148      1.0714224    
    203000   203000         298.91841      7425.096       77.588807      22.556         39.0682        48.175965      1.0733835    
    204000   204000         310.87154      8867.0691      3133.2115      22.556         39.0682        48.0006        1.077305     
    205000   205000         302.02682      8040.0391      1321.7827      22.556         39.0682        48.093874      1.0752157    
    206000   206000         302.21976      5414.1422     -1993.9753      22.556         39.0682        48.089166      1.0753209    
    207000   207000         296.31717      7877.8274      1559.4886      22.556         39.0682        48.078946      1.0755495    
    208000   208000         294.57261      7352.404       584.867        22.556         39.0682        48.138477      1.0742194    
    209000   209000         298.93711      8067.7548      303.63971      22.556         39.0682        48.061455      1.0759409    
    210000   210000         291.87824      7711.2651      1179.2634      22.556         39.0682        47.982587      1.0777094    
    211000   211000         299.92408      9339.9403      3432.459       22.556         39.0682        47.999908      1.0773205    
    212000   212000         296.21727      5367.8031     -492.2584       22.556         39.0682        48.009344      1.0771088    
    213000   213000         300.81422      8750.15        1081.1603      22.556         39.0682        48.128         1.0744533    
    214000   214000         300.82659      7819.2613      848.43634      22.556         39.0682        48.01796       1.0769155    
    215000   215000         295.69364      8028.8554      882.93504      22.556         39.0682        47.96135       1.0781866    
    216000   216000         300.7548       6537.2706      956.24247      22.556         39.0682        48.044558      1.0763193    
    217000   217000         301.84721      5906.7909     -1133.0207      22.556         39.0682        48.007275      1.0771552    
    218000   218000         303.79527      6591.5597      394.07175      22.556         39.0682        47.963196      1.0781451    
    219000   219000         305.87109      9583.7704      2533.9542      22.556         39.0682        47.908144      1.079384     
    220000   220000         299.96768      6993.6853      389.61771      22.556         39.0682        47.883434      1.0799411    
    221000   221000         298.97364      6017.8876     -1010.6219      22.556         39.0682        47.953701      1.0783586    
    222000   222000         295.95797      7281.257       1017.5364      22.556         39.0682        47.879994      1.0800187    
    223000   223000         299.41829      4650.8445     -3184.0264      22.556         39.0682        48.022486      1.076814     
    224000   224000         297.91164      6755.4101     -2397.4584      22.556         39.0682        47.993775      1.0774582    
    225000   225000         303.92955      6138.7855     -1298.6333      22.556         39.0682        47.914986      1.0792299    
    226000   226000         296.2158       7645.688       1520.2499      22.556         39.0682        47.932454      1.0788366    
    227000   227000         301.52217      6715.4941     -1534.9205      22.556         39.0682        48.086808      1.0753737    
    228000   228000         303.43635      6347.3166     -1013.5839      22.556         39.0682        48.076244      1.07561      
    229000   229000         301.62888      5064.6348     -1293.7545      22.556         39.0682        47.997351      1.0773779    
    230000   230000         304.00857      7825.313       2153.3236      22.556         39.0682        47.976197      1.077853     
    231000   231000         299.12571      6724.072      -396.26037      22.556         39.0682        48.006388      1.0771751    
    232000   232000         299.80015      7309.1102      527.96537      22.556         39.0682        47.985866      1.0776358    
    233000   233000         301.7578       7040.7254     -17.760383      22.556         39.0682        48.026468      1.0767248    
    234000   234000         294.37058      6459.699      -578.13987      22.556         39.0682        48.057089      1.0760387    
    235000   235000         304.32897      5252.5988     -3906.9678      22.556         39.0682        48.043954      1.0763329    
    236000   236000         303.40732      7751.5647     -1186.655       22.556         39.0682        48.029743      1.0766513    
    237000   237000         295.71903      7147.6797     -1640.6663      22.556         39.0682        48.021486      1.0768365    
    238000   238000         306.4719       7163.7553      83.244293      22.556         39.0682        48.002442      1.0772637    
    239000   239000         302.18962      7470.788      -870.18199      22.556         39.0682        48.118089      1.0746746    
    240000   240000         298.20131      7568.1672      1266.8206      22.556         39.0682        47.973173      1.0779209    
    241000   241000         296.94723      7704.835       735.54158      22.556         39.0682        47.984496      1.0776666    
    242000   242000         297.97646      7553.9161     -609.11396      22.556         39.0682        47.998541      1.0773512    
    243000   243000         301.55001      7699.5035     -1387.8714      22.556         39.0682        47.996556      1.0773958    
    244000   244000         296.09383      7326.011       438.75718      22.556         39.0682        48.031507      1.0766118    
    245000   245000         297.98465      5958.4227      1147.7209      22.556         39.0682        47.907405      1.0794007    
    246000   246000         298.7032       8466.8071      757.78535      22.556         39.0682        47.986161      1.0776292    
    247000   247000         293.60289      8497.332       1391.3439      22.556         39.0682        48.056352      1.0760552    
    248000   248000         296.49279      6522.0121     -1128.7491      22.556         39.0682        48.066461      1.0758289    
    249000   249000         304.17692      8086.941       1840.924       22.556         39.0682        47.982783      1.077705     
    250000   250000         299.0032       8354.5693      1768.4664      22.556         39.0682        47.97546       1.0778695    
    251000   251000         308.24984      6477.1966      555.96572      22.556         39.0682        47.939192      1.078685     
    252000   252000         300.88491      6832.3615      268.55557      22.556         39.0682        47.916398      1.0791981    
    253000   253000         303.96634      7619.3517     -19.378858      22.556         39.0682        48.019804      1.0768742    
    254000   254000         304.1728       6983.9117     -126.52148      22.556         39.0682        47.97561       1.0778662    
    255000   255000         293.46853      6557.6162     -2574.8067      22.556         39.0682        48.020849      1.0768507    
    256000   256000         299.36152      6992.2491      518.84481      22.556         39.0682        47.927702      1.0789436    
    257000   257000         295.83696      6376.3552      403.36116      22.556         39.0682        47.977873      1.0778153    
    258000   258000         300.27102      9080.1984      1874.9896      22.556         39.0682        47.999017      1.0773405    
    259000   259000         300.69716      8206.6513      2068.1147      22.556         39.0682        47.936812      1.0787386    
    260000   260000         302.27695      5623.0308     -1594.9741      22.556         39.0682        48.045938      1.0762884    
    261000   261000         294.61074      4702.8825     -4103.0796      22.556         39.0682        48.018385      1.076906     
    262000   262000         299.63458      5631.5498     -2387.3479      22.556         39.0682        48.03754       1.0764766    
    263000   263000         298.08347      7279.0717     -1600.7893      22.556         39.0682        48.031576      1.0766102    
    264000   264000         308.23226      8727.8804      641.4816       22.556         39.0682        47.98551       1.0776438    
    265000   265000         296.2237       6936.4169     -1503.583       22.556         39.0682        48.051692      1.0761595    
    266000   266000         302.54817      6894.4464      719.82087      22.556         39.0682        47.961011      1.0781943    
    267000   267000         306.65014      7863.4907     -1171.4551      22.556         39.0682        48.011993      1.0770494    
    268000   268000         302.56286      6603.2904     -1144.3261      22.556         39.0682        47.915432      1.0792199    
    269000   269000         293.0705       7467.5576     -1705.731       22.556         39.0682        47.937579      1.0787213    
    270000   270000         298.75986      5879.3159     -3516.2157      22.556         39.0682        48.035341      1.0765259    
    271000   271000         300.58242      7179.4262     -2184.2123      22.556         39.0682        47.998032      1.0773627    
    272000   272000         294.754        8434.0698     -19.772755      22.556         39.0682        47.975063      1.0778785    
    273000   273000         295.04117      9815.7249      1883.6714      22.556         39.0682        47.97075       1.0779754    
    274000   274000         299.28336      7812.7503     -1619.1232      22.556         39.0682        48.016764      1.0769424    
    275000   275000         294.90758      9368.7715      3000.6961      22.556         39.0682        47.779711      1.0822855    
    276000   276000         305.644        5685.0494     -497.52837      22.556         39.0682        47.850197      1.0806912    
    277000   277000         294.0839       6587.3221      888.2521       22.556         39.0682        47.937839      1.0787154    
    278000   278000         309.65167      6783.2723      619.50909      22.556         39.0682        47.90413       1.0794745    
    279000   279000         297.51894      7861.1916      520.35758      22.556         39.0682        47.84352       1.080842     
    280000   280000         307.19015      7799.9158      262.47433      22.556         39.0682        47.83083       1.0811288    
    281000   281000         297.98952      9503.7647      2070.9286      22.556         39.0682        47.745801      1.0830541    
    282000   282000         305.75492      7333.7909     -3177.4967      22.556         39.0682        48.008728      1.0771226    
    283000   283000         300.62942      7679.5852      1657.1616      22.556         39.0682        47.970811      1.077974     
    284000   284000         298.00257      6192.4583     -1958.1603      22.556         39.0682        47.957265      1.0782785    
    285000   285000         294.58419      7029.4454     -685.85462      22.556         39.0682        48.015433      1.0769722    
    286000   286000         305.21524      5664.1448     -2395.5188      22.556         39.0682        48.011439      1.0770618    
    287000   287000         297.42927      7699.0269      1655.8422      22.556         39.0682        47.984704      1.0776619    
    288000   288000         297.92473      7861.0394      1294.2761      22.556         39.0682        48.033568      1.0765656    
    289000   289000         293.85376      7376.4316     -1246.4817      22.556         39.0682        47.961559      1.0781819    
    290000   290000         294.94993      6955.5378     -1315.4609      22.556         39.0682        48.026884      1.0767154    
    291000   291000         303.08967      5805.485      -2131.8121      22.556         39.0682        48.005344      1.0771985    
    292000   292000         293.0415       7327.4623      316.11848      22.556         39.0682        47.967679      1.0780444    
    293000   293000         299.38748      6243.567      -2316.184       22.556         39.0682        47.934431      1.0787921    
    294000   294000         304.18269      7802.3938      177.88063      22.556         39.0682        47.887752      1.0798437    
    295000   295000         305.32351      8376.5199      893.76157      22.556         39.0682        47.979756      1.077773     
    296000   296000         290.52716      6030.8159     -311.58845      22.556         39.0682        47.871129      1.0802186    
    297000   297000         304.38272      7536.9541      584.44413      22.556         39.0682        47.876856      1.0800894    
    298000   298000         298.96451      5873.4583     -1481.3168      22.556         39.0682        47.803143      1.081755     
    299000   299000         307.22636      7416.8887     -1913.4099      22.556         39.0682        47.802465      1.0817703    
    300000   300000         301.45976      6670.9326     -2013.4544      22.556         39.0682        47.923043      1.0790485    
    301000   301000         301.2722       8334.3647     -146.03155      22.556         39.0682        47.853529      1.0806159    
    302000   302000         291.95281      8201.7072      1594.5884      22.556         39.0682        47.812788      1.0815367    
    303000   303000         299.03289      8293.6623      748.23497      22.556         39.0682        47.887192      1.0798563    
    304000   304000         304.18449      7705.3559     -1047.4916      22.556         39.0682        47.945262      1.0785484    
    305000   305000         299.76315      9342.3609      687.33975      22.556         39.0682        47.859011      1.0804922    
    306000   306000         298.22925      8052.5747      1932.1996      22.556         39.0682        47.928086      1.078935     
    307000   307000         305.10483      9047.8006      1677.1352      22.556         39.0682        47.830265      1.0811415    
    308000   308000         302.22157      9168.2319      1428.4714      22.556         39.0682        47.845788      1.0807908    
    309000   309000         304.89085      8211.9659      284.62434      22.556         39.0682        47.837565      1.0809766    
    310000   310000         298.68304      9884.8452      2867.9016      22.556         39.0682        47.789263      1.0820691    
    311000   311000         293.84484      7417.749      -452.63725      22.556         39.0682        47.783979      1.0821888    
    312000   312000         299.05563      6039.8442     -2865.9055      22.556         39.0682        47.972923      1.0779265    
    313000   313000         298.94281      8187.6412      1110.7092      22.556         39.0682        47.811652      1.0815624    
    314000   314000         296.92802      8311.7838      309.13547      22.556         39.0682        47.843037      1.0808529    
    315000   315000         301.29439      7166.8568      116.26029      22.556         39.0682        47.901827      1.0795264    
    316000   316000         307.63968      8617.2656      1428.9699      22.556         39.0682        47.867571      1.080299     
    317000   317000         298.80288      8863.3197     -187.78061      22.556         39.0682        47.925366      1.0789962    
    318000   318000         299.62205      8119.1516     -556.50424      22.556         39.0682        47.877725      1.0800698    
    319000   319000         304.56654      6220.3995     -2852.0694      22.556         39.0682        47.928886      1.0789169    
    320000   320000         294.53107      5650.9397      363.91999      22.556         39.0682        48.001771      1.0772787    
    321000   321000         298.41894      7869.2145      255.49584      22.556         39.0682        47.963878      1.0781298    
    322000   322000         298.57413      8293.8302      2014.2057      22.556         39.0682        47.772414      1.0824508    
    323000   323000         301.66646      8888.4575      1915.1712      22.556         39.0682        47.84585       1.0807894    
    324000   324000         297.93596      6084.1369     -381.79205      22.556         39.0682        47.866894      1.0803142    
    325000   325000         295.58294      6149.8641     -4.6073381      22.556         39.0682        47.800649      1.0818114    
    326000   326000         306.74388      8736.6056     -423.15666      22.556         39.0682        47.861268      1.0804412    
    327000   327000         298.40953      7075.2112     -1223.5847      22.556         39.0682        47.955063      1.078328     
    328000   328000         295.95198      6690.6929      530.62573      22.556         39.0682        47.83237       1.081094     
    329000   329000         300.73459      7356.7596     -19.388911      22.556         39.0682        47.822748      1.0813115    
    330000   330000         301.10498      6885.7211     -1175.7594      22.556         39.0682        47.838476      1.080956     
    331000   331000         292.16323      6935.9969     -433.9976       22.556         39.0682        47.837776      1.0809718    
    332000   332000         294.3551       7412.1314     -89.91913       22.556         39.0682        47.861343      1.0804395    
    333000   333000         301.11991      9677.6149      1967.0061      22.556         39.0682        47.779345      1.0822937    
    334000   334000         300.56125      8283.6683      558.42944      22.556         39.0682        47.851881      1.0806532    
    335000   335000         300.63532      6307.4421     -582.40619      22.556         39.0682        47.951906      1.078399     
    336000   336000         299.35197      7969.5503     -173.524        22.556         39.0682        47.920872      1.0790974    
    337000   337000         301.76731      6719.7995      2461.8035      22.556         39.0682        47.865676      1.0803417    
    338000   338000         298.41626      7590.0863     -1413.0876      22.556         39.0682        47.947359      1.0785013    
    339000   339000         303.2012       7531.2537     -313.75981      22.556         39.0682        48.009376      1.0771081    
    340000   340000         299.03507      6511.2975      542.84733      22.556         39.0682        47.974152      1.0778989    
    341000   341000         299.02344      5691.0463     -3341.6144      22.556         39.0682        48.015825      1.0769634    
    342000   342000         302.39765      7663.7085      2373.1242      22.556         39.0682        47.960713      1.078201     
    343000   343000         305.99562      8416.3586      788.90209      22.556         39.0682        47.939124      1.0786865    
    344000   344000         301.4694       5105.4402     -2637.9833      22.556         39.0682        47.983663      1.0776853    
    345000   345000         305.02022      8104.4863     -413.81925      22.556         39.0682        47.905853      1.0794357    
    346000   346000         303.52546      8586.2739      485.96895      22.556         39.0682        47.838982      1.0809445    
    347000   347000         298.71816      8707.5614      1222.0941      22.556         39.0682        47.866909      1.0803139    
    348000   348000         305.88695      9033.3324      1930.9912      22.556         39.0682        47.89892       1.0795919    
    349000   349000         303.93595      8699.321      -291.41947      22.556         39.0682        47.924335      1.0790194    
    350000   350000         304.79704      7572.7982      294.57264      22.556         39.0682        47.956797      1.078289     
    351000   351000         292.82256      7964.8038     -651.28815      22.556         39.0682        48.016487      1.0769486    
    352000   352000         307.28937      8648.0994      1098.5844      22.556         39.0682        47.846761      1.0807688    
    353000   353000         292.76057      7558.6672     -466.08943      22.556         39.0682        47.892078      1.0797461    
    354000   354000         302.2432       7184.9501     -141.37396      22.556         39.0682        47.933519      1.0788127    
    355000   355000         294.36766      7755.2797     -822.99198      22.556         39.0682        47.952019      1.0783964    
    356000   356000         292.12909      8871.6934      2012.0956      22.556         39.0682        47.83926       1.0809383    
    357000   357000         297.35219      7318.7004     -1031.7476      22.556         39.0682        47.961645      1.07818      
    358000   358000         302.82444      6741.6506      1471.6981      22.556         39.0682        47.848185      1.0807366    
    359000   359000         295.65173      9346.2973      1625.5024      22.556         39.0682        47.846517      1.0807743    
    360000   360000         298.432        7633.5409     -1473.5372      22.556         39.0682        47.914786      1.0792344    
    361000   361000         301.47885      8703.2582      36.211933      22.556         39.0682        47.957789      1.0782667    
    362000   362000         298.82002      7631.9404      2132.2234      22.556         39.0682        47.887394      1.0798518    
    363000   363000         302.36815      8866.3251      211.43747      22.556         39.0682        47.879589      1.0800278    
    364000   364000         295.50125      8738.5101      82.932655      22.556         39.0682        47.860693      1.0804542    
    365000   365000         301.64308      8967.5826      747.70539      22.556         39.0682        47.821781      1.0813334    
    366000   366000         305.45804      7808.132       1267.7147      22.556         39.0682        47.831692      1.0811093    
    367000   367000         292.481        8933.5482      2503.1393      22.556         39.0682        47.746058      1.0830483    
    368000   368000         303.21707      8512.9293      1760.3828      22.556         39.0682        47.893859      1.079706     
    369000   369000         304.24874      7421.7819     -1312.9546      22.556         39.0682        47.898848      1.0795935    
    370000   370000         297.47441      8026.5099     -834.28348      22.556         39.0682        47.986795      1.0776149    
    371000   371000         299.91043      6779.4405     -2606.9765      22.556         39.0682        47.940588      1.0786536    
    372000   372000         294.20561      7094.9358      1062.0194      22.556         39.0682        47.878632      1.0800494    
    373000   373000         306.43917      5935.2641     -3160.496       22.556         39.0682        48.049484      1.076209     
    374000   374000         304.45107      7090.9463     -1737.3718      22.556         39.0682        47.95357       1.0783616    
    375000   375000         298.36953      5276.9585     -2816.2696      22.556         39.0682        47.969757      1.0779977    
    376000   376000         296.60734      7111.4069     -654.08816      22.556         39.0682        47.899723      1.0795738    
    377000   377000         308.83237      6332.1671     -1106.9901      22.556         39.0682        47.82815       1.0811893    
    378000   378000         302.88586      8065.9568      1489.3874      22.556         39.0682        47.903075      1.0794983    
    379000   379000         302.32867      7650.1685      851.04317      22.556         39.0682        47.948834      1.0784681    
    380000   380000         294.70646      8075.064      -253.19536      22.556         39.0682        47.873625      1.0801623    
    381000   381000         299.83799      7620.7618      2603.1375      22.556         39.0682        47.864854      1.0803603    
    382000   382000         312.68737      7828.1912      1237.4093      22.556         39.0682        47.801813      1.081785     
    383000   383000         300.02446      6136.6878     -723.09693      22.556         39.0682        47.877821      1.0800677    
    384000   384000         293.18445      7722.0402     -635.87986      22.556         39.0682        47.795073      1.0819376    
    385000   385000         301.16745      8053.8221      2507.7606      22.556         39.0682        47.982288      1.0777161    
    386000   386000         304.19684      5122.6211     -3110.1778      22.556         39.0682        47.901854      1.0795258    
    387000   387000         300.54539      8322.5139      220.84994      22.556         39.0682        47.918737      1.0791454    
    388000   388000         293.95793      9279.3921      738.54546      22.556         39.0682        47.880262      1.0800126    
    389000   389000         296.42085      7306.6401      1371.5852      22.556         39.0682        47.874099      1.0801516    
    390000   390000         308.77055      8138.3706      755.28668      22.556         39.0682        47.839031      1.0809434    
    391000   391000         306.31011      8294.5867      315.50553      22.556         39.0682        47.936897      1.0787366    
    392000   392000         300.64518      9423.949       1871.582       22.556         39.0682        47.915361      1.0792215    
    393000   393000         303.12009      9594.3879      1710.7282      22.556         39.0682        47.879941      1.0800198    
    394000   394000         307.54316      7689.6442     -240.9874       22.556         39.0682        47.959578      1.0782265    
    395000   395000         303.84452      8571.6617      633.00209      22.556         39.0682        47.806117      1.0816876    
    396000   396000         304.24051      8494.6236     -695.96008      22.556         39.0682        47.949758      1.0784473    
    397000   397000         303.17284      10539.481      720.00573      22.556         39.0682        47.772834      1.0824413    
    398000   398000         295.40849      6736.4008     -1076.0989      22.556         39.0682        47.968914      1.0780166    
    399000   399000         296.20252      8539.9915      28.736292      22.556         39.0682        47.943162      1.0785957    
    400000   400000         296.86177      8442.6023     -955.63334      22.556         39.0682        48.020182      1.0768657    
Loop time of 1522.44 on 4 procs for 400000 steps with 3840 atoms

Performance: 22.700 ns/day, 1.057 hours/ns, 262.735 timesteps/s, 1.009 Matom-step/s
98.1% CPU use with 4 MPI tasks x no OpenMP threads

MPI task timing breakdown:
Section |  min time  |  avg time  |  max time  |%varavg| %total
---------------------------------------------------------------
Pair    | 986.88     | 1145.4     | 1245.3     | 292.3 | 75.23
Bond    | 9.5689     | 9.7698     | 10.183     |   8.0 |  0.64
Neigh   | 159.89     | 159.91     | 159.93     |   0.1 | 10.50
Comm    | 71.598     | 171.33     | 329.85     | 755.9 | 11.25
Output  | 0.098043   | 0.11022    | 0.14188    |   5.5 |  0.01
Modify  | 33.405     | 33.666     | 33.785     |   2.6 |  2.21
Other   |            | 2.248      |            |       |  0.15

Nlocal:            960 ave         985 max         899 min
Histogram: 1 0 0 0 0 0 0 0 1 2
Nghost:          10460 ave       10521 max       10382 min
Histogram: 1 0 0 1 0 0 0 0 0 2
Neighs:         502577 ave      540051 max      434126 min
Histogram: 1 0 0 0 0 0 1 0 0 2

Total # of neighbors = 2010307
Ave neighs/atom = 523.51745
Ave special neighs/atom = 3.78125
Neighbor list builds = 18699
Dangerous builds = 0

print           """
Finished C06 short equilibration.
  NVT pre: ${nvt_pre_steps} steps @ 0.2 fs (~1 ps), then timestep → 1 fs
  NVT:     ${nvt_steps} steps (100 ps), fixed box, thermostat on all
  NPT(z):  ${npt_steps} steps (400 ps) @ Pz=${mypress} atm, T=${mytemp} K, all
  Spring:  backbone type 2 3 4 5, K=${Kspring} (atoms still mobile)
  Thermo:  log.lammps (temp, press, pzz, lz, ...)
  Traj:    result_atoms.lammpstrj (NPT segment, every ${dump_every} steps)
"""
WARNING: Detected non-ASCII characters in input. Will try to continue by replacing with ASCII equivalents where known. (src/input.cpp:482)

Finished C06 short equilibration.
  NVT pre: 5000 steps @ 0.2 fs (~1 ps), then timestep �� 1 fs
  NVT:     100000 steps (100 ps), fixed box, thermostat on all
  NPT(z):  400000 steps (400 ps) @ Pz=1 atm, T=300 K, all
  Spring:  backbone type 2 3 4 5, K=100 (atoms still mobile)
  Thermo:  log.lammps (temp, press, pzz, lz, ...)
  Traj:    result_atoms.lammpstrj (NPT segment, every 5000 steps)


undump          mydump
unfix           mynpt
unfix           pinbb
unfix           myshake

write_data      result_atoms.final.data  nofix
System init for write_data ...
Generated 66 of 66 mixed pair_coeff terms from arithmetic mixing rule
Total wall time: 0:31:11
