created by msxbox

2406 atoms
1600 bonds
800 angles

4 atom types
1 bond types
1 angle types
-20.0000 20.0000 xlo xhi
-20.0000 20.0000 ylo yhi
-20.0000 20.0000 zlo zhi

Masses

   1   24.305  # Mg
   2   35.453  # Cl
   3    1.008  # H
   4   15.999  # O

Bond Coeffs

   1   517.630258     1.000000  # Ow-Hw

Angle Coeffs

   1    37.950526   109.470000  # Hw-Ow-Hw

Atoms

      1       1    1   2.000000000000     7.163214   -18.750000    -0.380049  # Mg Mg
      2       2    1   2.000000000000    16.300679   -18.750000     6.161812  # Mg Mg
      3       3    2  -1.000000000000     3.583713     6.895616     4.685852  # Cl Cl
      4       4    2  -1.000000000000   -16.756042     3.004497    12.551261  # Cl Cl
      5       5    2  -1.000000000000    17.585035    -8.941581    -4.650735  # Cl Cl
      6       6    2  -1.000000000000    -4.291225   -13.966433     0.659441  # Cl Cl
      7       7    3   0.423800000000   -18.637893   -13.975718    -3.613304  # Hw spce
      8       7    4  -0.847600000000   -17.753144   -13.620886    -3.915485  # Ow spce
      9       7    3   0.423800000000   -17.868752   -12.691266    -4.265399  # Hw spce
     10       8    3   0.423800000000    -5.897981    16.366819   -16.447438  # Hw spce
     11       8    4  -0.847600000000    -5.811300    15.613484   -17.099337  # Ow spce
     12       8    3   0.423800000000    -6.712695    15.216073   -17.271240  # Hw spce
     13       9    3   0.423800000000    -9.133733    -4.314995    -3.917085  # Hw spce
     14       9    4  -0.847600000000    -8.380154    -4.967888    -3.993567  # Ow spce
     15       9    3   0.423800000000    -8.745237    -5.875521    -4.200729  # Hw spce
     16      10    3   0.423800000000    -1.445740    -2.862309    14.379884  # Hw spce
     17      10    4  -0.847600000000    -2.262494    -3.112110    13.859775  # Ow spce
     18      10    3   0.423800000000    -2.421448    -2.433552    13.142634  # Hw spce
     19      11    3   0.423800000000   -10.843417    -6.147992    18.100294  # Hw spce
     20      11    4  -0.847600000000   -10.132288    -6.751777    17.740100  # Ow spce
     21      11    3   0.423800000000    -9.336777    -6.207727    17.473321  # Hw spce
     22      12    3   0.423800000000   -11.581115    16.005565   -10.987639  # Hw spce
     23      12    4  -0.847600000000   -10.698640    16.279066   -11.370308  # Ow spce
     24      12    3   0.423800000000   -10.828302    17.058426   -11.983321  # Hw spce
     25      13    3   0.423800000000    -5.563844    -8.775154     3.800918  # Hw spce
     26      13    4  -0.847600000000    -4.798554    -9.142402     3.272278  # Ow spce
     27      13    3   0.423800000000    -4.398046    -8.414418     2.715833  # Hw spce
     28      14    3   0.423800000000    14.942834   -16.165578    -7.959528  # Hw spce
     29      14    4  -0.847600000000    15.535903   -15.891866    -8.716726  # Ow spce
     30      14    3   0.423800000000    16.385918   -16.417419    -8.681129  # Hw spce
     31      15    3   0.423800000000    11.170351    16.745358    10.250171  # Hw spce
     32      15    4  -0.847600000000    10.408300    17.231598    10.677780  # Ow spce
     33      15    3   0.423800000000    10.760882    18.000062    11.211774  # Hw spce
     34      16    3   0.423800000000     1.465868     7.019848    -5.412763  # Hw spce
     35      16    4  -0.847600000000     0.502041     6.765805    -5.332141  # Ow spce
     36      16    3   0.423800000000    -0.048524     7.588157    -5.188561  # Hw spce
     37      17    3   0.423800000000    18.061596    -4.994635     9.835305  # Hw spce
     38      17    4  -0.847600000000    18.466590    -5.846898    10.166406  # Ow spce
     39      17    3   0.423800000000    18.404425    -6.544740     9.452858  # Hw spce
     40      18    3   0.423800000000     6.268746   -14.413183    -2.534094  # Hw spce
     41      18    4  -0.847600000000     6.021228   -13.503756    -2.199912  # Ow spce
     42      18    3   0.423800000000     6.825271   -13.066435    -1.797089  # Hw spce
     43      19    3   0.423800000000   -15.797399     8.673129    10.569732  # Hw spce
     44      19    4  -0.847600000000   -15.598771     7.883542     9.989129  # Ow spce
     45      19    3   0.423800000000   -15.422406     8.192896     9.054680  # Hw spce
     46      20    3   0.423800000000    -4.475790   -15.272780    11.860301  # Hw spce
     47      20    4  -0.847600000000    -4.873847   -14.470494    12.305145  # Ow spce
     48      20    3   0.423800000000    -5.422933   -13.960388    11.643105  # Hw spce
     49      21    3   0.423800000000    14.925624    -3.630977     4.075989  # Hw spce
     50      21    4  -0.847600000000    15.737235    -4.209484     3.994645  # Ow spce
     51      21    3   0.423800000000    16.441194    -3.725006     3.475296  # Hw spce
     52      22    3   0.423800000000   -13.009778    11.122389   -10.287468  # Hw spce
     53      22    4  -0.847600000000   -12.033502    10.932359   -10.183665  # Ow spce
     54      22    3   0.423800000000   -11.516918    11.784022   -10.272039  # Hw spce
     55      23    3   0.423800000000    15.957362    17.086175   -16.029206  # Hw spce
     56      23    4  -0.847600000000    15.610087    16.327570   -16.580494  # Ow spce
     57      23    3   0.423800000000    15.130709    15.678438   -15.989881  # Hw spce
     58      24    3   0.423800000000    17.320323    10.120456    -9.905450  # Hw spce
     59      24    4  -0.847600000000    16.810205     9.261594    -9.951657  # Ow spce
     60      24    3   0.423800000000    15.844864     9.456223   -10.125540  # Hw spce
     61      25    3   0.423800000000   -13.228311   -17.480701     4.202815  # Hw spce
     62      25    4  -0.847600000000   -12.403515   -17.995565     4.436539  # Ow spce
     63      25    3   0.423800000000   -11.783023   -17.411419     4.959763  # Hw spce
     64      26    3   0.423800000000     9.879634    16.157659    -1.710377  # Hw spce
     65      26    4  -0.847600000000     9.981227    15.482671    -0.979576  # Ow spce
     66      26    3   0.423800000000    10.618728    15.829611    -0.291662  # Hw spce
     67      27    3   0.423800000000   -10.836921     5.851562     8.971228  # Hw spce
     68      27    4  -0.847600000000    -9.970918     6.029236     8.503818  # Ow spce
     69      27    3   0.423800000000    -9.563905     6.868685     8.863910  # Hw spce
     70      28    3   0.423800000000    18.750009     2.636703   -13.513904  # Hw spce
     71      28    4  -0.847600000000    18.171964     3.426228   -13.307714  # Ow spce
     72      28    3   0.423800000000    18.105490     4.010887   -14.116265  # Hw spce
     73      29    3   0.423800000000    15.352652    -7.753780     2.885852  # Hw spce
     74      29    4  -0.847600000000    15.665385    -7.089755     3.565020  # Ow spce
     75      29    3   0.423800000000    14.946079    -6.943677     4.244180  # Hw spce
     76      30    3   0.423800000000    14.856796    15.910999    15.803303  # Hw spce
     77      30    4  -0.847600000000    14.385428    16.673376    15.359914  # Ow spce
     78      30    3   0.423800000000    15.031361    17.421451    15.207747  # Hw spce
     79      31    3   0.423800000000     1.784590    15.694942    -6.254283  # Hw spce
     80      31    4  -0.847600000000     2.467108    15.014847    -5.986624  # Ow spce
     81      31    3   0.423800000000     2.187640    14.581486    -5.129831  # Hw spce
     82      32    3   0.423800000000    -7.401748    -3.330653    15.597020  # Hw spce
     83      32    4  -0.847600000000    -7.886729    -3.742141    16.368688  # Ow spce
     84      32    3   0.423800000000    -7.241373    -4.260410    16.929858  # Hw spce
     85      33    3   0.423800000000     0.061211    10.501687     1.912516  # Hw spce
     86      33    4  -0.847600000000     0.751852     9.782049     1.840850  # Ow spce
     87      33    3   0.423800000000     0.567355     9.222269     1.033009  # Hw spce
     88      34    3   0.423800000000     1.202921    -8.712300   -16.230517  # Hw spce
     89      34    4  -0.847600000000     1.643444    -8.249021   -15.461549  # Ow spce
     90      34    3   0.423800000000     0.964597    -8.063135   -14.751189  # Hw spce
     91      35    3   0.423800000000    -2.701027   -14.952062    -4.321103  # Hw spce
     92      35    4  -0.847600000000    -1.971384   -15.516165    -3.934568  # Ow spce
     93      35    3   0.423800000000    -1.901368   -15.343279    -2.952118  # Hw spce
     94      36    3   0.423800000000     3.449626    13.740665   -14.316089  # Hw spce
     95      36    4  -0.847600000000     2.599701    13.233085   -14.174702  # Ow spce
     96      36    3   0.423800000000     1.822398    13.858182   -14.245776  # Hw spce
     97      37    3   0.423800000000    -0.608733    13.044183    10.870540  # Hw spce
     98      37    4  -0.847600000000    -0.731549    12.051854    10.856393  # Ow spce
     99      37    3   0.423800000000    -1.707802    11.837208    10.827115  # Hw spce
    100      38    3   0.423800000000     2.760972    -8.718884    -9.387259  # Hw spce
    101      38    4  -0.847600000000     2.538975    -7.787331    -9.675226  # Ow spce
    102      38    3   0.423800000000     1.545992    -7.669608    -9.686367  # Hw spce
    103      39    3   0.423800000000   -14.219295   -13.762295   -10.103913  # Hw spce
    104      39    4  -0.847600000000   -14.332063   -12.770121   -10.050290  # Ow spce
    105      39    3   0.423800000000   -13.512891   -12.321744   -10.407942  # Hw spce
    106      40    3   0.423800000000     1.182119     2.270848   -14.225831  # Hw spce
    107      40    4  -0.847600000000     0.521118     1.520583   -14.212429  # Ow spce
    108      40    3   0.423800000000     1.008099     0.647186   -14.217751  # Hw spce
    109      41    3   0.423800000000    -7.287422   -16.994686    -4.298857  # Hw spce
    110      41    4  -0.847600000000    -6.990985   -17.394003    -3.431291  # Ow spce
    111      41    3   0.423800000000    -5.993410   -17.462602    -3.419531  # Hw spce
    112      42    3   0.423800000000     0.419956    -4.223587     7.146547  # Hw spce
    113      42    4  -0.847600000000     0.342397    -5.198444     7.355446  # Ow spce
    114      42    3   0.423800000000    -0.608760    -5.418225     7.572233  # Hw spce
    115      43    3   0.423800000000    14.475997     8.886371     8.027565  # Hw spce
    116      43    4  -0.847600000000    14.190200     7.994938     7.675900  # Ow spce
    117      43    3   0.423800000000    13.364566     8.104103     7.122356  # Hw spce
    118      44    3   0.423800000000    18.750058    12.808922   -14.357889  # Hw spce
    119      44    4  -0.847600000000    17.930231    13.379636   -14.404458  # Ow spce
    120      44    3   0.423800000000    18.174178    14.329894   -14.210809  # Hw spce
    121      45    3   0.423800000000     9.366836     6.832704   -13.107019  # Hw spce
    122      45    4  -0.847600000000     9.222094     7.822151   -13.100411  # Ow spce
    123      45    3   0.423800000000     8.241626     8.015344   -13.063552  # Hw spce
    124      46    3   0.423800000000     5.071043    11.097550   -11.231879  # Hw spce
    125      46    4  -0.847600000000     5.451903    11.397023   -12.106672  # Ow spce
    126      46    3   0.423800000000     4.707317    11.592739   -12.744862  # Hw spce
    127      47    3   0.423800000000    16.142745     3.172844    -3.530584  # Hw spce
    128      47    4  -0.847600000000    15.231556     3.541326    -3.346314  # Ow spce
    129      47    3   0.423800000000    15.310089     4.495232    -3.056664  # Hw spce
    130      48    3   0.423800000000   -15.759471    13.083716    15.051318  # Hw spce
    131      48    4  -0.847600000000   -15.783885    12.405099    14.317232  # Ow spce
    132      48    3   0.423800000000   -16.613300    12.532214    13.773255  # Hw spce
    133      49    3   0.423800000000    -7.288133   -16.012208     8.175347  # Hw spce
    134      49    4  -0.847600000000    -6.936642   -15.194913     7.718748  # Ow spce
    135      49    3   0.423800000000    -5.964401   -15.316798     7.519021  # Hw spce
    136      50    3   0.423800000000    -4.794972   -17.562105    -7.019453  # Hw spce
    137      50    4  -0.847600000000    -5.374267   -18.173005    -6.479806  # Ow spce
    138      50    3   0.423800000000    -4.800369   -18.745872    -5.894600  # Hw spce
    139      51    3   0.423800000000   -16.742201    -6.947356   -12.749604  # Hw spce
    140      51    4  -0.847600000000   -16.927222    -6.016583   -12.434281  # Ow spce
    141      51    3   0.423800000000   -16.086141    -5.477260   -12.475689  # Hw spce
    142      52    3   0.423800000000     7.163128    -0.296960   -16.418592  # Hw spce
    143      52    4  -0.847600000000     7.873587     0.125554   -16.981380  # Ow spce
    144      52    3   0.423800000000     7.496174     0.353527   -17.878925  # Hw spce
    145      53    3   0.423800000000    -0.607566    12.636446    -9.933410  # Hw spce
    146      53    4  -0.847600000000    -0.248515    12.276868   -10.794680  # Ow spce
    147      53    3   0.423800000000    -0.897979    12.465673   -11.531259  # Hw spce
    148      54    3   0.423800000000     8.181244     7.287557     0.299271  # Hw spce
    149      54    4  -0.847600000000     7.370728     7.838636     0.100838  # Ow spce
    150      54    3   0.423800000000     6.940095     8.119011     0.958710  # Hw spce
    151      55    3   0.423800000000   -11.388432     9.833373   -16.488667  # Hw spce
    152      55    4  -0.847600000000   -11.673624    10.749312   -16.206319  # Ow spce
    153      55    3   0.423800000000   -11.277625    10.961085   -15.312822  # Hw spce
    154      56    3   0.423800000000     9.378813     1.038780    16.249392  # Hw spce
    155      56    4  -0.847600000000    10.232281     1.421836    15.896036  # Ow spce
    156      56    3   0.423800000000    10.397289     2.313399    16.317804  # Hw spce
    157      57    3   0.423800000000   -13.718011    -8.693475   -11.745724  # Hw spce
    158      57    4  -0.847600000000   -14.465525    -8.043792   -11.607395  # Ow spce
    159      57    3   0.423800000000   -14.090923    -7.123145   -11.497473  # Hw spce
    160      58    3   0.423800000000    12.944435   -13.544031   -10.376904  # Hw spce
    161      58    4  -0.847600000000    12.731562   -13.406690    -9.409524  # Ow spce
    162      58    3   0.423800000000    11.802470   -13.726638    -9.223996  # Hw spce
    163      59    3   0.423800000000    17.586192    11.442367     2.820657  # Hw spce
    164      59    4  -0.847600000000    16.856362    10.904149     2.399150  # Ow spce
    165      59    3   0.423800000000    16.395502    10.360460     3.100584  # Hw spce
    166      60    3   0.423800000000    10.108456    14.542132    -6.213629  # Hw spce
    167      60    4  -0.847600000000    10.576146    13.714421    -6.523728  # Ow spce
    168      60    3   0.423800000000    11.512313    13.709007    -6.172214  # Hw spce
    169      61    3   0.423800000000    -2.663453   -14.673859    18.687624  # Hw spce
    170      61    4  -0.847600000000    -2.739553   -15.580078    18.271718  # Ow spce
    171      61    3   0.423800000000    -1.857050   -16.047173    18.326585  # Hw spce
    172      62    3   0.423800000000   -12.611032     0.066743   -12.331837  # Hw spce
    173      62    4  -0.847600000000   -12.772888    -0.657934   -13.001648  # Ow spce
    174      62    3   0.423800000000   -11.928643    -0.840786   -13.505448  # Hw spce
    175      63    3   0.423800000000   -15.664276    16.987515    -0.849406  # Hw spce
    176      63    4  -0.847600000000   -14.884260    17.524402    -0.527962  # Ow spce
    177      63    3   0.423800000000   -14.057483    17.231632    -1.008301  # Hw spce
    178      64    3   0.423800000000     0.761423    13.693584     7.183092  # Hw spce
    179      64    4  -0.847600000000     1.011127    12.725310     7.192770  # Ow spce
    180      64    3   0.423800000000     1.032914    12.377327     6.255523  # Hw spce
    181      65    3   0.423800000000    15.350887   -15.100425    12.349309  # Hw spce
    182      65    4  -0.847600000000    15.617662   -14.138169    12.403115  # Ow spce
    183      65    3   0.423800000000    16.599714   -14.073961    12.580455  # Hw spce
    184      66    3   0.423800000000   -14.235028   -11.638250     8.099703  # Hw spce
    185      66    4  -0.847600000000   -13.681417   -11.418542     7.296433  # Ow spce
    186      66    3   0.423800000000   -12.714508   -11.406199     7.551254  # Hw spce
    187      67    3   0.423800000000     3.383851    -5.733094     3.510114  # Hw spce
    188      67    4  -0.847600000000     3.435498    -5.083884     2.751261  # Ow spce
    189      67    3   0.423800000000     4.321948    -4.621364     2.768052  # Hw spce
    190      68    3   0.423800000000   -10.017604    -2.184972     4.995259  # Hw spce
    191      68    4  -0.847600000000    -9.063322    -2.483865     4.998147  # Ow spce
    192      68    3   0.423800000000    -9.027054    -3.483202     5.001045  # Hw spce
    193      69    3   0.423800000000    -4.202326   -17.027855   -13.645257  # Hw spce
    194      69    4  -0.847600000000    -4.601635   -16.746812   -14.517935  # Ow spce
    195      69    3   0.423800000000    -4.087385   -17.161412   -15.268703  # Hw spce
    196      70    3   0.423800000000    17.310857    15.615418    -0.078111  # Hw spce
    197      70    4  -0.847600000000    16.490644    15.521077     0.486114  # Ow spce
    198      70    3   0.423800000000    16.233251    16.415347     0.852213  # Hw spce
    199      71    3   0.423800000000    14.560634    -2.700047     6.708092  # Hw spce
    200      71    4  -0.847600000000    14.292499    -2.298055     7.583595  # Ow spce
    201      71    3   0.423800000000    13.476660    -2.762735     7.927804  # Hw spce
    202      72    3   0.423800000000    17.082554    -1.482395     5.651103  # Hw spce
    203      72    4  -0.847600000000    17.991676    -1.189828     5.354621  # Ow spce
    204      72    3   0.423800000000    18.327370    -0.473638     5.966488  # Hw spce
    205      73    3   0.423800000000    -6.522183    12.790227    17.316063  # Hw spce
    206      73    4  -0.847600000000    -5.891640    13.540797    17.513699  # Ow spce
    207      73    3   0.423800000000    -6.411886    14.350192    17.786137  # Hw spce
    208      74    3   0.423800000000     9.681673     7.366261    -5.357476  # Hw spce
    209      74    4  -0.847600000000     9.122365     7.140439    -4.559867  # Ow spce
    210      74    3   0.423800000000     8.979681     7.962867    -4.009183  # Hw spce
    211      75    3   0.423800000000    14.618175   -14.357729    14.999894  # Hw spce
    212      75    4  -0.847600000000    13.679494   -14.023127    14.916712  # Ow spce
    213      75    3   0.423800000000    13.150976   -14.651552    14.345966  # Hw spce
    214      76    3   0.423800000000    -8.505470    10.290856    17.313866  # Hw spce
    215      76    4  -0.847600000000    -8.682300    10.431507    16.339726  # Ow spce
    216      76    3   0.423800000000    -9.318451    11.194216    16.223165  # Hw spce
    217      77    3   0.423800000000   -13.978249     3.534254    11.987123  # Hw spce
    218      77    4  -0.847600000000   -13.110736     3.102982    11.739278  # Ow spce
    219      77    3   0.423800000000   -12.472845     3.800658    11.413177  # Hw spce
    220      78    3   0.423800000000    -9.384835    -0.151124     7.069545  # Hw spce
    221      78    4  -0.847600000000   -10.127437     0.486182     7.275420  # Ow spce
    222      78    3   0.423800000000   -10.740175     0.549677     6.487689  # Hw spce
    223      79    3   0.423800000000   -12.330378   -11.044220    -4.886897  # Hw spce
    224      79    4  -0.847600000000   -12.725106   -10.908544    -3.978171  # Ow spce
    225      79    3   0.423800000000   -13.666055   -10.582354    -4.068807  # Hw spce
    226      80    3   0.423800000000    -8.263499    11.938064   -15.134388  # Hw spce
    227      80    4  -0.847600000000    -7.743773    11.091067   -15.022671  # Ow spce
    228      80    3   0.423800000000    -8.350385    10.369271   -14.689455  # Hw spce
    229      81    3   0.423800000000    10.977685    10.513830    -0.539889  # Hw spce
    230      81    4  -0.847600000000    11.836881    10.967475    -0.303269  # Ow spce
    231      81    3   0.423800000000    12.488552    10.290021     0.037880  # Hw spce
    232      82    3   0.423800000000   -16.028661    10.130658   -18.686149  # Hw spce
    233      82    4  -0.847600000000   -15.367530     9.384227   -18.761967  # Ow spce
    234      82    3   0.423800000000   -14.565135     9.591540   -18.202339  # Hw spce
    235      83    3   0.423800000000   -15.754595    15.527423   -13.371730  # Hw spce
    236      83    4  -0.847600000000   -15.130502    16.290305   -13.202852  # Ow spce
    237      83    3   0.423800000000   -14.186404    15.962395   -13.236812  # Hw spce
    238      84    3   0.423800000000   -17.960590    12.551354     3.543601  # Hw spce
    239      84    4  -0.847600000000   -18.750273    12.013918     3.839514  # Ow spce
    240      84    3   0.423800000000   -18.448236    11.100912     4.113728  # Hw spce
    241      85    3   0.423800000000    14.637958    -6.356830   -16.249537  # Hw spce
    242      85    4  -0.847600000000    15.459821    -5.788377   -16.212086  # Ow spce
    243      85    3   0.423800000000    15.198441    -4.823236   -16.225582  # Hw spce
    244      86    3   0.423800000000     2.957907    13.416417    11.438899  # Hw spce
    245      86    4  -0.847600000000     3.337087    13.621130    12.341293  # Ow spce
    246      86    3   0.423800000000     4.086338    14.276685    12.247113  # Hw spce
    247      87    3   0.423800000000    11.646917     2.821407    13.719921  # Hw spce
    248      87    4  -0.847600000000    11.446999     3.800706    13.751643  # Ow spce
    249      87    3   0.423800000000    12.288949     4.306892    13.938447  # Hw spce
    250      88    3   0.423800000000     2.676832    -7.683451    18.753875  # Hw spce
    251      88    4  -0.847600000000     3.654323    -7.472490    18.751214  # Ow spce
    252      88    3   0.423800000000     4.179031    -8.323772    18.750200  # Hw spce
    253      89    3   0.423800000000   -18.750122    14.396904    -4.724811  # Hw spce
    254      89    4  -0.847600000000   -18.172928    15.210253    -4.651929  # Ow spce
    255      89    3   0.423800000000   -18.750112    16.025630    -4.607015  # Hw spce
    256      90    3   0.423800000000    -9.320762    -3.785834    -7.075294  # Hw spce
    257      90    4  -0.847600000000   -10.206787    -3.324997    -7.024408  # Ow spce
    258      90    3   0.423800000000   -10.074283    -2.337514    -7.109971  # Hw spce
    259      91    3   0.423800000000    -0.702415     7.195310    -9.163545  # Hw spce
    260      91    4  -0.847600000000     0.254382     7.460912    -9.045244  # Ow spce
    261      91    3   0.423800000000     0.630262     7.002964    -8.239640  # Hw spce
    262      92    3   0.423800000000    14.576885   -18.170093    -1.597746  # Hw spce
    263      92    4  -0.847600000000    15.489270   -17.802910    -1.778662  # Ow spce
    264      92    3   0.423800000000    15.989913   -18.432100    -2.373201  # Hw spce
    265      93    3   0.423800000000    -1.721703    -7.185846    12.028680  # Hw spce
    266      93    4  -0.847600000000    -2.715563    -7.192617    11.918240  # Ow spce
    267      93    3   0.423800000000    -3.086167    -6.301672    12.180671  # Hw spce
    268      94    3   0.423800000000     5.522663   -14.533493   -15.457117  # Hw spce
    269      94    4  -0.847600000000     5.013113   -13.929159   -16.069604  # Ow spce
    270      94    3   0.423800000000     5.615210   -13.613016   -16.802770  # Hw spce
    271      95    3   0.423800000000    10.466020   -15.770709    -3.726892  # Hw spce
    272      95    4  -0.847600000000     9.849337   -15.650304    -4.504841  # Ow spce
    273      95    3   0.423800000000     9.510378   -16.542704    -4.802716  # Hw spce
    274      96    3   0.423800000000    -6.734062   -16.390198   -17.964545  # Hw spce
    275      96    4  -0.847600000000    -7.182558   -15.505035   -18.088388  # Ow spce
    276      96    3   0.423800000000    -8.172432   -15.637255   -18.140025  # Hw spce
    277      97    3   0.423800000000    -6.772051    -0.455305     8.112760  # Hw spce
    278      97    4  -0.847600000000    -6.726377    -1.452250     8.049385  # Ow spce
    279      97    3   0.423800000000    -6.037070    -1.712013     7.373088  # Hw spce
    280      98    3   0.423800000000    -3.901219    10.534363     6.061221  # Hw spce
    281      98    4  -0.847600000000    -3.301038    10.703577     5.279460  # Ow spce
    282      98    3   0.423800000000    -3.701904    10.298616     4.457686  # Hw spce
    283      99    3   0.423800000000   -15.341146    12.695912     9.654752  # Hw spce
    284      99    4  -0.847600000000   -15.281571    12.415371     8.696760  # Ow spce
    285      99    3   0.423800000000   -14.562516    11.727929     8.594861  # Hw spce
    286     100    3   0.423800000000   -11.144496   -17.875110    -9.763323  # Hw spce
    287     100    4  -0.847600000000   -12.054713   -17.475548    -9.872200  # Ow spce
    288     100    3   0.423800000000   -12.731955   -18.206652    -9.954837  # Hw spce
    289     101    3   0.423800000000   -12.705516     6.833406    17.991075  # Hw spce
    290     101    4  -0.847600000000   -13.619373     7.238106    18.023978  # Ow spce
    291     101    3   0.423800000000   -14.304923     6.510884    18.058163  # Hw spce
    292     102    3   0.423800000000     5.850917    -4.503533    10.833675  # Hw spce
    293     102    4  -0.847600000000     6.679690    -3.953203    10.732325  # Ow spce
    294     102    3   0.423800000000     6.428882    -2.994393    10.598985  # Hw spce
    295     103    3   0.423800000000    14.020790    -2.356860    -1.843169  # Hw spce
    296     103    4  -0.847600000000    14.468112    -3.237637    -1.687816  # Ow spce
    297     103    3   0.423800000000    15.315236    -3.095523    -1.175777  # Hw spce
    298     104    3   0.423800000000     7.140578    -9.470644    -9.939000  # Hw spce
    299     104    4  -0.847600000000     7.753143   -10.215145    -9.673517  # Ow spce
    300     104    3   0.423800000000     8.677687    -9.856355    -9.545111  # Hw spce
    301     105    3   0.423800000000    18.033750    -9.369529   -15.574581  # Hw spce
    302     105    4  -0.847600000000    17.079982    -9.669376   -15.595029  # Ow spce
    303     105    3   0.423800000000    16.483888    -8.900724   -15.362984  # Hw spce
    304     106    3   0.423800000000   -18.464212    10.087867    13.763933  # Hw spce
    305     106    4  -0.847600000000   -18.670156    10.302817    14.718598  # Ow spce
    306     106    3   0.423800000000   -17.821505    10.515413    15.202947  # Hw spce
    307     107    3   0.423800000000   -10.942568    13.671315    -1.755459  # Hw spce
    308     107    4  -0.847600000000   -10.051822    14.022654    -2.043786  # Ow spce
    309     107    3   0.423800000000    -9.437376    14.060273    -1.255725  # Hw spce
    310     108    3   0.423800000000    17.965133     0.743787    -1.409311  # Hw spce
    311     108    4  -0.847600000000    18.013280     0.067120    -2.144025  # Ow spce
    312     108    3   0.423800000000    18.561859     0.430942    -2.896816  # Hw spce
    313     109    3   0.423800000000    14.624736    -2.564400    14.948590  # Hw spce
    314     109    4  -0.847600000000    13.758026    -2.137091    14.691256  # Ow spce
    315     109    3   0.423800000000    13.701387    -1.226026    15.099610  # Hw spce
    316     110    3   0.423800000000   -12.989149    -6.490441    -8.253394  # Hw spce
    317     110    4  -0.847600000000   -13.758212    -6.470383    -7.614536  # Ow spce
    318     110    3   0.423800000000   -13.522637    -6.989468    -6.792919  # Hw spce
    319     111    3   0.423800000000   -12.697001     5.528223    -7.014243  # Hw spce
    320     111    4  -0.847600000000   -13.580670     5.060466    -7.032461  # Ow spce
    321     111    3   0.423800000000   -14.316386     5.735743    -6.980272  # Hw spce
    322     112    3   0.423800000000   -13.344521    13.238269   -12.347144  # Hw spce
    323     112    4  -0.847600000000   -14.184794    13.532010   -11.891450  # Ow spce
    324     112    3   0.423800000000   -14.849884    12.785372   -11.905112  # Hw spce
    325     113    3   0.423800000000     6.465295    -9.123209    13.992455  # Hw spce
    326     113    4  -0.847600000000     6.813504    -9.913120    13.487687  # Ow spce
    327     113    3   0.423800000000     6.261578   -10.053069    12.665622  # Hw spce
    328     114    3   0.423800000000    -8.909915    17.276978    10.399963  # Hw spce
    329     114    4  -0.847600000000    -8.697131    16.387805     9.994877  # Ow spce
    330     114    3   0.423800000000    -9.547428    15.907689     9.779277  # Hw spce
    331     115    3   0.423800000000   -18.174542   -14.629830    -7.287668  # Hw spce
    332     115    4  -0.847600000000   -18.750286   -15.142523    -6.650750  # Ow spce
    333     115    3   0.423800000000   -18.171542   -15.671501    -6.030075  # Hw spce
    334     116    3   0.423800000000    -3.760661    -4.059296    -8.787449  # Hw spce
    335     116    4  -0.847600000000    -4.521314    -3.916561    -9.420723  # Ow spce
    336     116    3   0.423800000000    -4.984439    -4.787118    -9.586993  # Hw spce
    337     117    3   0.423800000000   -10.498246     1.826875   -18.729365  # Hw spce
    338     117    4  -0.847600000000    -9.940258     2.574444   -18.369101  # Ow spce
    339     117    3   0.423800000000    -9.017570     2.515204   -18.750070  # Hw spce
    340     118    3   0.423800000000    -5.699773    17.051640     4.365773  # Hw spce
    341     118    4  -0.847600000000    -5.547029    16.075591     4.520685  # Ow spce
    342     118    3   0.423800000000    -4.564376    15.893236     4.554451  # Hw spce
    343     119    3   0.423800000000    18.552447     2.949879    -5.589834  # Hw spce
    344     119    4  -0.847600000000    18.108264     3.023243    -6.482761  # Ow spce
    345     119    3   0.423800000000    17.174140     2.671813    -6.420240  # Hw spce
    346     120    3   0.423800000000     6.260112    -4.034363   -17.451837  # Hw spce
    347     120    4  -0.847600000000     5.956591    -4.882959   -17.018524  # Ow spce
    348     120    3   0.423800000000     6.450794    -5.013641   -16.159056  # Hw spce
    349     121    3   0.423800000000     1.762280     7.039963    15.510303  # Hw spce
    350     121    4  -0.847600000000     2.368386     6.395436    15.044233  # Ow spce
    351     121    3   0.423800000000     3.173050     6.223950    15.612659  # Hw spce
    352     122    3   0.423800000000     4.281647     4.934607   -14.845912  # Hw spce
    353     122    4  -0.847600000000     3.691326     4.644924   -14.092517  # Ow spce
    354     122    3   0.423800000000     3.642313     3.646327   -14.072470  # Hw spce
    355     123    3   0.423800000000     2.273471     6.183931    11.810663  # Hw spce
    356     123    4  -0.847600000000     1.453759     5.612303    11.774403  # Ow spce
    357     123    3   0.423800000000     1.220966     5.304515    12.696940  # Hw spce
    358     124    3   0.423800000000    -6.904211     6.465811    -1.296966  # Hw spce
    359     124    4  -0.847600000000    -6.452354     7.357542    -1.271663  # Ow spce
    360     124    3   0.423800000000    -7.141879     8.081403    -1.295737  # Hw spce
    361     125    3   0.423800000000   -13.023471    14.734338     3.372736  # Hw spce
    362     125    4  -0.847600000000   -13.700989    14.029011     3.581261  # Ow spce
    363     125    3   0.423800000000   -14.599955    14.452757     3.692169  # Hw spce
    364     126    3   0.423800000000    13.769528     7.346685   -12.801638  # Hw spce
    365     126    4  -0.847600000000    14.267853     8.098253   -12.369413  # Ow spce
    366     126    3   0.423800000000    13.734831     8.453551   -11.601526  # Hw spce
    367     127    3   0.423800000000   -14.668852     2.575701   -15.294195  # Hw spce
    368     127    4  -0.847600000000   -14.356608     2.723047   -14.355690  # Ow spce
    369     127    3   0.423800000000   -14.050703     1.854420   -13.965937  # Hw spce
    370     128    3   0.423800000000    15.700813   -14.947828    -4.737177  # Hw spce
    371     128    4  -0.847600000000    16.548559   -15.476413    -4.781060  # Ow spce
    372     128    3   0.423800000000    17.229424   -15.065339    -4.174891  # Hw spce
    373     129    3   0.423800000000    10.151655    14.959712   -10.934722  # Hw spce
    374     129    4  -0.847600000000     9.807521    15.896225   -11.001928  # Ow spce
    375     129    3   0.423800000000     8.824343    15.877812   -11.183648  # Hw spce
    376     130    3   0.423800000000    -1.765136     2.642870   -12.778007  # Hw spce
    377     130    4  -0.847600000000    -1.443521     3.580247   -12.644257  # Ow spce
    378     130    3   0.423800000000    -0.464790     3.570783   -12.439325  # Hw spce
    379     131    3   0.423800000000   -17.241342    10.851718     1.396996  # Hw spce
    380     131    4  -0.847600000000   -18.154470    10.448197     1.455043  # Ow spce
    381     131    3   0.423800000000   -18.714159    10.779434     0.695418  # Hw spce
    382     132    3   0.423800000000    15.800184    12.738616    14.153416  # Hw spce
    383     132    4  -0.847600000000    15.472073    12.879058    13.219275  # Ow spce
    384     132    3   0.423800000000    15.353539    13.857684    13.051227  # Hw spce
    385     133    3   0.423800000000    -6.482194    -8.499065   -13.701359  # Hw spce
    386     133    4  -0.847600000000    -6.862810    -8.958055   -12.898577  # Ow spce
    387     133    3   0.423800000000    -7.763339    -9.330339   -13.123193  # Hw spce
    388     134    3   0.423800000000   -13.689243    -4.017762     4.402786  # Hw spce
    389     134    4  -0.847600000000   -12.694295    -3.928446     4.448608  # Ow spce
    390     134    3   0.423800000000   -12.274064    -4.831326     4.357982  # Hw spce
    391     135    3   0.423800000000     5.422905     1.656849    10.847719  # Hw spce
    392     135    4  -0.847600000000     4.779483     2.294974    11.270570  # Ow spce
    393     135    3   0.423800000000     3.890056     1.850331    11.376456  # Hw spce
    394     136    3   0.423800000000    12.651390    -8.462451    -9.883464  # Hw spce
    395     136    4  -0.847600000000    13.604520    -8.665231    -9.658913  # Ow spce
    396     136    3   0.423800000000    14.126661    -7.813197    -9.621415  # Hw spce
    397     137    3   0.423800000000    -4.281249     1.806432   -11.948000  # Hw spce
    398     137    4  -0.847600000000    -5.105501     2.287064   -12.247335  # Ow spce
    399     137    3   0.423800000000    -5.657602     1.678667   -12.817455  # Hw spce
    400     138    3   0.423800000000     9.949401    12.790142    17.284207  # Hw spce
    401     138    4  -0.847600000000     9.087708    12.282722    17.281044  # Ow spce
    402     138    3   0.423800000000     9.222592    11.399585    16.831739  # Hw spce
    403     139    3   0.423800000000    -0.599532    -7.614778     1.408828  # Hw spce
    404     139    4  -0.847600000000    -1.400233    -8.200833     1.532995  # Ow spce
    405     139    3   0.423800000000    -1.158025    -8.977211     2.114865  # Hw spce
    406     140    3   0.423800000000    -5.647504    12.588704   -16.022635  # Hw spce
    407     140    4  -0.847600000000    -6.173624    12.418789   -16.855898  # Ow spce
    408     140    3   0.423800000000    -5.786116    11.634687   -17.340689  # Hw spce
    409     141    3   0.423800000000    -8.916800     9.955833     8.768110  # Hw spce
    410     141    4  -0.847600000000    -9.058347    10.203239     7.809593  # Ow spce
    411     141    3   0.423800000000    -9.722234    10.948877     7.752352  # Hw spce
    412     142    3   0.423800000000    12.232877    -1.032347   -10.727889  # Hw spce
    413     142    4  -0.847600000000    12.428472    -0.072822   -10.930507  # Ow spce
    414     142    3   0.423800000000    13.401345     0.106974   -10.784934  # Hw spce
    415     143    3   0.423800000000    13.331766     1.854641    -1.311720  # Hw spce
    416     143    4  -0.847600000000    13.510455     1.037720    -0.763350  # Ow spce
    417     143    3   0.423800000000    12.881696     1.013906     0.013884  # Hw spce
    418     144    3   0.423800000000     1.584599    18.152036     8.676074  # Hw spce
    419     144    4  -0.847600000000     0.887063    17.513657     9.001521  # Ow spce
    420     144    3   0.423800000000     1.235728    16.578519     8.938675  # Hw spce
    421     145    3   0.423800000000    -7.199150   -16.990255    17.661630  # Hw spce
    422     145    4  -0.847600000000    -6.858330   -17.780333    17.152103  # Ow spce
    423     145    3   0.423800000000    -7.591111   -18.149792    16.580674  # Hw spce
    424     146    3   0.423800000000     3.564194     8.017873     8.910222  # Hw spce
    425     146    4  -0.847600000000     3.670470     7.900006     9.897549  # Ow spce
    426     146    3   0.423800000000     4.279653     7.127632    10.077362  # Hw spce
    427     147    3   0.423800000000   -15.181578   -14.846944   -13.525478  # Hw spce
    428     147    4  -0.847600000000   -14.567028   -15.229605   -14.215332  # Ow spce
    429     147    3   0.423800000000   -15.054382   -15.920382   -14.749478  # Hw spce
    430     148    3   0.423800000000     1.290722    12.346946   -17.762965  # Hw spce
    431     148    4  -0.847600000000     2.080786    12.767263   -17.316722  # Ow spce
    432     148    3   0.423800000000     2.795090    12.079605   -17.186744  # Hw spce
    433     149    3   0.423800000000   -17.468266    12.549780     6.302776  # Hw spce
    434     149    4  -0.847600000000   -17.647612    11.670084     6.743196  # Ow spce
    435     149    3   0.423800000000   -16.938102    11.015666     6.481791  # Hw spce
    436     150    3   0.423800000000     6.696357     6.330866     4.593424  # Hw spce
    437     150    4  -0.847600000000     6.647789     7.312999     4.411613  # Ow spce
    438     150    3   0.423800000000     7.532643     7.633554     4.073565  # Hw spce
    439     151    3   0.423800000000     6.499892    13.874697     9.945315  # Hw spce
    440     151    4  -0.847600000000     6.854386    14.710880    10.363802  # Ow spce
    441     151    3   0.423800000000     6.090969    15.286200    10.657401  # Hw spce
    442     152    3   0.423800000000   -10.375667    16.475348    -3.399511  # Hw spce
    443     152    4  -0.847600000000    -9.552720    16.963720    -3.689770  # Ow spce
    444     152    3   0.423800000000    -8.818808    16.306820    -3.862559  # Hw spce
    445     153    3   0.423800000000    14.100418    17.608022   -10.158308  # Hw spce
    446     153    4  -0.847600000000    14.462104    16.696827   -10.355559  # Ow spce
    447     153    3   0.423800000000    15.049560    16.739155   -11.163707  # Hw spce
    448     154    3   0.423800000000    11.510737     3.391849     0.323992  # Hw spce
    449     154    4  -0.847600000000    10.514626     3.303882     0.328991  # Ow spce
    450     154    3   0.423800000000    10.099633     4.213681     0.322295  # Hw spce
    451     155    3   0.423800000000    -6.312664    -7.539010     0.436610  # Hw spce
    452     155    4  -0.847600000000    -6.224267    -6.555777     0.596101  # Ow spce
    453     155    3   0.423800000000    -5.746471    -6.134678    -0.174864  # Hw spce
    454     156    3   0.423800000000    13.392778    14.504716   -17.768776  # Hw spce
    455     156    4  -0.847600000000    13.733355    14.242792   -18.671773  # Ow spce
    456     156    3   0.423800000000    13.737718    13.245873   -18.750080  # Hw spce
    457     157    3   0.423800000000    11.892065    -3.103572    12.028439  # Hw spce
    458     157    4  -0.847600000000    12.785187    -2.669954    12.148057  # Ow spce
    459     157    3   0.423800000000    13.505688    -3.354171    12.035249  # Hw spce
    460     158    3   0.423800000000    13.499921    15.533156    -1.425675  # Hw spce
    461     158    4  -0.847600000000    13.051643    14.863431    -2.017718  # Ow spce
    462     158    3   0.423800000000    12.391223    15.328766    -2.607046  # Hw spce
    463     159    3   0.423800000000     5.433382    10.634915     5.620696  # Hw spce
    464     159    4  -0.847600000000     5.800807     9.861744     5.103777  # Ow spce
    465     159    3   0.423800000000     6.557160    10.174285     4.529106  # Hw spce
    466     160    3   0.423800000000   -12.203517     3.566648    -9.225273  # Hw spce
    467     160    4  -0.847600000000   -12.240491     2.722144    -8.691001  # Ow spce
    468     160    3   0.423800000000   -13.140337     2.637586    -8.263069  # Hw spce
    469     161    3   0.423800000000   -15.830930   -17.036853   -17.977953  # Hw spce
    470     161    4  -0.847600000000   -15.497221   -17.735946   -17.345571  # Ow spce
    471     161    3   0.423800000000   -16.101717   -18.531837   -17.379354  # Hw spce
    472     162    3   0.423800000000    -2.192122    10.377946   -10.271168  # Hw spce
    473     162    4  -0.847600000000    -2.156015     9.416563    -9.998334  # Ow spce
    474     162    3   0.423800000000    -3.084621     9.048617    -9.950302  # Hw spce
    475     163    3   0.423800000000   -10.328234   -17.486480    13.356375  # Hw spce
    476     163    4  -0.847600000000   -10.998100   -17.193278    12.674238  # Ow spce
    477     163    3   0.423800000000   -10.637471   -17.365295    11.757528  # Hw spce
    478     164    3   0.423800000000    -7.202295   -10.571689     6.664504  # Hw spce
    479     164    4  -0.847600000000    -7.287255   -10.713656     7.650723  # Ow spce
    480     164    3   0.423800000000    -8.238173   -10.925503     7.876279  # Hw spce
    481     165    3   0.423800000000   -12.493464    18.753796    10.614613  # Hw spce
    482     165    4  -0.847600000000   -12.617840    17.763081    10.559720  # Ow spce
    483     165    3   0.423800000000   -12.042907    17.316481    11.245286  # Hw spce
    484     166    3   0.423800000000    16.720360    -3.265953    16.586318  # Hw spce
    485     166    4  -0.847600000000    16.418207    -4.139808    16.967212  # Ow spce
    486     166    3   0.423800000000    15.423089    -4.134206    17.065746  # Hw spce
    487     167    3   0.423800000000    -9.946147     2.581383   -11.150491  # Hw spce
    488     167    4  -0.847600000000    -9.110718     3.097330   -10.961132  # Ow spce
    489     167    3   0.423800000000    -8.420525     2.484535   -10.576275  # Hw spce
    490     168    3   0.423800000000   -11.546028     1.335526    -1.601775  # Hw spce
    491     168    4  -0.847600000000   -10.560984     1.176452    -1.535559  # Ow spce
    492     168    3   0.423800000000   -10.085246     2.053706    -1.471551  # Hw spce
    493     169    3   0.423800000000     5.509388    -3.838384     8.145779  # Hw spce
    494     169    4  -0.847600000000     6.239818    -3.797076     7.464042  # Ow spce
    495     169    3   0.423800000000     7.043554    -3.355678     7.863012  # Hw spce
    496     170    3   0.423800000000    -9.269963    13.303115    -9.209479  # Hw spce
    497     170    4  -0.847600000000    -9.660994    14.207512    -9.380245  # Ow spce
    498     170    3   0.423800000000    -9.058775    14.908554    -8.998313  # Hw spce
    499     171    3   0.423800000000    11.457103    -4.703232     8.118887  # Hw spce
    500     171    4  -0.847600000000    10.915848    -5.539170     8.209720  # Ow spce
    501     171    3   0.423800000000    11.395862    -6.296761     7.767405  # Hw spce
    502     172    3   0.423800000000   -10.682543    -8.347986    -8.512312  # Hw spce
    503     172    4  -0.847600000000   -11.188761    -8.670114    -7.712326  # Ow spce
    504     172    3   0.423800000000   -10.704988    -9.442367    -7.300515  # Hw spce
    505     173    3   0.423800000000     1.176808    -3.179231    16.509895  # Hw spce
    506     173    4  -0.847600000000     0.947111    -3.489613    15.587452  # Ow spce
    507     173    3   0.423800000000     1.264454    -2.815648    14.920320  # Hw spce
    508     174    3   0.423800000000   -17.479101   -13.331543   -13.700759  # Hw spce
    509     174    4  -0.847600000000   -17.211507   -13.235646   -14.659507  # Ow spce
    510     174    3   0.423800000000   -16.683637   -12.394303   -14.775675  # Hw spce
    511     175    3   0.423800000000    10.353487     2.060350     2.817289  # Hw spce
    512     175    4  -0.847600000000    11.081493     1.484217     2.445701  # Ow spce
    513     175    3   0.423800000000    11.700954     1.213239     3.182477  # Hw spce
    514     176    3   0.423800000000     3.498556    -7.151000   -17.173621  # Hw spce
    515     176    4  -0.847600000000     3.283245    -7.138645   -18.150089  # Ow spce
    516     176    3   0.423800000000     2.735256    -7.942692   -18.380776  # Hw spce
    517     177    3   0.423800000000     7.567033   -12.886467    -5.306046  # Hw spce
    518     177    4  -0.847600000000     7.029900   -12.431965    -4.595472  # Ow spce
    519     177    3   0.423800000000     6.055611   -12.556928    -4.782946  # Hw spce
    520     178    3   0.423800000000    -9.367933    10.778821    -5.319411  # Hw spce
    521     178    4  -0.847600000000    -9.813716    10.425916    -4.496771  # Ow spce
    522     178    3   0.423800000000   -10.645041    10.951667    -4.316542  # Hw spce
    523     179    3   0.423800000000     8.042261   -17.877242   -12.771127  # Hw spce
    524     179    4  -0.847600000000     7.877213   -17.078149   -13.349235  # Ow spce
    525     179    3   0.423800000000     7.054354   -16.604199   -13.035750  # Hw spce
    526     180    3   0.423800000000   -12.900474     8.374506     1.482459  # Hw spce
    527     180    4  -0.847600000000   -12.039359     8.812153     1.741198  # Ow spce
    528     180    3   0.423800000000   -12.179217     9.798666     1.826237  # Hw spce
    529     181    3   0.423800000000    -3.569736     0.654517   -15.569648  # Hw spce
    530     181    4  -0.847600000000    -3.526663    -0.318471   -15.796449  # Ow spce
    531     181    3   0.423800000000    -4.264058    -0.803306   -15.326148  # Hw spce
    532     182    3   0.423800000000    15.522446    13.330738     4.316575  # Hw spce
    533     182    4  -0.847600000000    16.352187    13.802891     4.614233  # Ow spce
    534     182    3   0.423800000000    17.027231    13.130755     4.918450  # Hw spce
    535     183    3   0.423800000000   -12.078849   -12.229199    10.455095  # Hw spce
    536     183    4  -0.847600000000   -12.995958   -12.614477    10.352765  # Ow spce
    537     183    3   0.423800000000   -12.952899   -13.608567    10.452418  # Hw spce
    538     184    3   0.423800000000     1.769328    -5.029246   -14.186998  # Hw spce
    539     184    4  -0.847600000000     1.429915    -4.142685   -14.501336  # Ow spce
    540     184    3   0.423800000000     1.156923    -4.211454   -15.460891  # Hw spce
    541     185    3   0.423800000000    18.363799    -8.885235     1.330341  # Hw spce
    542     185    4  -0.847600000000    18.736001    -9.790017     1.123375  # Ow spce
    543     185    3   0.423800000000    18.750035   -10.343171     1.956335  # Hw spce
    544     186    3   0.423800000000     3.926645     4.508418    -9.289891  # Hw spce
    545     186    4  -0.847600000000     3.708631     5.271178    -8.681066  # Ow spce
    546     186    3   0.423800000000     4.515865     5.507012    -8.139996  # Hw spce
    547     187    3   0.423800000000     9.523335    12.908374    10.468721  # Hw spce
    548     187    4  -0.847600000000     9.189417    11.966017    10.490226  # Ow spce
    549     187    3   0.423800000000     9.919844    11.346912    10.201808  # Hw spce
    550     188    3   0.423800000000   -12.031021    16.600485    -6.140726  # Hw spce
    551     188    4  -0.847600000000   -11.518951    17.326464    -6.599790  # Ow spce
    552     188    3   0.423800000000   -10.609896    17.403339    -6.190269  # Hw spce
    553     189    3   0.423800000000    -0.320105   -10.203143   -10.699994  # Hw spce
    554     189    4  -0.847600000000    -0.899853    -9.390372   -10.642592  # Ow spce
    555     189    3   0.423800000000    -1.861281    -9.665062   -10.656748  # Hw spce
    556     190    3   0.423800000000    -4.955185     8.034659   -16.719785  # Hw spce
    557     190    4  -0.847600000000    -5.567758     8.054864   -15.929629  # Ow spce
    558     190    3   0.423800000000    -5.989620     8.958687   -15.857960  # Hw spce
    559     191    3   0.423800000000     8.331340    -5.272429   -14.099484  # Hw spce
    560     191    4  -0.847600000000     7.541715    -4.890392   -13.619339  # Ow spce
    561     191    3   0.423800000000     7.659051    -5.013849   -12.633950  # Hw spce
    562     192    3   0.423800000000    18.230023    13.511881   -17.903546  # Hw spce
    563     192    4  -0.847600000000    17.370343    13.121732   -17.573797  # Ow spce
    564     192    3   0.423800000000    16.909274    13.783248   -16.982348  # Hw spce
    565     193    3   0.423800000000    -0.133084     8.167486    18.178366  # Hw spce
    566     193    4  -0.847600000000    -0.322432     7.612303    17.368477  # Ow spce
    567     193    3   0.423800000000    -1.210397     7.870241    16.987707  # Hw spce
    568     194    3   0.423800000000     9.245222   -15.019737    -0.661990  # Hw spce
    569     194    4  -0.847600000000     9.709063   -15.900878    -0.753870  # Ow spce
    570     194    3   0.423800000000    10.679847   -15.748770    -0.939454  # Hw spce
    571     195    3   0.423800000000    -0.318467     1.654328   -18.417659  # Hw spce
    572     195    4  -0.847600000000    -0.373437     1.790961   -17.428564  # Ow spce
    573     195    3   0.423800000000     0.427576     1.382763   -16.990670  # Hw spce
    574     196    3   0.423800000000     1.141101    18.711052    12.255085  # Hw spce
    575     196    4  -0.847600000000     0.142190    18.750909    12.230809  # Ow spce
    576     196    3   0.423800000000    -0.190244    18.283214    11.411816  # Hw spce
    577     197    3   0.423800000000    11.967426    14.754855   -13.618649  # Hw spce
    578     197    4  -0.847600000000    11.521870    13.903679   -13.341195  # Ow spce
    579     197    3   0.423800000000    10.636882    13.825712   -13.800233  # Hw spce
    580     198    3   0.423800000000   -15.115102     0.145196     4.656921  # Hw spce
    581     198    4  -0.847600000000   -15.666325     0.971771     4.543222  # Ow spce
    582     198    3   0.423800000000   -15.676826     1.485981     5.400821  # Hw spce
    583     199    3   0.423800000000    -9.548638     5.194462     3.048161  # Hw spce
    584     199    4  -0.847600000000   -10.166642     5.979452     3.005010  # Ow spce
    585     199    3   0.423800000000   -11.112757     5.657362     2.971475  # Hw spce
    586     200    3   0.423800000000    17.174108   -12.561889    -3.023563  # Hw spce
    587     200    4  -0.847600000000    16.465274   -12.356620    -3.698411  # Ow spce
    588     200    3   0.423800000000    16.864312   -12.369137    -4.615260  # Hw spce
    589     201    3   0.423800000000     1.973189    -8.135799    13.724839  # Hw spce
    590     201    4  -0.847600000000     2.064117    -7.140142    13.704875  # Ow spce
    591     201    3   0.423800000000     1.155575    -6.722355    13.707273  # Hw spce
    592     202    3   0.423800000000    18.102559     6.486489    -3.456704  # Hw spce
    593     202    4  -0.847600000000    18.758713     5.733809    -3.402540  # Ow spce
    594     202    3   0.423800000000    18.297349     4.873247    -3.618352  # Hw spce
    595     203    3   0.423800000000    16.230140    17.997971    -6.403035  # Hw spce
    596     203    4  -0.847600000000    16.798158    18.082620    -5.584383  # Ow spce
    597     203    3   0.423800000000    17.751469    17.892516    -5.819029  # Hw spce
    598     204    3   0.423800000000     1.673698   -11.512598   -16.174433  # Hw spce
    599     204    4  -0.847600000000     2.209122   -11.694942   -15.349768  # Ow spce
    600     204    3   0.423800000000     2.666309   -10.855227   -15.056752  # Hw spce
    601     205    3   0.423800000000     9.492175    -8.396368     8.905701  # Hw spce
    602     205    4  -0.847600000000     9.159635    -8.807764     8.057071  # Ow spce
    603     205    3   0.423800000000     9.352841    -8.194412     7.291258  # Hw spce
    604     206    3   0.423800000000    15.774915    -7.785712    -2.915488  # Hw spce
    605     206    4  -0.847600000000    15.887683    -6.878824    -3.321491  # Ow spce
    606     206    3   0.423800000000    16.854409    -6.623619    -3.303892  # Hw spce
    607     207    3   0.423800000000    -8.590726   -14.332556    13.980455  # Hw spce
    608     207    4  -0.847600000000    -9.547685   -14.193558    14.235226  # Ow spce
    609     207    3   0.423800000000    -9.715452   -13.218637    14.381455  # Hw spce
    610     208    3   0.423800000000     1.103064    -1.201613   -17.834653  # Hw spce
    611     208    4  -0.847600000000     0.902645    -1.771694   -17.037885  # Ow spce
    612     208    3   0.423800000000     1.089107    -1.254479   -16.202588  # Hw spce
    613     209    3   0.423800000000   -17.180072   -16.658926     5.419048  # Hw spce
    614     209    4  -0.847600000000   -16.554230   -17.364513     5.086682  # Ow spce
    615     209    3   0.423800000000   -16.942413   -18.267645     5.270167  # Hw spce
    616     210    3   0.423800000000    16.952018   -16.578827   -18.750264  # Hw spce
    617     210    4  -0.847600000000    17.392601   -17.271348   -18.179036  # Ow spce
    618     210    3   0.423800000000    18.254322   -16.910342   -17.822510  # Hw spce
    619     211    3   0.423800000000    -9.910525    -0.955633   -10.612356  # Hw spce
    620     211    4  -0.847600000000   -10.005983    -0.489883   -11.492109  # Ow spce
    621     211    3   0.423800000000    -9.138214    -0.056798   -11.735858  # Hw spce
    622     212    3   0.423800000000    -8.065709    -6.145612    -8.568035  # Hw spce
    623     212    4  -0.847600000000    -8.121563    -7.139687    -8.474782  # Ow spce
    624     212    3   0.423800000000    -7.198842    -7.523788    -8.442336  # Hw spce
    625     213    3   0.423800000000     0.863401    -8.842318     6.548092  # Hw spce
    626     213    4  -0.847600000000     1.823281    -8.582638     6.653899  # Ow spce
    627     213    3   0.423800000000     2.397466    -9.399596     6.600145  # Hw spce
    628     214    3   0.423800000000    17.678561    -0.968449    11.988131  # Hw spce
    629     214    4  -0.847600000000    17.073455    -1.679658    11.630321  # Ow spce
    630     214    3   0.423800000000    16.554167    -1.317147    10.856418  # Hw spce
    631     215    3   0.423800000000     7.049446    -6.330791     2.413774  # Hw spce
    632     215    4  -0.847600000000     6.316753    -6.629708     3.025174  # Ow spce
    633     215    3   0.423800000000     6.220703    -7.623518     2.969354  # Hw spce
    634     216    3   0.423800000000    13.776742    16.691033    -6.371822  # Hw spce
    635     216    4  -0.847600000000    13.185257    16.190246    -7.003769  # Ow spce
    636     216    3   0.423800000000    13.748315    15.676754    -7.651296  # Hw spce
    637     217    3   0.423800000000     6.708718    18.583212   -17.530156  # Hw spce
    638     217    4  -0.847600000000     5.778917    18.661160   -17.889870  # Ow spce
    639     217    3   0.423800000000     5.275227    17.819082   -17.696996  # Hw spce
    640     218    3   0.423800000000     9.757527   -12.947160     3.110877  # Hw spce
    641     218    4  -0.847600000000     9.475613   -13.857358     3.414297  # Ow spce
    642     218    3   0.423800000000     9.870752   -14.046258     4.313286  # Hw spce
    643     219    3   0.423800000000    -3.531772   -11.110828    -7.893392  # Hw spce
    644     219    4  -0.847600000000    -4.225157   -11.620442    -7.383971  # Ow spce
    645     219    3   0.423800000000    -4.400501   -11.163962    -6.511686  # Hw spce
    646     220    3   0.423800000000    -4.522926    10.778567    -5.332077  # Hw spce
    647     220    4  -0.847600000000    -3.880943    11.176315    -5.987557  # Ow spce
    648     220    3   0.423800000000    -3.227177    10.478161    -6.279397  # Hw spce
    649     221    3   0.423800000000    13.678995    11.431345    -2.529707  # Hw spce
    650     221    4  -0.847600000000    13.120500    12.192733    -2.858906  # Ow spce
    651     221    3   0.423800000000    12.397071    11.842586    -3.453925  # Hw spce
    652     222    3   0.423800000000    15.822164     5.498989     2.602808  # Hw spce
    653     222    4  -0.847600000000    16.263480     4.601761     2.587929  # Ow spce
    654     222    3   0.423800000000    17.253881     4.718638     2.514135  # Hw spce
    655     223    3   0.423800000000   -11.102682    -7.954024    12.562484  # Hw spce
    656     223    4  -0.847600000000   -10.491304    -8.220742    13.307519  # Ow spce
    657     223    3   0.423800000000    -9.750137    -7.553954    13.385400  # Hw spce
    658     224    3   0.423800000000   -15.774098     1.486838   -10.348955  # Hw spce
    659     224    4  -0.847600000000   -14.938056     2.027832   -10.257520  # Ow spce
    660     224    3   0.423800000000   -14.410453     1.971860   -11.105165  # Hw spce
    661     225    3   0.423800000000    -4.300038    -5.917562   -14.759901  # Hw spce
    662     225    4  -0.847600000000    -4.059512    -6.402781   -15.600561  # Ow spce
    663     225    3   0.423800000000    -3.065102    -6.415111   -15.705418  # Hw spce
    664     226    3   0.423800000000    -7.723619     9.166162     2.573237  # Hw spce
    665     226    4  -0.847600000000    -8.010065     8.208650     2.539769  # Ow spce
    666     226    3   0.423800000000    -7.202556     7.620577     2.493959  # Hw spce
    667     227    3   0.423800000000     9.799348    -7.650163     2.964047  # Hw spce
    668     227    4  -0.847600000000    10.588833    -8.176837     3.279211  # Ow spce
    669     227    3   0.423800000000    10.441799    -8.463634     4.225851  # Hw spce
    670     228    3   0.423800000000   -17.965907    -0.144054   -12.187096  # Hw spce
    671     228    4  -0.847600000000   -18.750623    -0.177745   -11.568156  # Ow spce
    672     228    3   0.423800000000   -18.648556     0.523002   -10.862085  # Hw spce
    673     229    3   0.423800000000     7.718881    14.309095    16.001677  # Hw spce
    674     229    4  -0.847600000000     8.432604    14.922607    16.339617  # Ow spce
    675     229    3   0.423800000000     8.393368    15.787338    15.838918  # Hw spce
    676     230    3   0.423800000000    -1.774535   -14.222349    15.255612  # Hw spce
    677     230    4  -0.847600000000    -2.630972   -14.448291    15.719795  # Ow spce
    678     230    3   0.423800000000    -2.874303   -15.398732    15.526273  # Hw spce
    679     231    3   0.423800000000    10.171563    -5.698513    -6.116095  # Hw spce
    680     231    4  -0.847600000000    10.141124    -6.305426    -5.321909  # Ow spce
    681     231    3   0.423800000000    11.000990    -6.235917    -4.816143  # Hw spce
    682     232    3   0.423800000000    -0.808055    15.330888   -14.745184  # Hw spce
    683     232    4  -0.847600000000    -0.950441    14.341296   -14.765994  # Ow spce
    684     232    3   0.423800000000    -1.901843    14.146382   -15.004409  # Hw spce
    685     233    3   0.423800000000    -3.602164    -7.448373    -5.205510  # Hw spce
    686     233    4  -0.847600000000    -2.974130    -6.676529    -5.106361  # Ow spce
    687     233    3   0.423800000000    -2.075930    -7.012023    -4.822318  # Hw spce
    688     234    3   0.423800000000   -17.512701     7.460459   -16.964483  # Hw spce
    689     234    4  -0.847600000000   -16.751600     8.043640   -16.680538  # Ow spce
    690     234    3   0.423800000000   -17.097596     8.951573   -16.444011  # Hw spce
    691     235    3   0.423800000000    14.543477    -6.966455     7.640495  # Hw spce
    692     235    4  -0.847600000000    14.977202    -6.085325     7.452103  # Ow spce
    693     235    3   0.423800000000    14.274951    -5.408729     7.230605  # Hw spce
    694     236    3   0.423800000000    -8.617424   -10.700173    -6.022418  # Hw spce
    695     236    4  -0.847600000000    -8.053995   -10.383169    -6.785344  # Ow spce
    696     236    3   0.423800000000    -7.141716   -10.786868    -6.716246  # Hw spce
    697     237    3   0.423800000000     2.997399   -11.366700    18.010302  # Hw spce
    698     237    4  -0.847600000000     2.475792   -10.943782    18.751292  # Ow spce
    699     237    3   0.423800000000     1.498718   -11.090603    18.597116  # Hw spce
    700     238    3   0.423800000000    13.698567    -1.444264   -13.175416  # Hw spce
    701     238    4  -0.847600000000    14.188601    -1.507918   -14.044793  # Ow spce
    702     238    3   0.423800000000    13.787017    -0.869378   -14.701296  # Hw spce
    703     239    3   0.423800000000    -5.411623    -2.972003    -6.720699  # Hw spce
    704     239    4  -0.847600000000    -6.086856    -3.704443    -6.633569  # Ow spce
    705     239    3   0.423800000000    -6.556610    -3.830394    -7.507335  # Hw spce
    706     240    3   0.423800000000     5.636999     9.293320    -8.705709  # Hw spce
    707     240    4  -0.847600000000     5.187352     8.776713    -9.434362  # Ow spce
    708     240    3   0.423800000000     4.517672     8.150748    -9.034741  # Hw spce
    709     241    3   0.423800000000     5.438105    15.471374   -15.793946  # Hw spce
    710     241    4  -0.847600000000     4.878853    16.076399   -15.227218  # Ow spce
    711     241    3   0.423800000000     5.138605    15.968518   -14.267587  # Hw spce
    712     242    3   0.423800000000   -15.979901    -6.260677    -5.289263  # Hw spce
    713     242    4  -0.847600000000   -15.692749    -6.986141    -4.663766  # Ow spce
    714     242    3   0.423800000000   -16.012161    -6.775435    -3.739873  # Hw spce
    715     243    3   0.423800000000     4.809204   -16.191769     6.780400  # Hw spce
    716     243    4  -0.847600000000     5.777856   -15.951818     6.844718  # Ow spce
    717     243    3   0.423800000000     5.953150   -15.505599     7.722305  # Hw spce
    718     244    3   0.423800000000    14.246633     2.323549     2.302482  # Hw spce
    719     244    4  -0.847600000000    15.124031     1.871024     2.143133  # Ow spce
    720     244    3   0.423800000000    15.660030     1.876435     2.987334  # Hw spce
    721     245    3   0.423800000000     0.709988    16.208363     0.855744  # Hw spce
    722     245    4  -0.847600000000     0.581220    17.199911     0.839878  # Ow spce
    723     245    3   0.423800000000    -0.396661    17.408962     0.832999  # Hw spce
    724     246    3   0.423800000000    12.502593   -11.473035    -1.782621  # Hw spce
    725     246    4  -0.847600000000    12.828944   -10.597495    -2.138885  # Ow spce
    726     246    3   0.423800000000    12.053006   -10.065513    -2.477875  # Hw spce
    727     247    3   0.423800000000    13.808583     6.073281    -1.350821  # Hw spce
    728     247    4  -0.847600000000    14.673928     6.546020    -1.184398  # Ow spce
    729     247    3   0.423800000000    14.713656     6.842441    -0.230168  # Hw spce
    730     248    3   0.423800000000    -6.147944   -10.966186    -3.033487  # Hw spce
    731     248    4  -0.847600000000    -7.114947   -11.189493    -2.910858  # Ow spce
    732     248    3   0.423800000000    -7.214852   -12.175265    -2.775687  # Hw spce
    733     249    3   0.423800000000    -1.680897    -4.795647   -13.227797  # Hw spce
    734     249    4  -0.847600000000    -0.791775    -5.252269   -13.196856  # Ow spce
    735     249    3   0.423800000000    -0.868744    -6.160037   -13.609206  # Hw spce
    736     250    3   0.423800000000   -11.591106   -14.778792   -15.084755  # Hw spce
    737     250    4  -0.847600000000   -12.156973   -14.026783   -15.422803  # Ow spce
    738     250    3   0.423800000000   -11.570795   -13.322474   -15.823233  # Hw spce
    739     251    3   0.423800000000    11.977722   -13.302219     1.505808  # Hw spce
    740     251    4  -0.847600000000    12.495439   -12.468842     1.699336  # Ow spce
    741     251    3   0.423800000000    12.919747   -12.136842     0.856876  # Hw spce
    742     252    3   0.423800000000    -6.848655     8.261176     5.153919  # Hw spce
    743     252    4  -0.847600000000    -6.065761     8.877558     5.069357  # Ow spce
    744     252    3   0.423800000000    -6.390651     9.806924     4.894070  # Hw spce
    745     253    3   0.423800000000    16.922338     8.026684     1.705423  # Hw spce
    746     253    4  -0.847600000000    17.783409     7.526092     1.794670  # Ow spce
    747     253    3   0.423800000000    18.526785     8.170741     1.973050  # Hw spce
    748     254    3   0.423800000000     2.612043    17.445953    14.289438  # Hw spce
    749     254    4  -0.847600000000     1.708660    17.021282    14.349039  # Ow spce
    750     254    3   0.423800000000     1.170626    17.480176    15.056100  # Hw spce
    751     255    3   0.423800000000     8.722389     2.744589    13.960901  # Hw spce
    752     255    4  -0.847600000000     7.801800     2.477060    13.676394  # Ow spce
    753     255    3   0.423800000000     7.829350     2.135403    12.736974  # Hw spce
    754     256    3   0.423800000000   -14.401498     4.201902     8.507933  # Hw spce
    755     256    4  -0.847600000000   -14.180090     4.152427     7.534007  # Ow spce
    756     256    3   0.423800000000   -14.026344     3.198822     7.275165  # Hw spce
    757     257    3   0.423800000000   -17.911318    14.347070   -15.220664  # Hw spce
    758     257    4  -0.847600000000   -17.898820    13.604435   -14.551084  # Ow spce
    759     257    3   0.423800000000   -18.799097    13.170384   -14.517894  # Hw spce
    760     258    3   0.423800000000     9.525207    12.033618     6.736170  # Hw spce
    761     258    4  -0.847600000000     8.847239    11.464140     7.200987  # Ow spce
    762     258    3   0.423800000000     8.315918    12.027683     7.833534  # Hw spce
    763     259    3   0.423800000000     7.751997    -6.561709    17.306213  # Hw spce
    764     259    4  -0.847600000000     8.161084    -6.808901    16.427837  # Ow spce
    765     259    3   0.423800000000     7.439094    -6.934124    15.747360  # Hw spce
    766     260    3   0.423800000000   -15.161681     6.137903    14.629673  # Hw spce
    767     260    4  -0.847600000000   -15.878327     6.173556    15.326198  # Ow spce
    768     260    3   0.423800000000   -16.038328     5.254796    15.687141  # Hw spce
    769     261    3   0.423800000000    18.557760   -14.342509   -14.440172  # Hw spce
    770     261    4  -0.847600000000    18.750802   -13.606161   -15.088651  # Ow spce
    771     261    3   0.423800000000    18.301032   -12.766790   -14.783426  # Hw spce
    772     262    3   0.423800000000    -5.691351    -8.346637   -17.603221  # Hw spce
    773     262    4  -0.847600000000    -5.932134    -8.204407   -18.563322  # Ow spce
    774     262    3   0.423800000000    -5.991664    -7.223848   -18.750296  # Hw spce
    775     263    3   0.423800000000   -10.471248    13.434892    -5.770568  # Hw spce
    776     263    4  -0.847600000000   -10.088875    14.064520    -5.094284  # Ow spce
    777     263    3   0.423800000000    -9.281952    13.650927    -4.672602  # Hw spce
    778     264    3   0.423800000000   -13.802774   -10.956831    16.630257  # Hw spce
    779     264    4  -0.847600000000   -14.192185   -10.450522    15.860835  # Ow spce
    780     264    3   0.423800000000   -14.343172    -9.499329    16.129971  # Hw spce
    781     265    3   0.423800000000    -8.271342    17.493588   -13.832611  # Hw spce
    782     265    4  -0.847600000000    -7.616728    17.442315   -14.586834  # Ow spce
    783     265    3   0.423800000000    -6.948561    18.181131   -14.499065  # Hw spce
    784     266    3   0.423800000000    -5.991158    13.449608     6.404258  # Hw spce
    785     266    4  -0.847600000000    -6.188357    14.341099     6.812125  # Ow spce
    786     266    3   0.423800000000    -5.330366    14.793285     7.055803  # Hw spce
    787     267    3   0.423800000000     1.880333   -12.287652    -9.537186  # Hw spce
    788     267    4  -0.847600000000     1.572199   -12.808597   -10.333221  # Ow spce
    789     267    3   0.423800000000     0.961088   -13.541991   -10.035434  # Hw spce
    790     268    3   0.423800000000    -1.637556   -15.934204    -0.188393  # Hw spce
    791     268    4  -0.847600000000    -0.876511   -16.218701     0.394593  # Ow spce
    792     268    3   0.423800000000    -0.714992   -17.198575     0.277298  # Hw spce
    793     269    3   0.423800000000    -7.588318     2.541415     8.692873  # Hw spce
    794     269    4  -0.847600000000    -7.139611     2.275000     7.839829  # Ow spce
    795     269    3   0.423800000000    -6.934725     3.092486     7.301557  # Hw spce
    796     270    3   0.423800000000   -17.582616    13.523928     0.835128  # Hw spce
    797     270    4  -0.847600000000   -18.567570    13.695065     0.811072  # Ow spce
    798     270    3   0.423800000000   -18.751453    14.627933     1.120821  # Hw spce
    799     271    3   0.423800000000     0.992994    -0.466006    17.892464  # Hw spce
    800     271    4  -0.847600000000     1.434474    -0.483783    16.995370  # Ow spce
    801     271    3   0.423800000000     1.113161     0.290628    16.450351  # Hw spce
    802     272    3   0.423800000000    12.678062   -12.486461     5.349587  # Hw spce
    803     272    4  -0.847600000000    12.842386   -12.946268     6.222269  # Ow spce
    804     272    3   0.423800000000    12.841821   -12.271185     6.960011  # Hw spce
    805     273    3   0.423800000000     9.611793    -2.394671    -7.652647  # Hw spce
    806     273    4  -0.847600000000    10.416317    -1.801256    -7.677138  # Ow spce
    807     273    3   0.423800000000    10.512594    -1.407831    -8.591439  # Hw spce
    808     274    3   0.423800000000    -1.468296    10.951694    -0.407674  # Hw spce
    809     274    4  -0.847600000000    -0.688252    10.678582    -0.970650  # Ow spce
    810     274    3   0.423800000000    -0.060283    11.450804    -1.067231  # Hw spce
    811     275    3   0.423800000000    -7.948843    16.817992   -11.012290  # Hw spce
    812     275    4  -0.847600000000    -8.219800    17.747226   -10.761082  # Ow spce
    813     275    3   0.423800000000    -7.461029    18.200795   -10.293597  # Hw spce
    814     276    3   0.423800000000    -7.825763    -5.933309    14.646696  # Hw spce
    815     276    4  -0.847600000000    -6.844683    -6.079844    14.520160  # Ow spce
    816     276    3   0.423800000000    -6.657920    -7.060981    14.470273  # Hw spce
    817     277    3   0.423800000000   -18.750017     1.305517    -8.227086  # Hw spce
    818     277    4  -0.847600000000   -18.620083     0.711501    -7.433195  # Ow spce
    819     277    3   0.423800000000   -17.762726     0.206289    -7.531686  # Hw spce
    820     278    3   0.423800000000     4.713590   -15.641335   -11.914217  # Hw spce
    821     278    4  -0.847600000000     4.001346   -15.230201   -11.345290  # Ow spce
    822     278    3   0.423800000000     4.283664   -15.257377   -10.386354  # Hw spce
    823     279    3   0.423800000000   -10.867193    14.675384     5.462585  # Hw spce
    824     279    4  -0.847600000000   -11.264807    15.588947     5.548061  # Ow spce
    825     279    3   0.423800000000   -12.184873    15.517316     5.933218  # Hw spce
    826     280    3   0.423800000000   -12.307749   -15.149366   -12.443287  # Hw spce
    827     280    4  -0.847600000000   -12.355631   -14.212817   -12.096035  # Ow spce
    828     280    3   0.423800000000   -11.540281   -13.709284   -12.381793  # Hw spce
    829     281    3   0.423800000000     0.623045   -13.877574   -13.749651  # Hw spce
    830     281    4  -0.847600000000     1.292843   -14.607730   -13.614589  # Ow spce
    831     281    3   0.423800000000     2.164438   -14.340732   -14.025727  # Hw spce
    832     282    3   0.423800000000    -1.295011   -15.545189   -11.438852  # Hw spce
    833     282    4  -0.847600000000    -2.096547   -15.341745   -10.876580  # Ow spce
    834     282    3   0.423800000000    -2.768051   -16.076139   -10.975311  # Hw spce
    835     283    3   0.423800000000     3.043310   -16.053973    -5.638868  # Hw spce
    836     283    4  -0.847600000000     3.048326   -15.581051    -4.757779  # Ow spce
    837     283    3   0.423800000000     3.989222   -15.497970    -4.429432  # Hw spce
    838     284    3   0.423800000000   -12.826077    17.279011   -18.750013  # Hw spce
    839     284    4  -0.847600000000   -11.917140    17.308097   -18.334096  # Ow spce
    840     284    3   0.423800000000   -11.639236    16.382996   -18.075336  # Hw spce
    841     285    3   0.423800000000   -11.674503     8.866557    -2.019431  # Hw spce
    842     285    4  -0.847600000000   -10.724691     9.088917    -2.239461  # Ow spce
    843     285    3   0.423800000000   -10.196029     8.244468    -2.325611  # Hw spce
    844     286    3   0.423800000000    -1.048704   -12.730326     5.161895  # Hw spce
    845     286    4  -0.847600000000    -1.292647   -11.963600     5.755714  # Ow spce
    846     286    3   0.423800000000    -0.627443   -11.226240     5.638223  # Hw spce
    847     287    3   0.423800000000    -4.813089   -17.853070    10.933795  # Hw spce
    848     287    4  -0.847600000000    -4.505296   -17.866855     9.982441  # Ow spce
    849     287    3   0.423800000000    -4.033428   -17.010584     9.772343  # Hw spce
    850     288    3   0.423800000000   -10.431614    12.490254   -12.815881  # Hw spce
    851     288    4  -0.847600000000    -9.905428    11.640542   -12.782448  # Ow spce
    852     288    3   0.423800000000   -10.528737    10.866722   -12.669811  # Hw spce
    853     289    3   0.423800000000    16.145287     8.326989    -3.989213  # Hw spce
    854     289    4  -0.847600000000    16.940951     8.932661    -3.998124  # Ow spce
    855     289    3   0.423800000000    16.635160     9.884752    -3.994338  # Hw spce
    856     290    3   0.423800000000    10.532707     2.527920     6.657408  # Hw spce
    857     290    4  -0.847600000000     9.773841     3.021733     7.081991  # Ow spce
    858     290    3   0.423800000000     9.405970     3.688587     6.433936  # Hw spce
    859     291    3   0.423800000000    11.918007    18.511418     6.968815  # Hw spce
    860     291    4  -0.847600000000    12.261320    17.640749     7.321055  # Ow spce
    861     291    3   0.423800000000    13.261262    17.651065     7.318223  # Hw spce
    862     292    3   0.423800000000    13.457766     2.835867    11.536255  # Hw spce
    863     292    4  -0.847600000000    12.653735     2.472024    11.065987  # Ow spce
    864     292    3   0.423800000000    12.938793     2.014964    10.223468  # Hw spce
    865     293    3   0.423800000000    -1.315551     3.786232    -6.601551  # Hw spce
    866     293    4  -0.847600000000    -1.877620     4.305131    -7.245618  # Ow spce
    867     293    3   0.423800000000    -1.553877     5.250496    -7.284015  # Hw spce
    868     294    3   0.423800000000    15.987130    -8.877825    11.715420  # Hw spce
    869     294    4  -0.847600000000    15.499382    -8.186204    12.248113  # Ow spce
    870     294    3   0.423800000000    14.681371    -8.593773    12.654000  # Hw spce
    871     295    3   0.423800000000    13.048002     8.492242     4.165137  # Hw spce
    872     295    4  -0.847600000000    12.695387     7.609104     4.474539  # Ow spce
    873     295    3   0.423800000000    13.386115     6.902335     4.321660  # Hw spce
    874     296    3   0.423800000000     4.197197     7.804163    13.476211  # Hw spce
    875     296    4  -0.847600000000     4.111412     8.731628    13.112274  # Ow spce
    876     296    3   0.423800000000     3.143663     8.958666    13.003119  # Hw spce
    877     297    3   0.423800000000   -10.403715    -1.809024    12.831636  # Hw spce
    878     297    4  -0.847600000000    -9.896772    -2.207112    13.596185  # Ow spce
    879     297    3   0.423800000000    -9.566740    -1.476393    14.193788  # Hw spce
    880     298    3   0.423800000000   -17.021089    17.334003     5.368719  # Hw spce
    881     298    4  -0.847600000000   -17.556869    16.717492     5.945654  # Ow spce
    882     298    3   0.423800000000   -18.519903    16.985126     5.915039  # Hw spce
    883     299    3   0.423800000000    -9.428886   -14.707347    11.100065  # Hw spce
    884     299    4  -0.847600000000    -8.451901   -14.631102    10.900849  # Ow spce
    885     299    3   0.423800000000    -8.059544   -15.545578    10.801907  # Hw spce
    886     300    3   0.423800000000     2.873151   -18.148868     8.787833  # Hw spce
    887     300    4  -0.847600000000     2.928107   -17.917060     7.816625  # Ow spce
    888     300    3   0.423800000000     3.081676   -18.749066     7.283538  # Hw spce
    889     301    3   0.423800000000     8.430306    16.569768   -18.659743  # Hw spce
    890     301    4  -0.847600000000     7.927924    16.091499   -17.939416  # Ow spce
    891     301    3   0.423800000000     7.047984    15.779408   -18.297610  # Hw spce
    892     302    3   0.423800000000     0.619498    -1.771370     9.811031  # Hw spce
    893     302    4  -0.847600000000     0.987744    -2.504810     9.239663  # Ow spce
    894     302    3   0.423800000000     1.976843    -2.390423     9.146944  # Hw spce
    895     303    3   0.423800000000     7.646163   -15.530774    11.144982  # Hw spce
    896     303    4  -0.847600000000     7.792935   -14.825566    10.451340  # Ow spce
    897     303    3   0.423800000000     8.647448   -14.342633    10.642611  # Hw spce
    898     304    3   0.423800000000    -8.215378   -13.824713     3.802248  # Hw spce
    899     304    4  -0.847600000000    -9.062080   -14.235364     4.140570  # Ow spce
    900     304    3   0.423800000000    -9.756587   -13.524353     4.250673  # Hw spce
    901     305    3   0.423800000000   -12.861035    -2.190239    -1.854384  # Hw spce
    902     305    4  -0.847600000000   -12.333583    -1.917901    -2.659137  # Ow spce
    903     305    3   0.423800000000   -12.701831    -2.374307    -3.469128  # Hw spce
    904     306    3   0.423800000000    10.656002   -18.750188   -17.478264  # Hw spce
    905     306    4  -0.847600000000    10.951744   -18.526077   -18.406871  # Ow spce
    906     306    3   0.423800000000    10.535073   -17.662246   -18.690033  # Hw spce
    907     307    3   0.423800000000    -0.337052   -16.914468     5.557619  # Hw spce
    908     307    4  -0.847600000000    -1.107803   -16.278277     5.592319  # Ow spce
    909     307    3   0.423800000000    -1.926613   -16.763118     5.899694  # Hw spce
    910     308    3   0.423800000000     3.418528     1.141949   -12.958292  # Hw spce
    911     308    4  -0.847600000000     3.979133     1.326319   -12.150994  # Ow spce
    912     308    3   0.423800000000     4.865396     0.873895   -12.250234  # Hw spce
    913     309    3   0.423800000000    -7.316651   -12.042769     1.833903  # Hw spce
    914     309    4  -0.847600000000    -6.945289   -11.359479     2.462556  # Ow spce
    915     309    3   0.423800000000    -7.033097   -10.450024     2.056131  # Hw spce
    916     310    3   0.423800000000    -9.485555    -4.168050   -11.879685  # Hw spce
    917     310    4  -0.847600000000    -9.184296    -3.803861   -10.998430  # Ow spce
    918     310    3   0.423800000000    -8.424395    -4.354229   -10.652532  # Hw spce
    919     311    3   0.423800000000   -14.417757     8.751509   -12.314817  # Hw spce
    920     311    4  -0.847600000000   -14.694427     9.631191   -11.928017  # Ow spce
    921     311    3   0.423800000000   -15.278165     9.476063   -11.131032  # Hw spce
    922     312    3   0.423800000000   -13.690910    14.132246    13.570668  # Hw spce
    923     312    4  -0.847600000000   -13.952477    13.798340    12.665080  # Ow spce
    924     312    3   0.423800000000   -13.190858    13.288565    12.264997  # Hw spce
    925     313    3   0.423800000000    18.750288    11.542304    -0.068384  # Hw spce
    926     313    4  -0.847600000000    18.502213    12.481780    -0.304695  # Ow spce
    927     313    3   0.423800000000    17.750573    12.472202    -0.964198  # Hw spce
    928     314    3   0.423800000000   -12.307611   -15.065765    13.823731  # Hw spce
    929     314    4  -0.847600000000   -13.022372   -14.645165    13.264972  # Ow spce
    930     314    3   0.423800000000   -12.868712   -13.658320    13.214724  # Hw spce
    931     315    3   0.423800000000   -16.992555    -1.441905    16.526861  # Hw spce
    932     315    4  -0.847600000000   -16.365092    -1.269696    15.767497  # Ow spce
    933     315    3   0.423800000000   -15.749116    -0.519440    16.007685  # Hw spce
    934     316    3   0.423800000000     0.636197    10.437200    -3.718530  # Hw spce
    935     316    4  -0.847600000000     0.216200    10.664995    -4.597002  # Ow spce
    936     316    3   0.423800000000     0.919001    10.996326    -5.226517  # Hw spce
    937     317    3   0.423800000000   -13.810521    -9.227443     5.579688  # Hw spce
    938     317    4  -0.847600000000   -13.379628    -8.333468     5.456645  # Ow spce
    939     317    3   0.423800000000   -12.400237    -8.454900     5.295251  # Hw spce
    940     318    3   0.423800000000    -8.466400   -16.961998    -9.280998  # Hw spce
    941     318    4  -0.847600000000    -8.441617   -17.961525    -9.262750  # Ow spce
    942     318    3   0.423800000000    -7.569435   -18.266386    -8.880183  # Hw spce
    943     319    3   0.423800000000    12.254015     6.236875     1.905028  # Hw spce
    944     319    4  -0.847600000000    12.119965     5.319080     2.278772  # Ow spce
    945     319    3   0.423800000000    13.008944     4.882967     2.418488  # Hw spce
    946     320    3   0.423800000000    11.879098     5.519914    -4.430588  # Hw spce
    947     320    4  -0.847600000000    12.562179     5.010486    -3.907250  # Ow spce
    948     320    3   0.423800000000    12.152182     4.679600    -3.057298  # Hw spce
    949     321    3   0.423800000000     4.209840   -15.766191    -1.087058  # Hw spce
    950     321    4  -0.847600000000     3.699932   -15.480011    -0.275828  # Ow spce
    951     321    3   0.423800000000     3.271643   -14.592760    -0.447159  # Hw spce
    952     322    3   0.423800000000    -0.722653     6.213561   -18.270826  # Hw spce
    953     322    4  -0.847600000000    -0.225423     5.359687   -18.424646  # Ow spce
    954     322    3   0.423800000000    -0.859774     4.658613   -18.750367  # Hw spce
    955     323    3   0.423800000000     4.747934   -13.773705    -7.731109  # Hw spce
    956     323    4  -0.847600000000     5.093631   -14.710894    -7.777703  # Ow spce
    957     323    3   0.423800000000     6.088889   -14.694662    -7.873605  # Hw spce
    958     324    3   0.423800000000    -9.600643     4.769068    -1.437038  # Hw spce
    959     324    4  -0.847600000000    -9.195306     4.674714    -2.346322  # Ow spce
    960     324    3   0.423800000000    -8.334001     4.171416    -2.276713  # Hw spce
    961     325    3   0.423800000000     5.326393     2.772496   -16.730559  # Hw spce
    962     325    4  -0.847600000000     5.968777     2.254936   -16.165338  # Ow spce
    963     325    3   0.423800000000     6.861133     2.706125   -16.176670  # Hw spce
    964     326    3   0.423800000000   -13.611684    11.194710    15.494508  # Hw spce
    965     326    4  -0.847600000000   -12.830361    11.806828    15.616355  # Ow spce
    966     326    3   0.423800000000   -11.981822    11.282683    15.543874  # Hw spce
    967     327    3   0.423800000000   -14.176819    17.479933   -10.908416  # Hw spce
    968     327    4  -0.847600000000   -15.102068    17.752386   -10.644441  # Ow spce
    969     327    3   0.423800000000   -15.159011    18.750211   -10.611231  # Hw spce
    970     328    3   0.423800000000    -1.591342    -5.529592   -10.083133  # Hw spce
    971     328    4  -0.847600000000    -0.824547    -6.066149    -9.730811  # Ow spce
    972     328    3   0.423800000000    -0.082655    -5.451366    -9.463158  # Hw spce
    973     329    3   0.423800000000    -9.235194    17.212068     7.257224  # Hw spce
    974     329    4  -0.847600000000    -8.357444    16.733765     7.285169  # Ow spce
    975     329    3   0.423800000000    -8.233384    16.215140     6.439216  # Hw spce
    976     330    3   0.423800000000    -1.343983   -18.100386     8.389880  # Hw spce
    977     330    4  -0.847600000000    -0.692783   -17.344455     8.322747  # Ow spce
    978     330    3   0.423800000000     0.093170   -17.528159     8.913112  # Hw spce
    979     331    3   0.423800000000     4.284951    -4.869500    14.218709  # Hw spce
    980     331    4  -0.847600000000     3.552286    -4.189447    14.245728  # Ow spce
    981     331    3   0.423800000000     3.949324    -3.271648    14.247826  # Hw spce
    982     332    3   0.423800000000   -12.729900    14.024819    -8.695498  # Hw spce
    983     332    4  -0.847600000000   -12.188038    13.738667    -7.905243  # Ow spce
    984     332    3   0.423800000000   -12.248583    12.745915    -7.801427  # Hw spce
    985     333    3   0.423800000000    10.343730    -1.300630     9.259812  # Hw spce
    986     333    4  -0.847600000000    10.662908    -2.243086     9.160297  # Ow spce
    987     333    3   0.423800000000    10.229809    -2.816828     9.855456  # Hw spce
    988     334    3   0.423800000000    10.558423   -13.049030   -15.639238  # Hw spce
    989     334    4  -0.847600000000    11.326559   -12.953654   -16.272383  # Ow spce
    990     334    3   0.423800000000    10.979862   -12.761949   -17.190560  # Hw spce
    991     335    3   0.423800000000     1.382635    16.364810   -13.207059  # Hw spce
    992     335    4  -0.847600000000     0.790613    16.903512   -12.607634  # Ow spce
    993     335    3   0.423800000000     1.347281    17.366530   -11.917899  # Hw spce
    994     336    3   0.423800000000    -2.202745    -8.872541     9.758555  # Hw spce
    995     336    4  -0.847600000000    -1.662789    -8.279883     9.160890  # Ow spce
    996     336    3   0.423800000000    -2.176637    -7.444005     8.967840  # Hw spce
    997     337    3   0.423800000000    -8.190974     3.837019     0.837258  # Hw spce
    998     337    4  -0.847600000000    -7.834813     4.765973     0.938221  # Ow spce
    999     337    3   0.423800000000    -6.838055     4.734570     1.012291  # Hw spce
   1000     338    3   0.423800000000     2.489503     0.411962     9.197649  # Hw spce
   1001     338    4  -0.847600000000     3.158514     1.038314     8.797514  # Ow spce
   1002     338    3   0.423800000000     2.703357     1.633609     8.135354  # Hw spce
   1003     339    3   0.423800000000    17.540205    11.196508    12.545224  # Hw spce
   1004     339    4  -0.847600000000    17.790468    10.645501    13.341315  # Ow spce
   1005     339    3   0.423800000000    18.750230    10.373830    13.270251  # Hw spce
   1006     340    3   0.423800000000   -11.483877    -6.328568   -10.602457  # Hw spce
   1007     340    4  -0.847600000000   -10.565259    -6.170976   -10.240096  # Ow spce
   1008     340    3   0.423800000000   -10.623560    -5.601625    -9.420072  # Hw spce
   1009     341    3   0.423800000000     3.926255    -0.115999   -16.291729  # Hw spce
   1010     341    4  -0.847600000000     4.321044     0.181290   -15.422384  # Ow spce
   1011     341    3   0.423800000000     4.811153    -0.581567   -15.000673  # Hw spce
   1012     342    3   0.423800000000     2.242842   -13.866057   -18.746120  # Hw spce
   1013     342    4  -0.847600000000     2.373741   -12.926325   -18.430258  # Ow spce
   1014     342    3   0.423800000000     3.310044   -12.813886   -18.097552  # Hw spce
   1015     343    3   0.423800000000     2.878602    -4.978308   -10.013017  # Hw spce
   1016     343    4  -0.847600000000     3.803406    -5.351925    -9.941268  # Ow spce
   1017     343    3   0.423800000000     4.439921    -4.621144    -9.694677  # Hw spce
   1018     344    3   0.423800000000     7.181322     2.383942     3.670147  # Hw spce
   1019     344    4  -0.847600000000     7.757071     1.566553     3.650412  # Ow spce
   1020     344    3   0.423800000000     7.178138     0.751249     3.639647  # Hw spce
   1021     345    3   0.423800000000    15.962938   -14.201661     6.107662  # Hw spce
   1022     345    4  -0.847600000000    15.777237   -13.219066     6.112399  # Ow spce
   1023     345    3   0.423800000000    16.641712   -12.716438     6.105483  # Hw spce
   1024     346    3   0.423800000000     4.313656     9.132381   -14.090608  # Hw spce
   1025     346    4  -0.847600000000     5.135327     8.907562   -13.566858  # Ow spce
   1026     346    3   0.423800000000     5.253894     7.914914   -13.542565  # Hw spce
   1027     347    3   0.423800000000    -4.780227     5.837464   -14.339982  # Hw spce
   1028     347    4  -0.847600000000    -4.611312     4.851873   -14.331134  # Ow spce
   1029     347    3   0.423800000000    -3.626258     4.682805   -14.298198  # Hw spce
   1030     348    3   0.423800000000    18.139314     0.382905   -15.832730  # Hw spce
   1031     348    4  -0.847600000000    17.945330    -0.085553   -14.970804  # Ow spce
   1032     348    3   0.423800000000    18.728582     0.009139   -14.356354  # Hw spce
   1033     349    3   0.423800000000    -4.151975    -0.342868     2.818257  # Hw spce
   1034     349    4  -0.847600000000    -4.784639    -0.456226     2.052172  # Ow spce
   1035     349    3   0.423800000000    -4.598137    -1.323961     1.591464  # Hw spce
   1036     350    3   0.423800000000    18.747714   -15.610443    -0.623104  # Hw spce
   1037     350    4  -0.847600000000    18.057759   -15.627453    -1.346757  # Ow spce
   1038     350    3   0.423800000000    18.016530   -16.543142    -1.746523  # Hw spce
   1039     351    3   0.423800000000     9.778373    -9.943380    13.835891  # Hw spce
   1040     351    4  -0.847600000000     9.695850   -10.623565    14.564271  # Ow spce
   1041     351    3   0.423800000000     8.960845   -10.356850    15.187673  # Hw spce
   1042     352    3   0.423800000000     4.103830    -2.490312   -18.236305  # Hw spce
   1043     352    4  -0.847600000000     3.221624    -2.937220   -18.088028  # Ow spce
   1044     352    3   0.423800000000     3.292996    -3.567408   -17.314873  # Hw spce
   1045     353    3   0.423800000000     7.902065     4.686224     2.311468  # Hw spce
   1046     353    4  -0.847600000000     8.451316     5.440235     2.671733  # Ow spce
   1047     353    3   0.423800000000     9.381277     5.119229     2.850971  # Hw spce
   1048     354    3   0.423800000000     8.334208     8.642719    15.404445  # Hw spce
   1049     354    4  -0.847600000000     9.125338     8.920942    14.859737  # Ow spce
   1050     354    3   0.423800000000     9.401745     8.166771    14.264066  # Hw spce
   1051     355    3   0.423800000000   -13.194423     9.709347     6.651082  # Hw spce
   1052     355    4  -0.847600000000   -12.287793    10.122484     6.736750  # Ow spce
   1053     355    3   0.423800000000   -12.383368    11.094701     6.950431  # Hw spce
   1054     356    3   0.423800000000    10.588359    -2.456771   -13.007964  # Hw spce
   1055     356    4  -0.847600000000    11.350904    -2.926046   -12.562648  # Ow spce
   1056     356    3   0.423800000000    11.811590    -3.516537   -13.225286  # Hw spce
   1057     357    3   0.423800000000    16.910446   -16.475017   -15.463065  # Hw spce
   1058     357    4  -0.847600000000    16.474671   -15.609976   -15.711671  # Ow spce
   1059     357    3   0.423800000000    15.684588   -15.452422   -15.119265  # Hw spce
   1060     358    3   0.423800000000     3.804875   -18.564313    -9.554093  # Hw spce
   1061     358    4  -0.847600000000     3.348418   -17.680081    -9.455197  # Ow spce
   1062     358    3   0.423800000000     2.953402   -17.609487    -8.539239  # Hw spce
   1063     359    3   0.423800000000    11.366576     4.113199    18.172254  # Hw spce
   1064     359    4  -0.847600000000    12.068725     4.632245    17.684835  # Ow spce
   1065     359    3   0.423800000000    12.545664     4.028966    17.045631  # Hw spce
   1066     360    3   0.423800000000    10.970645    18.478008   -12.197678  # Hw spce
   1067     360    4  -0.847600000000    10.440048    17.883917   -12.802261  # Ow spce
   1068     360    3   0.423800000000    11.060321    17.384007   -13.406704  # Hw spce
   1069     361    3   0.423800000000     4.962419   -13.518079     5.609147  # Hw spce
   1070     361    4  -0.847600000000     5.912243   -13.324575     5.854890  # Ow spce
   1071     361    3   0.423800000000     6.249463   -12.559913     5.305732  # Hw spce
   1072     362    3   0.423800000000   -17.070113     1.658721   -14.312824  # Hw spce
   1073     362    4  -0.847600000000   -18.055005     1.588601   -14.471163  # Ow spce
   1074     362    3   0.423800000000   -18.432111     2.500289   -14.634308  # Hw spce
   1075     363    3   0.423800000000     5.672991   -18.105885     8.545771  # Hw spce
   1076     363    4  -0.847600000000     5.806006   -18.754937     7.796746  # Ow spce
   1077     363    3   0.423800000000     6.637802   -18.518466     7.294555  # Hw spce
   1078     364    3   0.423800000000    14.615847    -4.524239   -12.560492  # Hw spce
   1079     364    4  -0.847600000000    15.219804    -4.602399   -13.353667  # Ow spce
   1080     364    3   0.423800000000    15.765815    -3.769107   -13.440250  # Hw spce
   1081     365    3   0.423800000000   -14.513268    -0.749076   -15.173104  # Hw spce
   1082     365    4  -0.847600000000   -14.988318    -0.584038   -16.037448  # Ow spce
   1083     365    3   0.423800000000   -14.411469    -0.883729   -16.797337  # Hw spce
   1084     366    3   0.423800000000    13.424181     8.046733    13.876981  # Hw spce
   1085     366    4  -0.847600000000    12.957343     7.203787    13.609579  # Ow spce
   1086     366    3   0.423800000000    12.154981     7.068345    14.190845  # Hw spce
   1087     367    3   0.423800000000    10.653638    11.610220   -11.930647  # Hw spce
   1088     367    4  -0.847600000000    11.647494    11.499691   -11.924884  # Ow spce
   1089     367    3   0.423800000000    11.875019    10.527265   -11.976063  # Hw spce
   1090     368    3   0.423800000000   -18.750545    -9.102707    -4.905616  # Hw spce
   1091     368    4  -0.847600000000   -18.045087    -8.394596    -4.875490  # Ow spce
   1092     368    3   0.423800000000   -18.478140    -7.494477    -4.828053  # Hw spce
   1093     369    3   0.423800000000    -4.592481    -0.644127    -8.145553  # Hw spce
   1094     369    4  -0.847600000000    -4.205549    -0.318029    -7.283031  # Ow spce
   1095     369    3   0.423800000000    -4.941795     0.005249    -6.688530  # Hw spce
   1096     370    3   0.423800000000     9.433150    -0.263540    13.669731  # Hw spce
   1097     370    4  -0.847600000000     9.321853    -1.213476    13.961679  # Ow spce
   1098     370    3   0.423800000000     8.347844    -1.432566    14.019180  # Hw spce
   1099     371    3   0.423800000000     1.031782   -17.936624   -11.048339  # Hw spce
   1100     371    4  -0.847600000000     0.265992   -17.652542   -10.471396  # Ow spce
   1101     371    3   0.423800000000     0.576056   -16.954708    -9.825728  # Hw spce
   1102     372    3   0.423800000000    -4.334556    12.150333     9.144804  # Hw spce
   1103     372    4  -0.847600000000    -4.318124    12.396950    10.113778  # Ow spce
   1104     372    3   0.423800000000    -5.063152    11.929301    10.589421  # Hw spce
   1105     373    3   0.423800000000   -18.266097    11.526285    -6.685062  # Hw spce
   1106     373    4  -0.847600000000   -17.792615    11.050821    -7.426513  # Ow spce
   1107     373    3   0.423800000000   -17.994937    11.502973    -8.295204  # Hw spce
   1108     374    3   0.423800000000     1.637957    -5.584562    11.251513  # Hw spce
   1109     374    4  -0.847600000000     2.273877    -5.769175    10.502164  # Ow spce
   1110     374    3   0.423800000000     3.129325    -5.276555    10.661956  # Hw spce
   1111     375    3   0.423800000000    -5.989872   -17.992524     3.510068  # Hw spce
   1112     375    4  -0.847600000000    -5.061455   -17.853284     3.854530  # Ow spce
   1113     375    3   0.423800000000    -4.954427   -16.903928     4.149941  # Hw spce
   1114     376    3   0.423800000000    15.784011   -13.940360   -12.822556  # Hw spce
   1115     376    4  -0.847600000000    15.979223   -13.033569   -12.448894  # Ow spce
   1116     376    3   0.423800000000    16.349338   -13.126557   -11.524574  # Hw spce
   1117     377    3   0.423800000000   -10.036413     0.561434    17.154335  # Hw spce
   1118     377    4  -0.847600000000   -10.451983    -0.334536    16.997683  # Ow spce
   1119     377    3   0.423800000000   -10.261604    -0.931160    17.777295  # Hw spce
   1120     378    3   0.423800000000    15.345935    11.980516    -9.154169  # Hw spce
   1121     378    4  -0.847600000000    14.776195    11.771611    -8.359339  # Ow spce
   1122     378    3   0.423800000000    13.815457    11.930281    -8.586948  # Hw spce
   1123     379    3   0.423800000000     2.209177    17.148730   -18.034022  # Hw spce
   1124     379    4  -0.847600000000     1.744922    16.308181   -17.754835  # Ow spce
   1125     379    3   0.423800000000     0.826639    16.287503   -18.150217  # Hw spce
   1126     380    3   0.423800000000     3.437817     3.937832     9.461148  # Hw spce
   1127     380    4  -0.847600000000     4.183908     4.508771     9.118543  # Ow spce
   1128     380    3   0.423800000000     4.775575     3.963218     8.524993  # Hw spce
   1129     381    3   0.423800000000    -0.770335    13.255650    -5.333539  # Hw spce
   1130     381    4  -0.847600000000    -1.111251    14.069152    -4.862380  # Ow spce
   1131     381    3   0.423800000000    -2.110328    14.041273    -4.829713  # Hw spce
   1132     382    3   0.423800000000    16.889149   -14.530503     8.718123  # Hw spce
   1133     382    4  -0.847600000000    16.574955   -13.581667     8.749623  # Ow spce
   1134     382    3   0.423800000000    15.599957   -13.560582     8.970835  # Hw spce
   1135     383    3   0.423800000000     0.911743     8.659979     8.469253  # Hw spce
   1136     383    4  -0.847600000000     0.444989     9.440553     8.053507  # Ow spce
   1137     383    3   0.423800000000     1.032230     9.845410     7.352623  # Hw spce
   1138     384    3   0.423800000000     3.198321     6.079918    -1.324898  # Hw spce
   1139     384    4  -0.847600000000     2.762682     6.451127    -0.504885  # Ow spce
   1140     384    3   0.423800000000     2.679724     5.730684     0.183650  # Hw spce
   1141     385    3   0.423800000000    -1.590144     2.168325     7.812472  # Hw spce
   1142     385    4  -0.847600000000    -1.213496     2.708940     7.060228  # Ow spce
   1143     385    3   0.423800000000    -0.827311     2.096565     6.370404  # Hw spce
   1144     386    3   0.423800000000     4.916886    17.173994     5.119638  # Hw spce
   1145     386    4  -0.847600000000     5.144472    18.047453     4.689205  # Ow spce
   1146     386    3   0.423800000000     4.506005    18.750142     5.003192  # Hw spce
   1147     387    3   0.423800000000   -10.404761    18.750917    -9.426489  # Hw spce
   1148     387    4  -0.847600000000   -11.254908    18.253581    -9.253554  # Ow spce
   1149     387    3   0.423800000000   -12.020025    18.747735    -9.666356  # Hw spce
   1150     388    3   0.423800000000     8.760221     2.695455    -5.194357  # Hw spce
   1151     388    4  -0.847600000000     9.058547     3.618158    -4.950185  # Ow spce
   1152     388    3   0.423800000000     9.899470     3.838325    -5.444528  # Hw spce
   1153     389    3   0.423800000000     0.905355    -1.226685     6.211461  # Hw spce
   1154     389    4  -0.847600000000     0.333855    -0.417563     6.348242  # Ow spce
   1155     389    3   0.423800000000    -0.551713    -0.694195     6.721395  # Hw spce
   1156     390    3   0.423800000000   -18.683227    17.010993   -15.390126  # Hw spce
   1157     390    4  -0.847600000000   -17.928918    17.637780   -15.585462  # Ow spce
   1158     390    3   0.423800000000   -18.180654    18.235239   -16.346823  # Hw spce
   1159     391    3   0.423800000000    14.664933    18.359632     3.548638  # Hw spce
   1160     391    4  -0.847600000000    15.553020    17.902496     3.500397  # Ow spce
   1161     391    3   0.423800000000    15.430902    16.920741     3.646152  # Hw spce
   1162     392    3   0.423800000000    -9.406489    10.807863    11.474928  # Hw spce
   1163     392    4  -0.847600000000    -9.069541    11.668582    11.093315  # Ow spce
   1164     392    3   0.423800000000    -9.800541    12.112061    10.574698  # Hw spce
   1165     393    3   0.423800000000    -3.868818     6.183939    14.613423  # Hw spce
   1166     393    4  -0.847600000000    -3.352595     6.447750    13.798612  # Ow spce
   1167     393    3   0.423800000000    -3.119140     7.418661    13.851800  # Hw spce
   1168     394    3   0.423800000000    -9.728890    -0.445542    10.512227  # Hw spce
   1169     394    4  -0.847600000000    -9.280204    -0.988141     9.802109  # Ow spce
   1170     394    3   0.423800000000    -9.140615    -1.921135    10.133829  # Hw spce
   1171     395    3   0.423800000000     9.984720     1.108306    -9.898376  # Hw spce
   1172     395    4  -0.847600000000     9.209347     0.917547   -10.500379  # Ow spce
   1173     395    3   0.423800000000     8.857040     0.001245   -10.309933  # Hw spce
   1174     396    3   0.423800000000     9.329340     7.360570     7.160311  # Hw spce
   1175     396    4  -0.847600000000     8.477743     7.016849     6.764536  # Ow spce
   1176     396    3   0.423800000000     7.742555     7.673101     6.934336  # Hw spce
   1177     397    3   0.423800000000   -10.009868    -1.859928    -0.002278  # Hw spce
   1178     397    4  -0.847600000000    -9.040313    -2.066391     0.129390  # Ow spce
   1179     397    3   0.423800000000    -8.512885    -1.217039     0.108902  # Hw spce
   1180     398    3   0.423800000000    -2.912459    -5.725832     4.725790  # Hw spce
   1181     398    4  -0.847600000000    -3.836331    -5.654924     4.349714  # Ow spce
   1182     398    3   0.423800000000    -4.377301    -6.442870     4.643810  # Hw spce
   1183     399    3   0.423800000000     3.659577   -13.837898     2.314337  # Hw spce
   1184     399    4  -0.847600000000     4.436719   -14.451500     2.174538  # Ow spce
   1185     399    3   0.423800000000     4.903434   -14.602153     3.046020  # Hw spce
   1186     400    3   0.423800000000    15.621298     5.789281    -5.465860  # Hw spce
   1187     400    4  -0.847600000000    16.390757     5.225299    -5.765622  # Ow spce
   1188     400    3   0.423800000000    17.181029     5.809967    -5.949012  # Hw spce
   1189     401    3   0.423800000000    -9.179582   -13.593066     8.255108  # Hw spce
   1190     401    4  -0.847600000000   -10.049030   -13.697743     7.772300  # Ow spce
   1191     401    3   0.423800000000   -10.172196   -14.655197     7.511321  # Hw spce
   1192     402    3   0.423800000000   -18.424685     6.694575   -13.977108  # Hw spce
   1193     402    4  -0.847600000000   -17.741986     7.246721   -13.498509  # Ow spce
   1194     402    3   0.423800000000   -16.892323     7.256828   -14.025739  # Hw spce
   1195     403    3   0.423800000000     7.929227   -17.657577   -10.007307  # Hw spce
   1196     403    4  -0.847600000000     8.789087   -17.154820   -10.096063  # Ow spce
   1197     403    3   0.423800000000     8.621661   -16.179770    -9.950305  # Hw spce
   1198     404    3   0.423800000000   -11.725124     8.631397     9.018946  # Hw spce
   1199     404    4  -0.847600000000   -12.524362     8.816924     9.590609  # Ow spce
   1200     404    3   0.423800000000   -12.839838     7.965213    10.009015  # Hw spce
   1201     405    3   0.423800000000    12.120074     8.051985    10.407700  # Hw spce
   1202     405    4  -0.847600000000    12.677415     7.362654    10.870512  # Ow spce
   1203     405    3   0.423800000000    13.158207     6.810524    10.189344  # Hw spce
   1204     406    3   0.423800000000   -12.713342     9.295746    -5.061857  # Hw spce
   1205     406    4  -0.847600000000   -13.083837     8.411862    -4.776406  # Ow spce
   1206     406    3   0.423800000000   -13.210814     7.828829    -5.578870  # Hw spce
   1207     407    3   0.423800000000   -13.135303    -8.276623    -2.648783  # Hw spce
   1208     407    4  -0.847600000000   -13.319450    -7.681455    -3.431001  # Ow spce
   1209     407    3   0.423800000000   -12.624650    -7.831019    -4.134480  # Hw spce
   1210     408    3   0.423800000000    -4.695980   -12.443894     9.292995  # Hw spce
   1211     408    4  -0.847600000000    -4.023111   -11.966576     8.727828  # Ow spce
   1212     408    3   0.423800000000    -3.228893   -11.726792     9.286149  # Hw spce
   1213     409    3   0.423800000000   -13.028271    17.310091     1.942035  # Hw spce
   1214     409    4  -0.847600000000   -13.827222    17.473623     2.520770  # Ow spce
   1215     409    3   0.423800000000   -14.560136    16.844114     2.262786  # Hw spce
   1216     410    3   0.423800000000    -1.404546    11.080961   -18.627142  # Hw spce
   1217     410    4  -0.847600000000    -1.436828    10.082796   -18.575906  # Ow spce
   1218     410    3   0.423800000000    -0.512140     9.714093   -18.670820  # Hw spce
   1219     411    3   0.423800000000   -16.548171    10.348805   -14.050070  # Hw spce
   1220     411    4  -0.847600000000   -17.110040    11.106641   -13.718425  # Ow spce
   1221     411    3   0.423800000000   -18.012788    10.763579   -13.458897  # Hw spce
   1222     412    3   0.423800000000    13.139800    -6.820367    -6.582815  # Hw spce
   1223     412    4  -0.847600000000    12.680013    -7.380041    -7.272279  # Ow spce
   1224     412    3   0.423800000000    11.917093    -7.869347    -6.849749  # Hw spce
   1225     413    3   0.423800000000    -8.929479    -6.523363     9.964011  # Hw spce
   1226     413    4  -0.847600000000    -9.025012    -5.547587     9.767198  # Ow spce
   1227     413    3   0.423800000000    -9.994516    -5.302667     9.758533  # Hw spce
   1228     414    3   0.423800000000    -1.588034    -0.247726   -10.314195  # Hw spce
   1229     414    4  -0.847600000000    -2.494155    -0.410433    -9.923718  # Ow spce
   1230     414    3   0.423800000000    -2.773152    -1.352469   -10.110075  # Hw spce
   1231     415    3   0.423800000000    -7.459904    -2.699481    12.357322  # Hw spce
   1232     415    4  -0.847600000000    -6.653945    -2.910180    12.910528  # Ow spce
   1233     415    3   0.423800000000    -6.317959    -2.073135    13.342349  # Hw spce
   1234     416    3   0.423800000000   -15.217643     8.440112    -7.588036  # Hw spce
   1235     416    4  -0.847600000000   -15.218348     9.388860    -7.904071  # Ow spce
   1236     416    3   0.423800000000   -14.419345     9.547569    -8.484075  # Hw spce
   1237     417    3   0.423800000000    -4.567912     8.158250    -7.164420  # Hw spce
   1238     417    4  -0.847600000000    -4.347078     7.647355    -6.333626  # Ow spce
   1239     417    3   0.423800000000    -5.165333     7.175723    -6.004957  # Hw spce
   1240     418    3   0.423800000000     0.817264     2.077345   -10.518601  # Hw spce
   1241     418    4  -0.847600000000     0.198201     1.787540    -9.788688  # Ow spce
   1242     418    3   0.423800000000    -0.657876     2.300172    -9.854571  # Hw spce
   1243     419    3   0.423800000000     9.344591   -10.850006    11.094467  # Hw spce
   1244     419    4  -0.847600000000     9.866911   -11.548544    11.583574  # Ow spce
   1245     419    3   0.423800000000    10.357423   -12.119741    10.925448  # Hw spce
   1246     420    3   0.423800000000     4.248876    13.694899    -8.542406  # Hw spce
   1247     420    4  -0.847600000000     3.350358    14.131500    -8.587647  # Ow spce
   1248     420    3   0.423800000000     3.461629    15.125212    -8.575206  # Hw spce
   1249     421    3   0.423800000000     5.421548    -4.097381    -4.298089  # Hw spce
   1250     421    4  -0.847600000000     5.282162    -3.447415    -5.045161  # Ow spce
   1251     421    3   0.423800000000     6.157272    -3.259505    -5.491110  # Hw spce
   1252     422    3   0.423800000000   -14.696779    -5.321328    13.659831  # Hw spce
   1253     422    4  -0.847600000000   -14.898978    -5.971099    12.927088  # Ow spce
   1254     422    3   0.423800000000   -15.146391    -6.854894    13.324196  # Hw spce
   1255     423    3   0.423800000000    12.381091   -11.222365    -7.462497  # Hw spce
   1256     423    4  -0.847600000000    12.030957   -10.716514    -6.674131  # Ow spce
   1257     423    3   0.423800000000    11.068174   -10.491250    -6.823478  # Hw spce
   1258     424    3   0.423800000000    -5.618787   -10.412483    11.218693  # Hw spce
   1259     424    4  -0.847600000000    -5.440594    -9.463959    11.480515  # Ow spce
   1260     424    3   0.423800000000    -4.509830    -9.386016    11.837730  # Hw spce
   1261     425    3   0.423800000000    -6.662020     0.560915   -15.946917  # Hw spce
   1262     425    4  -0.847600000000    -7.412160     0.894756   -16.517742  # Ow spce
   1263     425    3   0.423800000000    -7.072797     1.078211   -17.440334  # Hw spce
   1264     426    3   0.423800000000     8.046775   -12.821332     0.960553  # Hw spce
   1265     426    4  -0.847600000000     7.142544   -13.247305     0.930337  # Ow spce
   1266     426    3   0.423800000000     6.524358   -12.761356     1.548156  # Hw spce
   1267     427    3   0.423800000000    17.746822     4.402463    12.659295  # Hw spce
   1268     427    4  -0.847600000000    16.876477     4.894896    12.656410  # Ow spce
   1269     427    3   0.423800000000    16.122334     4.238710    12.630173  # Hw spce
   1270     428    3   0.423800000000   -13.602240    -3.922214     0.861213  # Hw spce
   1271     428    4  -0.847600000000   -13.396244    -2.967086     1.074039  # Ow spce
   1272     428    3   0.423800000000   -12.792007    -2.925740     1.869769  # Hw spce
   1273     429    3   0.423800000000     7.861332    15.299844   -14.334144  # Hw spce
   1274     429    4  -0.847600000000     7.997639    14.603213   -13.629782  # Ow spce
   1275     429    3   0.423800000000     7.160221    14.504418   -13.092223  # Hw spce
   1276     430    3   0.423800000000    11.483428    14.612233     4.626578  # Hw spce
   1277     430    4  -0.847600000000    12.361572    15.084161     4.704986  # Ow spce
   1278     430    3   0.423800000000    12.203548    16.063424     4.831755  # Hw spce
   1279     431    3   0.423800000000    11.411094   -16.190478   -15.830793  # Hw spce
   1280     431    4  -0.847600000000    11.593595   -15.721253   -16.694808  # Ow spce
   1281     431    3   0.423800000000    12.447763   -16.063692   -17.086130  # Hw spce
   1282     432    3   0.423800000000    14.780745    10.949088    -5.734571  # Hw spce
   1283     432    4  -0.847600000000    14.456231    11.858744    -5.475307  # Ow spce
   1284     432    3   0.423800000000    15.085868    12.260211    -4.810189  # Hw spce
   1285     433    3   0.423800000000    -1.410619   -14.159856    -7.288443  # Hw spce
   1286     433    4  -0.847600000000    -2.205054   -13.552526    -7.293298  # Ow spce
   1287     433    3   0.423800000000    -3.037303   -14.091310    -7.162633  # Hw spce
   1288     434    3   0.423800000000    -4.126325    -2.895922   -11.957919  # Hw spce
   1289     434    4  -0.847600000000    -5.041002    -2.491962   -11.944451  # Ow spce
   1290     434    3   0.423800000000    -5.726947    -3.219280   -11.966543  # Hw spce
   1291     435    3   0.423800000000   -17.220172    -8.445379   -15.051708  # Hw spce
   1292     435    4  -0.847600000000   -18.069294    -8.853030   -15.387583  # Ow spce
   1293     435    3   0.423800000000   -18.750077    -8.134672   -15.530747  # Hw spce
   1294     436    3   0.423800000000    15.566552    12.726969     0.687359  # Hw spce
   1295     436    4  -0.847600000000    14.641592    12.366450     0.567048  # Ow spce
   1296     436    3   0.423800000000    14.166777    12.366417     1.447133  # Hw spce
   1297     437    3   0.423800000000     8.677188    14.673051    -3.690662  # Hw spce
   1298     437    4  -0.847600000000     7.997276    15.215478    -4.184112  # Ow spce
   1299     437    3   0.423800000000     7.275663    14.613853    -4.526634  # Hw spce
   1300     438    3   0.423800000000   -17.988711    18.583917     2.780032  # Hw spce
   1301     438    4  -0.847600000000   -18.694852    18.165911     3.351552  # Ow spce
   1302     438    3   0.423800000000   -18.750157    17.187785     3.151029  # Hw spce
   1303     439    3   0.423800000000   -15.391290     4.833025    -4.486507  # Hw spce
   1304     439    4  -0.847600000000   -16.159766     5.206395    -5.006160  # Ow spce
   1305     439    3   0.423800000000   -16.689961     5.820910    -4.421982  # Hw spce
   1306     440    3   0.423800000000    16.559228   -18.750393    -5.184896  # Hw spce
   1307     440    4  -0.847600000000    16.174143   -18.022028    -5.751636  # Ow spce
   1308     440    3   0.423800000000    15.751867   -18.420997    -6.565582  # Hw spce
   1309     441    3   0.423800000000     8.769987   -16.566955     4.262464  # Hw spce
   1310     441    4  -0.847600000000     7.898554   -17.033671     4.413394  # Ow spce
   1311     441    3   0.423800000000     8.013124   -18.013909     4.252132  # Hw spce
   1312     442    3   0.423800000000    10.640779   -12.156214   -11.166355  # Hw spce
   1313     442    4  -0.847600000000     9.972745   -12.767953   -11.590036  # Ow spce
   1314     442    3   0.423800000000     9.048509   -12.451660   -11.376152  # Hw spce
   1315     443    3   0.423800000000   -13.981830    -4.004246    -9.303706  # Hw spce
   1316     443    4  -0.847600000000   -13.303027    -3.511378    -8.759365  # Ow spce
   1317     443    3   0.423800000000   -13.577684    -3.518764    -7.797851  # Hw spce
   1318     444    3   0.423800000000    -0.439580   -12.526348    -2.706441  # Hw spce
   1319     444    4  -0.847600000000    -1.104543   -12.520942    -3.453299  # Ow spce
   1320     444    3   0.423800000000    -2.014246   -12.323095    -3.088202  # Hw spce
   1321     445    3   0.423800000000    16.731898     6.325263    16.380938  # Hw spce
   1322     445    4  -0.847600000000    17.095456     7.256318    16.349913  # Ow spce
   1323     445    3   0.423800000000    18.087697     7.222873    16.230170  # Hw spce
   1324     446    3   0.423800000000     6.974521   -10.553842     8.559887  # Hw spce
   1325     446    4  -0.847600000000     6.166539   -10.503030     9.146899  # Ow spce
   1326     446    3   0.423800000000     6.146591    -9.617254     9.610583  # Hw spce
   1327     447    3   0.423800000000    -5.132743    17.402354     1.697814  # Hw spce
   1328     447    4  -0.847600000000    -6.061687    17.036733     1.639634  # Ow spce
   1329     447    3   0.423800000000    -6.715030    17.792392     1.593580  # Hw spce
   1330     448    3   0.423800000000    18.720901    -3.916745    12.737322  # Hw spce
   1331     448    4  -0.847600000000    18.071087    -4.670984    12.643166  # Ow spce
   1332     448    3   0.423800000000    17.142759    -4.304973    12.578037  # Hw spce
   1333     449    3   0.423800000000     4.506498    18.663555   -14.127094  # Hw spce
   1334     449    4  -0.847600000000     3.514069    18.758293   -14.048928  # Ow spce
   1335     449    3   0.423800000000     3.067598    18.041948   -14.585130  # Hw spce
   1336     450    3   0.423800000000   -11.620534    -3.463532    15.377074  # Hw spce
   1337     450    4  -0.847600000000   -11.068712    -2.971223    16.050219  # Ow spce
   1338     450    3   0.423800000000   -10.649849    -3.625141    16.680254  # Hw spce
   1339     451    3   0.423800000000    10.603453    -2.770401     5.825819  # Hw spce
   1340     451    4  -0.847600000000    11.100821    -2.153367     5.215988  # Ow spce
   1341     451    3   0.423800000000    10.450960    -1.565564     4.734150  # Hw spce
   1342     452    3   0.423800000000    12.954967    -7.634910   -12.525160  # Hw spce
   1343     452    4  -0.847600000000    12.606593    -7.146860   -13.325436  # Ow spce
   1344     452    3   0.423800000000    13.370255    -6.737684   -13.824832  # Hw spce
   1345     453    3   0.423800000000   -13.359012   -17.804325    10.702674  # Hw spce
   1346     453    4  -0.847600000000   -13.143407   -18.734638    10.405973  # Ow spce
   1347     453    3   0.423800000000   -12.231616   -18.750740     9.995636  # Hw spce
   1348     454    3   0.423800000000    -5.824002     8.551380     9.250456  # Hw spce
   1349     454    4  -0.847600000000    -5.842534     9.505685     9.548716  # Ow spce
   1350     454    3   0.423800000000    -6.514555     9.612898    10.281446  # Hw spce
   1351     455    3   0.423800000000    -8.003962    -3.831955     2.438251  # Hw spce
   1352     455    4  -0.847600000000    -8.752764    -4.437451     2.168675  # Ow spce
   1353     455    3   0.423800000000    -8.388136    -5.202609     1.638036  # Hw spce
   1354     456    3   0.423800000000    12.360145     7.833796    17.634275  # Hw spce
   1355     456    4  -0.847600000000    12.841552     7.407022    16.868695  # Ow spce
   1356     456    3   0.423800000000    13.754617     7.806149    16.784976  # Hw spce
   1357     457    3   0.423800000000     4.966959    -5.183473    -0.231872  # Hw spce
   1358     457    4  -0.847600000000     5.180460    -5.000029    -1.191438  # Ow spce
   1359     457    3   0.423800000000     4.690372    -5.650122    -1.772120  # Hw spce
   1360     458    3   0.423800000000   -15.124745    11.877662    -1.357628  # Hw spce
   1361     458    4  -0.847600000000   -15.843193    12.368477    -1.850510  # Ow spce
   1362     458    3   0.423800000000   -16.735619    11.994010    -1.598816  # Hw spce
   1363     459    3   0.423800000000    11.470672    -4.575348   -15.751150  # Hw spce
   1364     459    4  -0.847600000000    11.868088    -3.859982   -16.325878  # Ow spce
   1365     459    3   0.423800000000    12.659687    -3.461591   -15.862569  # Hw spce
   1366     460    3   0.423800000000   -10.251210     3.163282     9.024368  # Hw spce
   1367     460    4  -0.847600000000   -11.001208     2.915970     8.410902  # Ow spce
   1368     460    3   0.423800000000   -11.834246     2.770510     8.944653  # Hw spce
   1369     461    3   0.423800000000    10.951675    -7.621761    11.373446  # Hw spce
   1370     461    4  -0.847600000000    11.465216    -6.794767    11.602261  # Ow spce
   1371     461    3   0.423800000000    12.358380    -7.049000    11.973239  # Hw spce
   1372     462    3   0.423800000000   -13.716646    -8.084353    11.088492  # Hw spce
   1373     462    4  -0.847600000000   -13.563677    -7.971106    10.106772  # Ow spce
   1374     462    3   0.423800000000   -12.608407    -8.175021     9.892577  # Hw spce
   1375     463    3   0.423800000000     4.978142     4.009809     3.925904  # Hw spce
   1376     463    4  -0.847600000000     4.236276     3.340168     3.891042  # Ow spce
   1377     463    3   0.423800000000     3.356863     3.816095     3.902312  # Hw spce
   1378     464    3   0.423800000000    -2.210689     3.085651     3.056085  # Hw spce
   1379     464    4  -0.847600000000    -2.100947     3.312307     4.023857  # Ow spce
   1380     464    3   0.423800000000    -2.791437     2.826997     4.560231  # Hw spce
   1381     465    3   0.423800000000    18.573583     6.713995    -0.710943  # Hw spce
   1382     465    4  -0.847600000000    17.782353     6.102818    -0.731365  # Ow spce
   1383     465    3   0.423800000000    18.094799     5.155158    -0.797069  # Hw spce
   1384     466    3   0.423800000000   -12.367289     6.455485     5.299833  # Hw spce
   1385     466    4  -0.847600000000   -11.829918     6.211123     6.107001  # Ow spce
   1386     466    3   0.423800000000   -11.765514     5.215565     6.175670  # Hw spce
   1387     467    3   0.423800000000    16.776466     8.250439    -7.394193  # Hw spce
   1388     467    4  -0.847600000000    15.879943     7.816352    -7.305791  # Ow spce
   1389     467    3   0.423800000000    15.242911     8.452751    -6.870835  # Hw spce
   1390     468    3   0.423800000000    -0.425631    15.401530   -10.146856  # Hw spce
   1391     468    4  -0.847600000000    -0.434550    16.396631   -10.048396  # Ow spce
   1392     468    3   0.423800000000    -1.379696    16.723273   -10.049999  # Hw spce
   1393     469    3   0.423800000000     1.155490   -18.741785    -4.826898  # Hw spce
   1394     469    4  -0.847600000000     0.681549   -18.750027    -5.707415  # Ow spce
   1395     469    3   0.423800000000     1.215324   -18.234967    -6.378085  # Hw spce
   1396     470    3   0.423800000000     6.841512    11.488259   -14.535381  # Hw spce
   1397     470    4  -0.847600000000     6.129794    11.058424   -15.090988  # Ow spce
   1398     470    3   0.423800000000     6.298470    11.252762   -16.057311  # Hw spce
   1399     471    3   0.423800000000    -9.838025    13.316637     2.875875  # Hw spce
   1400     471    4  -0.847600000000   -10.681438    12.803427     2.716914  # Ow spce
   1401     471    3   0.423800000000   -10.461880    11.839256     2.568019  # Hw spce
   1402     472    3   0.423800000000    17.875427    -7.624348    15.266908  # Hw spce
   1403     472    4  -0.847600000000    17.949325    -8.357466    14.590833  # Ow spce
   1404     472    3   0.423800000000    18.750027    -8.920388    14.795758  # Hw spce
   1405     473    3   0.423800000000     7.635462    -8.269735   -12.390596  # Hw spce
   1406     473    4  -0.847600000000     7.577548    -8.180293   -13.384903  # Ow spce
   1407     473    3   0.423800000000     7.752747    -9.068226   -13.810203  # Hw spce
   1408     474    3   0.423800000000   -11.491424     0.675106     3.837656  # Hw spce
   1409     474    4  -0.847600000000   -11.473229     0.204732     2.955376  # Ow spce
   1410     474    3   0.423800000000   -11.510682    -0.783500     3.103680  # Hw spce
   1411     475    3   0.423800000000   -12.486672   -13.985485    -5.525299  # Hw spce
   1412     475    4  -0.847600000000   -11.933179   -14.418518    -6.236725  # Ow spce
   1413     475    3   0.423800000000   -11.856773   -15.397891    -6.049667  # Hw spce
   1414     476    3   0.423800000000     7.223569     5.943816    18.276943  # Hw spce
   1415     476    4  -0.847600000000     8.096649     5.457194    18.246429  # Ow spce
   1416     476    3   0.423800000000     8.786078     5.977597    18.750283  # Hw spce
   1417     477    3   0.423800000000    -5.677760    16.354435   -12.492159  # Hw spce
   1418     477    4  -0.847600000000    -4.879925    16.659347   -11.972075  # Ow spce
   1419     477    3   0.423800000000    -5.082226    17.535478   -11.534505  # Hw spce
   1420     478    3   0.423800000000   -14.583590   -11.058973     1.834388  # Hw spce
   1421     478    4  -0.847600000000   -15.236970   -10.761012     2.530315  # Ow spce
   1422     478    3   0.423800000000   -15.155298    -9.773228     2.663023  # Hw spce
   1423     479    3   0.423800000000    -0.872874     6.781798    -1.454067  # Hw spce
   1424     479    4  -0.847600000000     0.126518     6.759763    -1.481115  # Ow spce
   1425     479    3   0.423800000000     0.442334     7.061279    -2.380753  # Hw spce
   1426     480    3   0.423800000000     3.118559    11.104617     0.535621  # Hw spce
   1427     480    4  -0.847600000000     3.537993    10.198829     0.475435  # Ow spce
   1428     480    3   0.423800000000     3.503226     9.755242     1.370991  # Hw spce
   1429     481    3   0.423800000000     8.354726    18.626544     6.699885  # Hw spce
   1430     481    4  -0.847600000000     7.391560    18.393411     6.565871  # Ow spce
   1431     481    3   0.423800000000     7.291847    17.399242     6.524833  # Hw spce
   1432     482    3   0.423800000000    -1.930831    -8.303835     6.181419  # Hw spce
   1433     482    4  -0.847600000000    -2.176682    -8.951428     5.460183  # Ow spce
   1434     482    3   0.423800000000    -2.883192    -9.573574     5.797493  # Hw spce
   1435     483    3   0.423800000000    11.339992    10.168977    12.867312  # Hw spce
   1436     483    4  -0.847600000000    12.166206    10.113254    12.306718  # Ow spce
   1437     483    3   0.423800000000    12.590763    11.016753    12.248059  # Hw spce
   1438     484    3   0.423800000000   -11.202074    -7.092577     7.465261  # Hw spce
   1439     484    4  -0.847600000000   -10.208597    -7.164028     7.554125  # Ow spce
   1440     484    3   0.423800000000    -9.927438    -8.111242     7.400061  # Hw spce
   1441     485    3   0.423800000000    11.819299   -18.284724    -3.835257  # Hw spce
   1442     485    4  -0.847600000000    12.804941   -18.118713    -3.866078  # Ow spce
   1443     485    3   0.423800000000    12.979632   -17.136188    -3.801832  # Hw spce
   1444     486    3   0.423800000000     7.217533     2.470830     8.181083  # Hw spce
   1445     486    4  -0.847600000000     7.861995     1.972232     8.760798  # Ow spce
   1446     486    3   0.423800000000     7.832115     2.343935     9.688668  # Hw spce
   1447     487    3   0.423800000000    -0.515560    -5.748334    16.371202  # Hw spce
   1448     487    4  -0.847600000000     0.034345    -6.569227    16.525277  # Ow spce
   1449     487    3   0.423800000000    -0.568713    -7.342415    16.721498  # Hw spce
   1450     488    3   0.423800000000     9.163609   -17.567243     9.991019  # Hw spce
   1451     488    4  -0.847600000000     9.030117   -18.556488     9.931228  # Ow spce
   1452     488    3   0.423800000000     8.066785   -18.752345     9.747838  # Hw spce
   1453     489    3   0.423800000000     2.699681     1.255763    -4.466815  # Hw spce
   1454     489    4  -0.847600000000     1.901638     1.438520    -3.892597  # Ow spce
   1455     489    3   0.423800000000     2.125794     2.150591    -3.227233  # Hw spce
   1456     490    3   0.423800000000     0.180812    10.247729    -8.737262  # Hw spce
   1457     490    4  -0.847600000000    -0.102229    10.282523    -7.778786  # Ow spce
   1458     490    3   0.423800000000    -0.782264     9.569998    -7.605984  # Hw spce
   1459     491    3   0.423800000000     0.828865   -14.822505    -1.860065  # Hw spce
   1460     491    4  -0.847600000000     1.359371   -15.497344    -2.373052  # Ow spce
   1461     491    3   0.423800000000     0.817169   -16.329598    -2.488683  # Hw spce
   1462     492    3   0.423800000000   -11.151377   -10.878549     4.932505  # Hw spce
   1463     492    4  -0.847600000000   -10.292381   -10.406841     5.131546  # Ow spce
   1464     492    3   0.423800000000    -9.743685   -10.347549     4.297630  # Hw spce
   1465     493    3   0.423800000000     2.384263    -3.546241     0.126471  # Hw spce
   1466     493    4  -0.847600000000     2.822468    -3.119671     0.917682  # Ow spce
   1467     493    3   0.423800000000     2.218953    -2.416871     1.294299  # Hw spce
   1468     494    3   0.423800000000    18.141372    -2.551944    -8.101110  # Hw spce
   1469     494    4  -0.847600000000    18.643108    -2.570678    -7.236292  # Ow spce
   1470     494    3   0.423800000000    18.750004    -3.517691    -6.933409  # Hw spce
   1471     495    3   0.423800000000    -0.852258   -16.366241   -15.747847  # Hw spce
   1472     495    4  -0.847600000000    -1.527696   -16.169741   -15.037093  # Ow spce
   1473     495    3   0.423800000000    -1.546516   -15.186095   -14.857966  # Hw spce
   1474     496    3   0.423800000000   -10.451580   -16.685933    -0.978240  # Hw spce
   1475     496    4  -0.847600000000   -10.803625   -15.884247    -0.495162  # Ow spce
   1476     496    3   0.423800000000   -10.040227   -15.302921    -0.213588  # Hw spce
   1477     497    3   0.423800000000     3.713101    -9.254743   -12.604987  # Hw spce
   1478     497    4  -0.847600000000     3.067171    -9.990592   -12.401764  # Ow spce
   1479     497    3   0.423800000000     2.262492    -9.611106   -11.945165  # Hw spce
   1480     498    3   0.423800000000    -0.474112    18.665297    -6.526862  # Hw spce
   1481     498    4  -0.847600000000     0.186429    17.940913    -6.329494  # Ow spce
   1482     498    3   0.423800000000     0.334184    17.884547    -5.342077  # Hw spce
   1483     499    3   0.423800000000    12.176329     4.567907     8.666315  # Hw spce
   1484     499    4  -0.847600000000    11.793671     5.321045     8.131192  # Ow spce
   1485     499    3   0.423800000000    11.002809     5.702066     8.610107  # Hw spce
   1486     500    3   0.423800000000    -5.836898     2.104314    -9.351120  # Hw spce
   1487     500    4  -0.847600000000    -5.078458     2.755886    -9.336219  # Ow spce
   1488     500    3   0.423800000000    -5.431642     3.681639    -9.471280  # Hw spce
   1489     501    3   0.423800000000   -11.056263     6.632917    14.908376  # Hw spce
   1490     501    4  -0.847600000000   -10.546098     7.373396    15.345895  # Ow spce
   1491     501    3   0.423800000000    -9.629840     7.426833    14.948887  # Hw spce
   1492     502    3   0.423800000000   -10.992039    12.003483   -18.556672  # Hw spce
   1493     502    4  -0.847600000000   -11.972090    11.974608   -18.753307  # Ow spce
   1494     502    3   0.423800000000   -12.442628    12.665675   -18.204654  # Hw spce
   1495     503    3   0.423800000000   -18.510749     6.897420     3.062456  # Hw spce
   1496     503    4  -0.847600000000   -17.579676     6.729475     3.386337  # Ow spce
   1497     503    3   0.423800000000   -17.118243     7.602910     3.541871  # Hw spce
   1498     504    3   0.423800000000    -8.244890    -0.444546    -6.286908  # Hw spce
   1499     504    4  -0.847600000000    -7.528229    -0.258331    -5.614806  # Ow spce
   1500     504    3   0.423800000000    -7.298093    -1.102373    -5.130420  # Hw spce
   1501     505    3   0.423800000000     5.777207    -0.043325     7.084540  # Hw spce
   1502     505    4  -0.847600000000     5.786948    -0.670716     7.863183  # Ow spce
   1503     505    3   0.423800000000     6.639549    -0.556021     8.373002  # Hw spce
   1504     506    3   0.423800000000    -3.222532    -7.151300   -12.547560  # Hw spce
   1505     506    4  -0.847600000000    -4.052829    -7.706562   -12.595429  # Ow spce
   1506     506    3   0.423800000000    -4.097366    -8.308952   -11.798471  # Hw spce
   1507     507    3   0.423800000000    11.223750    12.700164   -16.732862  # Hw spce
   1508     507    4  -0.847600000000    11.140627    11.786671   -17.131135  # Ow spce
   1509     507    3   0.423800000000    12.027700    11.498206   -17.491536  # Hw spce
   1510     508    3   0.423800000000    -9.964615    -4.510632   -16.819813  # Hw spce
   1511     508    4  -0.847600000000    -9.005493    -4.575439   -17.095284  # Ow spce
   1512     508    3   0.423800000000    -8.524309    -3.741149   -16.826170  # Hw spce
   1513     509    3   0.423800000000     3.981772    -2.675706     4.840290  # Hw spce
   1514     509    4  -0.847600000000     4.381339    -3.402712     5.398689  # Ow spce
   1515     509    3   0.423800000000     3.666105    -4.047857     5.667444  # Hw spce
   1516     510    3   0.423800000000    18.747343    -3.078216    -3.929430  # Hw spce
   1517     510    4  -0.847600000000    17.791599    -3.120846    -4.220524  # Ow spce
   1518     510    3   0.423800000000    17.486555    -4.073176    -4.224546  # Hw spce
   1519     511    3   0.423800000000     8.364744    11.675883     1.016645  # Hw spce
   1520     511    4  -0.847600000000     7.741420    10.903582     0.894099  # Ow spce
   1521     511    3   0.423800000000     7.831575    10.546773    -0.035718  # Hw spce
   1522     512    3   0.423800000000     2.965582    -3.764103    -3.025657  # Hw spce
   1523     512    4  -0.847600000000     2.669401    -3.419296    -3.916378  # Ow spce
   1524     512    3   0.423800000000     2.175874    -2.558334    -3.793190  # Hw spce
   1525     513    3   0.423800000000    -0.274412    -3.552187    -0.609904  # Hw spce
   1526     513    4  -0.847600000000    -0.397015    -4.522362    -0.819018  # Ow spce
   1527     513    3   0.423800000000     0.421173    -4.870730    -1.276410  # Hw spce
   1528     514    3   0.423800000000    13.301441    11.648382     4.662419  # Hw spce
   1529     514    4  -0.847600000000    12.587054    12.121616     4.146959  # Ow spce
   1530     514    3   0.423800000000    11.828409    11.493253     3.974861  # Hw spce
   1531     515    3   0.423800000000    17.467050    -2.020684     1.082519  # Hw spce
   1532     515    4  -0.847600000000    16.967914    -1.255362     1.488900  # Ow spce
   1533     515    3   0.423800000000    16.008998    -1.296166     1.208158  # Hw spce
   1534     516    3   0.423800000000   -17.291572   -17.474701   -13.712225  # Hw spce
   1535     516    4  -0.847600000000   -16.890536   -18.366150   -13.501298  # Ow spce
   1536     516    3   0.423800000000   -15.906683   -18.339314   -13.678255  # Hw spce
   1537     517    3   0.423800000000    -4.560231    11.706089    -9.824069  # Hw spce
   1538     517    4  -0.847600000000    -4.427544    11.540414    -8.846855  # Ow spce
   1539     517    3   0.423800000000    -4.769054    12.323223    -8.326683  # Hw spce
   1540     518    3   0.423800000000    -0.342753   -12.347918     8.536152  # Hw spce
   1541     518    4  -0.847600000000     0.625662   -12.167751     8.363775  # Ow spce
   1542     518    3   0.423800000000     0.799358   -11.185371     8.432749  # Hw spce
   1543     519    3   0.423800000000    -9.858322    -2.657964   -14.519142  # Hw spce
   1544     519    4  -0.847600000000    -9.415620    -1.996673   -13.913577  # Ow spce
   1545     519    3   0.423800000000    -9.324574    -1.120373   -14.386660  # Hw spce
   1546     520    3   0.423800000000     5.823113    -6.776607    12.662844  # Hw spce
   1547     520    4  -0.847600000000     4.952489    -6.864317    12.178777  # Ow spce
   1548     520    3   0.423800000000     4.708914    -7.831273    12.103500  # Hw spce
   1549     521    3   0.423800000000   -15.310471    18.632039   -14.720369  # Hw spce
   1550     521    4  -0.847600000000   -14.853377    18.014114   -15.360084  # Ow spce
   1551     521    3   0.423800000000   -13.862914    18.129600   -15.284957  # Hw spce
   1552     522    3   0.423800000000    10.517033    -6.446135    -8.832651  # Hw spce
   1553     522    4  -0.847600000000     9.614825    -6.016922    -8.790270  # Ow spce
   1554     522    3   0.423800000000     9.720147    -5.023585    -8.743495  # Hw spce
   1555     523    3   0.423800000000   -14.699269    11.953895   -16.806695  # Hw spce
   1556     523    4  -0.847600000000   -15.583303    11.651624   -16.450162  # Ow spce
   1557     523    3   0.423800000000   -16.199242    12.436058   -16.377481  # Hw spce
   1558     524    3   0.423800000000     6.496836     6.622599   -17.575051  # Hw spce
   1559     524    4  -0.847600000000     7.042306     6.044981   -16.967745  # Ow spce
   1560     524    3   0.423800000000     6.441645     5.406171   -16.486988  # Hw spce
   1561     525    3   0.423800000000     2.287720    16.860472     5.962893  # Hw spce
   1562     525    4  -0.847600000000     2.106256    17.843382     5.993839  # Ow spce
   1563     525    3   0.423800000000     1.119049    18.000992     5.969737  # Hw spce
   1564     526    3   0.423800000000    10.301443    -4.965996    13.508288  # Hw spce
   1565     526    4  -0.847600000000     9.308392    -4.952737    13.391354  # Ow spce
   1566     526    3   0.423800000000     8.926424    -5.828884    13.685407  # Hw spce
   1567     527    3   0.423800000000     3.310020    -8.186009    16.126062  # Hw spce
   1568     527    4  -0.847600000000     3.460341    -9.174590    16.136562  # Ow spce
   1569     527    3   0.423800000000     4.439142    -9.362042    16.219087  # Hw spce
   1570     528    3   0.423800000000    -0.910376     1.652798    11.357387  # Hw spce
   1571     528    4  -0.847600000000    -0.764578     0.727194    11.008100  # Ow spce
   1572     528    3   0.423800000000    -0.718044     0.751264    10.009474  # Hw spce
   1573     529    3   0.423800000000    -2.153606    -2.706633   -18.750123  # Hw spce
   1574     529    4  -0.847600000000    -1.222541    -2.846321   -18.413068  # Ow spce
   1575     529    3   0.423800000000    -1.237710    -3.492582   -17.650103  # Hw spce
   1576     530    3   0.423800000000    15.736220    -6.860115    16.816822  # Hw spce
   1577     530    4  -0.847600000000    14.795715    -7.128433    17.025284  # Ow spce
   1578     530    3   0.423800000000    14.404975    -7.610357    16.241020  # Hw spce
   1579     531    3   0.423800000000    16.206081     3.254665    -0.175214  # Hw spce
   1580     531    4  -0.847600000000    15.664676     4.089368    -0.074459  # Ow spce
   1581     531    3   0.423800000000    14.696722     3.851231     0.005257  # Hw spce
   1582     532    3   0.423800000000     4.315594    -5.742445   -13.397072  # Hw spce
   1583     532    4  -0.847600000000     4.580374    -6.706753   -13.398253  # Ow spce
   1584     532    3   0.423800000000     5.216604    -6.878628   -12.646143  # Hw spce
   1585     533    3   0.423800000000    16.370100    -4.671156    -9.555795  # Hw spce
   1586     533    4  -0.847600000000    15.996120    -5.468654    -9.082365  # Ow spce
   1587     533    3   0.423800000000    16.199496    -5.402082    -8.105530  # Hw spce
   1588     534    3   0.423800000000    15.241088   -11.413462    12.765078  # Hw spce
   1589     534    4  -0.847600000000    15.984396   -11.413742    13.434027  # Ow spce
   1590     534    3   0.423800000000    15.688474   -11.891967    14.260907  # Hw spce
   1591     535    3   0.423800000000   -16.220190    14.888966   -10.479442  # Hw spce
   1592     535    4  -0.847600000000   -16.525196    14.285507    -9.742686  # Ow spce
   1593     535    3   0.423800000000   -17.491456    14.456602    -9.550157  # Hw spce
   1594     536    3   0.423800000000    -9.239513    -7.806827     2.718462  # Hw spce
   1595     536    4  -0.847600000000    -8.886327    -7.219526     3.446704  # Ow spce
   1596     536    3   0.423800000000    -8.751017    -7.761689     4.276011  # Hw spce
   1597     537    3   0.423800000000    10.910606    -9.729258   -14.972242  # Hw spce
   1598     537    4  -0.847600000000    10.130762    -9.967623   -15.551056  # Ow spce
   1599     537    3   0.423800000000    10.237574    -9.538025   -16.447737  # Hw spce
   1600     538    3   0.423800000000    11.324387     7.193514    -0.713940  # Hw spce
   1601     538    4  -0.847600000000    10.820949     7.614548    -1.468447  # Ow spce
   1602     538    3   0.423800000000    11.002947     7.110664    -2.312827  # Hw spce
   1603     539    3   0.423800000000    15.135798     1.288757    -7.700724  # Hw spce
   1604     539    4  -0.847600000000    15.589499     1.311657    -8.591583  # Ow spce
   1605     539    3   0.423800000000    15.022257     1.817312    -9.241621  # Hw spce
   1606     540    3   0.423800000000    11.507529    10.375730    15.636232  # Hw spce
   1607     540    4  -0.847600000000    12.301775    10.982070    15.675295  # Ow spce
   1608     540    3   0.423800000000    13.136480    10.446717    15.546207  # Hw spce
   1609     541    3   0.423800000000    11.113086    18.012727    -7.257798  # Hw spce
   1610     541    4  -0.847600000000    10.688225    18.062355    -8.161695  # Ow spce
   1611     541    3   0.423800000000    11.176231    17.459529    -8.792923  # Hw spce
   1612     542    3   0.423800000000   -12.338954    15.382220     9.212940  # Hw spce
   1613     542    4  -0.847600000000   -12.689260    14.796506     9.943847  # Ow spce
   1614     542    3   0.423800000000   -13.537388    15.184654    10.304429  # Hw spce
   1615     543    3   0.423800000000     2.548202    -1.689467   -13.897645  # Hw spce
   1616     543    4  -0.847600000000     2.805046    -2.056904   -13.003765  # Ow spce
   1617     543    3   0.423800000000     3.730649    -2.432415   -13.051198  # Hw spce
   1618     544    3   0.423800000000   -15.579561    15.179090     8.446720  # Hw spce
   1619     544    4  -0.847600000000   -14.871033    15.618833     7.894803  # Ow spce
   1620     544    3   0.423800000000   -15.168336    15.658525     6.940845  # Hw spce
   1621     545    3   0.423800000000    -3.780109    -3.609821    16.917146  # Hw spce
   1622     545    4  -0.847600000000    -4.634371    -3.147506    16.679445  # Ow spce
   1623     545    3   0.423800000000    -4.595272    -2.843739    15.727502  # Hw spce
   1624     546    3   0.423800000000    -5.960283    13.339822    -6.062081  # Hw spce
   1625     546    4  -0.847600000000    -6.958589    13.353425    -6.118652  # Ow spce
   1626     546    3   0.423800000000    -7.292400    12.437180    -6.340159  # Hw spce
   1627     547    3   0.423800000000    -7.004714    13.895107     3.503476  # Hw spce
   1628     547    4  -0.847600000000    -7.159148    12.917737     3.358911  # Ow spce
   1629     547    3   0.423800000000    -6.396373    12.533066     2.839103  # Hw spce
   1630     548    3   0.423800000000    -5.385090    11.670246   -12.677768  # Hw spce
   1631     548    4  -0.847600000000    -4.419992    11.411467   -12.637518  # Ow spce
   1632     548    3   0.423800000000    -3.859138    12.232126   -12.528150  # Hw spce
   1633     549    3   0.423800000000   -17.025506   -11.870065     6.113400  # Hw spce
   1634     549    4  -0.847600000000   -16.727570   -11.057650     5.612186  # Ow spce
   1635     549    3   0.423800000000   -15.827434   -11.225481     5.210206  # Hw spce
   1636     550    3   0.423800000000    -3.022990    -0.873457    10.910334  # Hw spce
   1637     550    4  -0.847600000000    -2.896904    -1.643066    10.284391  # Ow spce
   1638     550    3   0.423800000000    -3.662463    -2.279297    10.379943  # Hw spce
   1639     551    3   0.423800000000    -8.796670     9.389979   -10.917831  # Hw spce
   1640     551    4  -0.847600000000    -8.178549     9.008064   -11.604903  # Ow spce
   1641     551    3   0.423800000000    -8.695165     8.787611   -12.432253  # Hw spce
   1642     552    3   0.423800000000     4.286914   -10.987681    -9.823210  # Hw spce
   1643     552    4  -0.847600000000     4.866905   -11.608513   -10.350636  # Ow spce
   1644     552    3   0.423800000000     5.270927   -11.114112   -11.120268  # Hw spce
   1645     553    3   0.423800000000    -3.380401   -11.161084    -0.910827  # Hw spce
   1646     553    4  -0.847600000000    -2.766742   -11.243794    -0.125600  # Ow spce
   1647     553    3   0.423800000000    -2.324590   -10.363436     0.046067  # Hw spce
   1648     554    3   0.423800000000   -12.010773     6.049266    -2.002433  # Hw spce
   1649     554    4  -0.847600000000   -12.556148     6.373765    -2.775263  # Ow spce
   1650     554    3   0.423800000000   -13.163539     5.642262    -3.085071  # Hw spce
   1651     555    3   0.423800000000   -13.457128     5.542518   -15.187665  # Hw spce
   1652     555    4  -0.847600000000   -13.664922     6.491242   -15.425874  # Ow spce
   1653     555    3   0.423800000000   -14.652271     6.596551   -15.544417  # Hw spce
   1654     556    3   0.423800000000    17.963825    11.236168     8.475122  # Hw spce
   1655     556    4  -0.847600000000    18.283553    10.288662     8.477629  # Ow spce
   1656     556    3   0.423800000000    18.229553     9.916210     7.551150  # Hw spce
   1657     557    3   0.423800000000     2.865592    14.922444    -1.311334  # Hw spce
   1658     557    4  -0.847600000000     3.458271    14.500640    -0.625175  # Ow spce
   1659     557    3   0.423800000000     4.200912    15.129314    -0.394409  # Hw spce
   1660     558    3   0.423800000000     2.000703    10.859346    10.645707  # Hw spce
   1661     558    4  -0.847600000000     2.044982    11.013262     9.658615  # Ow spce
   1662     558    3   0.423800000000     3.001120    11.027428     9.366043  # Hw spce
   1663     559    3   0.423800000000    -3.346648    18.750017    -8.312348  # Hw spce
   1664     559    4  -0.847600000000    -3.030859    18.247551    -7.507485  # Ow spce
   1665     559    3   0.423800000000    -2.820600    17.304345    -7.764688  # Hw spce
   1666     560    3   0.423800000000    -1.116097     6.508677   -11.845945  # Hw spce
   1667     560    4  -0.847600000000    -1.974264     6.095196   -11.541671  # Ow spce
   1668     560    3   0.423800000000    -2.742467     6.655348   -11.851661  # Hw spce
   1669     561    3   0.423800000000    16.276385    -1.704842    -6.058261  # Hw spce
   1670     561    4  -0.847600000000    15.943361    -0.762102    -6.039932  # Ow spce
   1671     561    3   0.423800000000    16.541483    -0.208523    -5.460449  # Hw spce
   1672     562    3   0.423800000000    10.704313    -5.438293    -0.382980  # Hw spce
   1673     562    4  -0.847600000000    10.169682    -4.614563    -0.194201  # Ow spce
   1674     562    3   0.423800000000     9.971758    -4.562711     0.784644  # Hw spce
   1675     563    3   0.423800000000     1.079808    16.662237    18.106936  # Hw spce
   1676     563    4  -0.847600000000     1.713757    17.347917    17.749233  # Ow spce
   1677     563    3   0.423800000000     1.271073    18.244592    17.751692  # Hw spce
   1678     564    3   0.423800000000    14.978426    18.124257    -0.898652  # Hw spce
   1679     564    4  -0.847600000000    15.724431    18.750889    -1.124063  # Ow spce
   1680     564    3   0.423800000000    16.545245    18.225230    -1.347551  # Hw spce
   1681     565    3   0.423800000000    -6.763966    -6.097957   -12.344806  # Hw spce
   1682     565    4  -0.847600000000    -6.811825    -5.577194   -13.197165  # Ow spce
   1683     565    3   0.423800000000    -7.537923    -5.949762   -13.775070  # Hw spce
   1684     566    3   0.423800000000    -2.953359    -6.316043    17.751876  # Hw spce
   1685     566    4  -0.847600000000    -3.839037    -6.368440    17.290542  # Ow spce
   1686     566    3   0.423800000000    -4.006251    -7.309312    16.995926  # Hw spce
   1687     567    3   0.423800000000    17.010661    14.705409   -10.677561  # Hw spce
   1688     567    4  -0.847600000000    17.902381    14.264489   -10.779664  # Ow spce
   1689     567    3   0.423800000000    17.802970    13.277761   -10.651276  # Hw spce
   1690     568    3   0.423800000000     8.611598    13.127134   -15.867317  # Hw spce
   1691     568    4  -0.847600000000     8.347501    13.637954   -16.685435  # Ow spce
   1692     568    3   0.423800000000     8.531337    13.084493   -17.497767  # Hw spce
   1693     569    3   0.423800000000   -17.838088     8.461523    -0.713978  # Hw spce
   1694     569    4  -0.847600000000   -16.952028     8.721764    -0.330348  # Ow spce
   1695     569    3   0.423800000000   -16.340437     7.930621    -0.337402  # Hw spce
   1696     570    3   0.423800000000    -9.927633     1.565830   -13.858059  # Hw spce
   1697     570    4  -0.847600000000   -10.612221     1.485365   -14.582534  # Ow spce
   1698     570    3   0.423800000000   -11.349460     2.140847   -14.418762  # Hw spce
   1699     571    3   0.423800000000    -1.206825     8.949972    11.498111  # Hw spce
   1700     571    4  -0.847600000000    -0.316525     9.403993    11.533205  # Ow spce
   1701     571    3   0.423800000000     0.408368     8.715345    11.550342  # Hw spce
   1702     572    3   0.423800000000    -6.370023     5.523191     6.132352  # Hw spce
   1703     572    4  -0.847600000000    -6.954153     6.030737     6.765747  # Ow spce
   1704     572    3   0.423800000000    -7.873693     5.637803     6.758824  # Hw spce
   1705     573    3   0.423800000000    18.751658    -6.088780     5.121098  # Hw spce
   1706     573    4  -0.847600000000    17.999521    -5.437781     5.018675  # Ow spce
   1707     573    3   0.423800000000    17.347929    -5.560834     5.767197  # Hw spce
   1708     574    3   0.423800000000    15.461728   -16.997379     3.960368  # Hw spce
   1709     574    4  -0.847600000000    15.544189   -17.440383     3.067648  # Ow spce
   1710     574    3   0.423800000000    16.409661   -17.175205     2.642632  # Hw spce
   1711     575    3   0.423800000000    14.687520    -9.932201    -5.237179  # Hw spce
   1712     575    4  -0.847600000000    14.414977    -8.973447    -5.156486  # Ow spce
   1713     575    3   0.423800000000    13.508501    -8.918716    -4.737792  # Hw spce
   1714     576    3   0.423800000000     9.687704   -17.546741     6.988640  # Hw spce
   1715     576    4  -0.847600000000     9.741077   -16.665522     7.458326  # Ow spce
   1716     576    3   0.423800000000    10.663897   -16.536674     7.821370  # Hw spce
   1717     577    3   0.423800000000     0.411158    11.688051   -15.236194  # Hw spce
   1718     577    4  -0.847600000000    -0.019553    10.785569   -15.232389  # Ow spce
   1719     577    3   0.423800000000     0.618755    10.113186   -14.857604  # Hw spce
   1720     578    3   0.423800000000   -17.695564     1.782768    -4.853261  # Hw spce
   1721     578    4  -0.847600000000   -17.563409     2.483007    -5.554831  # Ow spce
   1722     578    3   0.423800000000   -16.614166     2.465221    -5.868871  # Hw spce
   1723     579    3   0.423800000000    12.156909    10.323932    -6.329268  # Hw spce
   1724     579    4  -0.847600000000    11.610213     9.493889    -6.219037  # Ow spce
   1725     579    3   0.423800000000    11.867770     9.035666    -5.368334  # Hw spce
   1726     580    3   0.423800000000    -5.238278     4.742134    10.100421  # Hw spce
   1727     580    4  -0.847600000000    -5.185331     4.985768    11.068842  # Ow spce
   1728     580    3   0.423800000000    -4.594672     4.334079    11.544681  # Hw spce
   1729     581    3   0.423800000000    14.607737   -17.697561   -13.234106  # Hw spce
   1730     581    4  -0.847600000000    15.205664   -18.030324   -13.963319  # Ow spce
   1731     581    3   0.423800000000    14.651491   -18.308498   -14.747865  # Hw spce
   1732     582    3   0.423800000000   -12.897079    -0.914440     7.412117  # Hw spce
   1733     582    4  -0.847600000000   -12.711643    -1.481950     6.609904  # Ow spce
   1734     582    3   0.423800000000   -13.566066    -1.656882     6.120660  # Hw spce
   1735     583    3   0.423800000000     3.319382   -12.195446     7.375073  # Hw spce
   1736     583    4  -0.847600000000     3.528743   -12.765236     8.169748  # Ow spce
   1737     583    3   0.423800000000     4.474885   -12.607922     8.452711  # Hw spce
   1738     584    3   0.423800000000   -15.435760    -1.218462   -12.265504  # Hw spce
   1739     584    4  -0.847600000000   -15.421323    -1.411170   -11.284354  # Ow spce
   1740     584    3   0.423800000000   -14.501788    -1.696635   -11.014236  # Hw spce
   1741     585    3   0.423800000000    15.860366   -14.114087   -18.205671  # Hw spce
   1742     585    4  -0.847600000000    14.932791   -13.753070   -18.109382  # Ow spce
   1743     585    3   0.423800000000    14.529000   -14.093743   -17.260327  # Hw spce
   1744     586    3   0.423800000000    17.880279    -2.437138     8.103569  # Hw spce
   1745     586    4  -0.847600000000    18.750749    -2.891111     7.913335  # Ow spce
   1746     586    3   0.423800000000    18.579777    -3.753424     7.436696  # Hw spce
   1747     587    3   0.423800000000   -12.255479    -4.576966    -5.630307  # Hw spce
   1748     587    4  -0.847600000000   -11.775087    -5.295185    -5.126933  # Ow spce
   1749     587    3   0.423800000000   -11.090354    -5.717540    -5.720867  # Hw spce
   1750     588    3   0.423800000000   -14.434312     3.019921     2.085116  # Hw spce
   1751     588    4  -0.847600000000   -14.641042     3.926289     1.716660  # Ow spce
   1752     588    3   0.423800000000   -13.827477     4.297732     1.269288  # Hw spce
   1753     589    3   0.423800000000     1.778586    -8.114796    -2.965793  # Hw spce
   1754     589    4  -0.847600000000     1.268451    -7.476540    -3.542327  # Ow spce
   1755     589    3   0.423800000000     1.216279    -7.837198    -4.473565  # Hw spce
   1756     590    3   0.423800000000     3.778039    16.076458   -11.877507  # Hw spce
   1757     590    4  -0.847600000000     4.382521    15.628138   -11.219015  # Ow spce
   1758     590    3   0.423800000000     5.076147    16.277588   -10.907410  # Hw spce
   1759     591    3   0.423800000000     7.671327    17.565089    10.752312  # Hw spce
   1760     591    4  -0.847600000000     7.542771    18.148782     9.950579  # Ow spce
   1761     591    3   0.423800000000     6.735594    17.846005     9.443834  # Hw spce
   1762     592    3   0.423800000000    17.699367     6.952475     9.613222  # Hw spce
   1763     592    4  -0.847600000000    17.896095     7.276500     8.687854  # Ow spce
   1764     592    3   0.423800000000    17.149123     7.014093     8.076973  # Hw spce
   1765     593    3   0.423800000000    12.566522    -2.335838     2.151170  # Hw spce
   1766     593    4  -0.847600000000    13.359289    -2.354807     1.541941  # Ow spce
   1767     593    3   0.423800000000    13.294831    -1.601445     0.887502  # Hw spce
   1768     594    3   0.423800000000    14.011118    13.450830    18.251402  # Hw spce
   1769     594    4  -0.847600000000    13.940619    14.397935    17.938317  # Ow spce
   1770     594    3   0.423800000000    12.976905    14.657411    17.875645  # Hw spce
   1771     595    3   0.423800000000    13.671756    -9.868366     9.611654  # Hw spce
   1772     595    4  -0.847600000000    13.906474    -8.909631     9.772075  # Ow spce
   1773     595    3   0.423800000000    13.094155    -8.341239     9.641431  # Hw spce
   1774     596    3   0.423800000000    -2.945531    17.383910    12.121135  # Hw spce
   1775     596    4  -0.847600000000    -2.594482    16.626584    11.570479  # Ow spce
   1776     596    3   0.423800000000    -2.455758    16.935029    10.629406  # Hw spce
   1777     597    3   0.423800000000     1.843712   -17.943982     1.755694  # Hw spce
   1778     597    4  -0.847600000000     2.067185   -17.011311     1.472523  # Ow spce
   1779     597    3   0.423800000000     1.513673   -16.362698     1.994945  # Hw spce
   1780     598    3   0.423800000000    -0.524610    -6.989561     4.216046  # Hw spce
   1781     598    4  -0.847600000000     0.249704    -7.620122     4.162853  # Ow spce
   1782     598    3   0.423800000000     1.092646    -7.132846     4.390912  # Hw spce
   1783     599    3   0.423800000000     9.571858    10.517544   -14.254643  # Hw spce
   1784     599    4  -0.847600000000     9.745293    10.062030   -15.127815  # Ow spce
   1785     599    3   0.423800000000     8.998736    10.262271   -15.762288  # Hw spce
   1786     600    3   0.423800000000   -18.749975   -11.970548    -7.699261  # Hw spce
   1787     600    4  -0.847600000000   -18.168300   -11.196923    -7.447947  # Ow spce
   1788     600    3   0.423800000000   -18.731175   -10.377147    -7.342405  # Hw spce
   1789     601    3   0.423800000000    18.750092     1.523948    11.538381  # Hw spce
   1790     601    4  -0.847600000000    18.213161     2.009332    10.848376  # Ow spce
   1791     601    3   0.423800000000    17.488106     1.410484    10.508264  # Hw spce
   1792     602    3   0.423800000000    -3.331629     6.311684     0.456002  # Hw spce
   1793     602    4  -0.847600000000    -3.573671     6.283432     1.425856  # Ow spce
   1794     602    3   0.423800000000    -3.017697     5.592658     1.888159  # Hw spce
   1795     603    3   0.423800000000    -4.446083    15.185617    -9.691208  # Hw spce
   1796     603    4  -0.847600000000    -4.036020    14.387779   -10.133140  # Ow spce
   1797     603    3   0.423800000000    -3.039446    14.458033   -10.089481  # Hw spce
   1798     604    3   0.423800000000   -17.843138    -4.860566    14.872941  # Hw spce
   1799     604    4  -0.847600000000   -18.193035    -5.796549    14.911765  # Ow spce
   1800     604    3   0.423800000000   -17.430247    -6.433087    15.025664  # Hw spce
   1801     605    3   0.423800000000    14.384359    -9.857456   -16.860297  # Hw spce
   1802     605    4  -0.847600000000    13.558269    -9.860205   -16.296766  # Ow spce
   1803     605    3   0.423800000000    13.799158    -9.641810   -15.351105  # Hw spce
   1804     606    3   0.423800000000   -12.468136     7.457624    -9.255433  # Hw spce
   1805     606    4  -0.847600000000   -12.513915     8.192710    -9.931860  # Ow spce
   1806     606    3   0.423800000000   -11.877490     7.998790   -10.678424  # Hw spce
   1807     607    3   0.423800000000     0.503541   -13.405521    16.561048  # Hw spce
   1808     607    4  -0.847600000000     1.230088   -12.734956    16.411136  # Ow spce
   1809     607    3   0.423800000000     0.867594   -11.961320    15.891440  # Hw spce
   1810     608    3   0.423800000000     2.135942    13.804339   -11.043921  # Hw spce
   1811     608    4  -0.847600000000     2.802004    13.152904   -11.407230  # Ow spce
   1812     608    3   0.423800000000     2.477166    12.220558   -11.248446  # Hw spce
   1813     609    3   0.423800000000    -3.684843    11.291625    -2.494057  # Hw spce
   1814     609    4  -0.847600000000    -3.020094    12.022159    -2.650352  # Ow spce
   1815     609    3   0.423800000000    -2.293358    11.688646    -3.250872  # Hw spce
   1816     610    3   0.423800000000    12.324384   -18.138077    -8.022701  # Hw spce
   1817     610    4  -0.847600000000    11.578603   -17.515865    -8.260738  # Ow spce
   1818     610    3   0.423800000000    11.421587   -16.879458    -7.505535  # Hw spce
   1819     611    3   0.423800000000    -8.044051     4.104113   -14.725331  # Hw spce
   1820     611    4  -0.847600000000    -7.251844     3.680593   -14.285970  # Ow spce
   1821     611    3   0.423800000000    -6.735573     3.156562   -14.963359  # Hw spce
   1822     612    3   0.423800000000     6.158793    13.312906     1.145139  # Hw spce
   1823     612    4  -0.847600000000     5.402038    12.691458     1.347928  # Ow spce
   1824     612    3   0.423800000000     5.588740    12.206565     2.202341  # Hw spce
   1825     613    3   0.423800000000    13.184750   -13.464079   -13.979810  # Hw spce
   1826     613    4  -0.847600000000    12.985037   -14.324570   -14.448500  # Ow spce
   1827     613    3   0.423800000000    13.260006   -15.091537   -13.868714  # Hw spce
   1828     614    3   0.423800000000     1.891543     5.028414   -16.700936  # Hw spce
   1829     614    4  -0.847600000000     2.581409     4.388915   -17.040239  # Ow spce
   1830     614    3   0.423800000000     2.238604     3.453281   -16.956142  # Hw spce
   1831     615    3   0.423800000000   -17.472824    -7.589044    -8.820307  # Hw spce
   1832     615    4  -0.847600000000   -17.018290    -6.759860    -9.145658  # Ow spce
   1833     615    3   0.423800000000   -17.614988    -5.971668    -8.994978  # Hw spce
   1834     616    3   0.423800000000   -16.329971    -8.947012    11.345375  # Hw spce
   1835     616    4  -0.847600000000   -17.145987    -9.066746    10.779883  # Ow spce
   1836     616    3   0.423800000000   -17.506885    -8.170647    10.521509  # Hw spce
   1837     617    3   0.423800000000     0.887099    -3.174551   -10.682671  # Hw spce
   1838     617    4  -0.847600000000     0.112759    -3.392281   -11.276802  # Ow spce
   1839     617    3   0.423800000000    -0.726988    -3.023093   -10.878651  # Hw spce
   1840     618    3   0.423800000000     0.965443   -12.735342    -6.886231  # Hw spce
   1841     618    4  -0.847600000000     1.433934   -13.559973    -6.569214  # Ow spce
   1842     618    3   0.423800000000     1.999899   -13.926523    -7.307675  # Hw spce
   1843     619    3   0.423800000000   -17.885389   -13.087932    -1.001692  # Hw spce
   1844     619    4  -0.847600000000   -17.064086   -13.469865    -0.577913  # Ow spce
   1845     619    3   0.423800000000   -16.380707   -13.656246    -1.283784  # Hw spce
   1846     620    3   0.423800000000    -5.893824    -3.362579   -14.752195  # Hw spce
   1847     620    4  -0.847600000000    -6.799490    -2.945383   -14.827800  # Ow spce
   1848     620    3   0.423800000000    -6.722817    -1.956672   -14.699071  # Hw spce
   1849     621    3   0.423800000000    -4.980175   -13.793751    -2.351177  # Hw spce
   1850     621    4  -0.847600000000    -4.746038   -14.755394    -2.494085  # Ow spce
   1851     621    3   0.423800000000    -5.176878   -15.312413    -1.784080  # Hw spce
   1852     622    3   0.423800000000    -6.245538    -9.957915    -9.915366  # Hw spce
   1853     622    4  -0.847600000000    -5.255171    -9.848417    -9.830613  # Ow spce
   1854     622    3   0.423800000000    -5.054883    -9.016562    -9.313020  # Hw spce
   1855     623    3   0.423800000000     8.771495     6.784148    -9.429430  # Hw spce
   1856     623    4  -0.847600000000     8.752750     6.758620    -8.429932  # Ow spce
   1857     623    3   0.423800000000     9.241804     7.551792    -8.067021  # Hw spce
   1858     624    3   0.423800000000   -17.905146   -17.586142    -8.048971  # Hw spce
   1859     624    4  -0.847600000000   -17.139697   -17.463480    -8.680668  # Ow spce
   1860     624    3   0.423800000000   -17.108897   -16.511796    -8.986197  # Hw spce
   1861     625    3   0.423800000000   -12.173328     7.574676   -13.380473  # Hw spce
   1862     625    4  -0.847600000000   -11.681542     8.444609   -13.417398  # Ow spce
   1863     625    3   0.423800000000   -11.013123     8.418340   -14.160720  # Hw spce
   1864     626    3   0.423800000000     3.223839    11.772260    -3.465058  # Hw spce
   1865     626    4  -0.847600000000     2.767381    12.224936    -2.699074  # Ow spce
   1866     626    3   0.423800000000     2.009250    12.778910    -3.043093  # Hw spce
   1867     627    3   0.423800000000     6.222799     4.858681    11.399767  # Hw spce
   1868     627    4  -0.847600000000     6.647752     4.742942    10.501981  # Ow spce
   1869     627    3   0.423800000000     6.602913     5.605654     9.998278  # Hw spce
   1870     628    3   0.423800000000    13.493155     7.765010    -3.540656  # Hw spce
   1871     628    4  -0.847600000000    13.516074     8.700376    -3.187719  # Ow spce
   1872     628    3   0.423800000000    13.245026     8.700162    -2.225153  # Hw spce
   1873     629    3   0.423800000000    13.361356    16.884333    12.115424  # Hw spce
   1874     629    4  -0.847600000000    13.581805    17.535120    12.841975  # Ow spce
   1875     629    3   0.423800000000    12.749281    18.009067    13.128815  # Hw spce
   1876     630    3   0.423800000000     5.111074     7.625836    17.527234  # Hw spce
   1877     630    4  -0.847600000000     4.635660     8.502239    17.604040  # Ow spce
   1878     630    3   0.423800000000     5.220187     9.230916    17.247169  # Hw spce
   1879     631    3   0.423800000000     7.799789    18.340170    -5.475219  # Hw spce
   1880     631    4  -0.847600000000     8.636978    18.157006    -5.990550  # Ow spce
   1881     631    3   0.423800000000     8.624604    17.213669    -6.322156  # Hw spce
   1882     632    3   0.423800000000    -8.534227   -17.637597     1.740170  # Hw spce
   1883     632    4  -0.847600000000    -7.698471   -17.881226     1.248076  # Ow spce
   1884     632    3   0.423800000000    -7.112721   -17.074866     1.166342  # Hw spce
   1885     633    3   0.423800000000    14.035474     0.852578    -3.777881  # Hw spce
   1886     633    4  -0.847600000000    14.509460     0.201593    -3.184960  # Ow spce
   1887     633    3   0.423800000000    15.436419     0.529886    -3.003382  # Hw spce
   1888     634    3   0.423800000000    -6.984302     0.543024    10.685514  # Hw spce
   1889     634    4  -0.847600000000    -6.748875    -0.180808    11.334082  # Ow spce
   1890     634    3   0.423800000000    -5.971933    -0.703300    10.982850  # Hw spce
   1891     635    3   0.423800000000    15.707243     9.795664    -0.815627  # Hw spce
   1892     635    4  -0.847600000000    16.386957     9.072251    -0.936712  # Ow spce
   1893     635    3   0.423800000000    17.276922     9.481411    -1.138082  # Hw spce
   1894     636    3   0.423800000000     2.847019   -11.795914     0.570692  # Hw spce
   1895     636    4  -0.847600000000     3.390628   -10.957076     0.599649  # Ow spce
   1896     636    3   0.423800000000     3.135183   -10.421981     1.404895  # Hw spce
   1897     637    3   0.423800000000   -14.369495    16.829838    13.890427  # Hw spce
   1898     637    4  -0.847600000000   -13.826887    17.661228    13.770564  # Ow spce
   1899     637    3   0.423800000000   -14.436929    18.450943    13.705775  # Hw spce
   1900     638    3   0.423800000000    -4.269320   -12.433132     4.832242  # Hw spce
   1901     638    4  -0.847600000000    -3.726604   -12.050827     4.084377  # Ow spce
   1902     638    3   0.423800000000    -4.158133   -12.275473     3.210697  # Hw spce
   1903     639    3   0.423800000000   -11.373856     6.245340   -17.453158  # Hw spce
   1904     639    4  -0.847600000000   -11.866135     5.796381   -18.198878  # Ow spce
   1905     639    3   0.423800000000   -11.365170     4.979487   -18.484743  # Hw spce
   1906     640    3   0.423800000000     3.624116   -17.796488   -14.416881  # Hw spce
   1907     640    4  -0.847600000000     2.705567   -17.712186   -14.803094  # Ow spce
   1908     640    3   0.423800000000     2.618373   -16.830196   -15.266224  # Hw spce
   1909     641    3   0.423800000000    17.154872   -14.452211     2.157728  # Hw spce
   1910     641    4  -0.847600000000    16.757028   -13.815604     2.818373  # Ow spce
   1911     641    3   0.423800000000    17.343539   -13.764328     3.626689  # Hw spce
   1912     642    3   0.423800000000   -17.350390     3.260646   -11.970760  # Hw spce
   1913     642    4  -0.847600000000   -17.739103     3.875269   -11.284363  # Ow spce
   1914     642    3   0.423800000000   -18.721665     3.972888   -11.442609  # Hw spce
   1915     643    3   0.423800000000   -15.101053    -6.185471     5.905952  # Hw spce
   1916     643    4  -0.847600000000   -14.766461    -5.455012     6.501332  # Ow spce
   1917     643    3   0.423800000000   -14.666310    -5.804028     7.433082  # Hw spce
   1918     644    3   0.423800000000     3.354090    11.347874    -7.135587  # Hw spce
   1919     644    4  -0.847600000000     2.781235    10.864587    -7.797608  # Ow spce
   1920     644    3   0.423800000000     2.658753    11.433792    -8.610629  # Hw spce
   1921     645    3   0.423800000000    13.190617    -1.436649    -7.236940  # Hw spce
   1922     645    4  -0.847600000000    13.652627    -2.173551    -6.743461  # Ow spce
   1923     645    3   0.423800000000    13.257150    -2.261575    -5.829213  # Hw spce
   1924     646    3   0.423800000000     5.558342     3.128970    -3.034708  # Hw spce
   1925     646    4  -0.847600000000     5.439379     2.900710    -2.068403  # Ow spce
   1926     646    3   0.423800000000     4.659796     3.407073    -1.699830  # Hw spce
   1927     647    3   0.423800000000     8.861084    12.773718    -1.458223  # Hw spce
   1928     647    4  -0.847600000000     9.271440    12.245287    -2.201438  # Ow spce
   1929     647    3   0.423800000000     8.564304    11.702174    -2.654192  # Hw spce
   1930     648    3   0.423800000000    -1.143273   -16.754300    -6.245599  # Hw spce
   1931     648    4  -0.847600000000    -2.103183   -17.030014    -6.296158  # Ow spce
   1932     648    3   0.423800000000    -2.164275   -18.028094    -6.285983  # Hw spce
   1933     649    3   0.423800000000     7.045330   -13.848351   -13.133670  # Hw spce
   1934     649    4  -0.847600000000     7.883187   -13.587111   -13.612991  # Ow spce
   1935     649    3   0.423800000000     8.175282   -14.337045   -14.206522  # Hw spce
   1936     650    3   0.423800000000   -15.641178    -7.136754     3.308465  # Hw spce
   1937     650    4  -0.847600000000   -16.138623    -6.329481     2.990880  # Ow spce
   1938     650    3   0.423800000000   -17.017166    -6.610039     2.604296  # Hw spce
   1939     651    3   0.423800000000    -6.833500    13.666504     9.398967  # Hw spce
   1940     651    4  -0.847600000000    -7.559937    13.739598    10.082303  # Ow spce
   1941     651    3   0.423800000000    -7.166323    13.654451    10.997626  # Hw spce
   1942     652    3   0.423800000000     6.453459    10.646784    14.256563  # Hw spce
   1943     652    4  -0.847600000000     6.988594    11.411099    13.896768  # Ow spce
   1944     652    3   0.423800000000     7.916490    11.100464    13.690578  # Hw spce
   1945     653    3   0.423800000000   -15.374907   -13.187099    -6.386071  # Hw spce
   1946     653    4  -0.847600000000   -14.802329   -12.393964    -6.593657  # Ow spce
   1947     653    3   0.423800000000   -14.139038   -12.637742    -7.301199  # Hw spce
   1948     654    3   0.423800000000    -3.515058    10.082616   -15.439106  # Hw spce
   1949     654    4  -0.847600000000    -3.388072    10.950821   -15.918788  # Ow spce
   1950     654    3   0.423800000000    -2.673653    11.481931   -15.463236  # Hw spce
   1951     655    3   0.423800000000    -0.197683   -17.005618    13.473279  # Hw spce
   1952     655    4  -0.847600000000    -0.680635   -16.215062    13.096745  # Ow spce
   1953     655    3   0.423800000000    -1.664232   -16.326931    13.238243  # Hw spce
   1954     656    3   0.423800000000    -4.999881     2.922915   -17.370855  # Hw spce
   1955     656    4  -0.847600000000    -4.423885     3.523109   -16.815882  # Ow spce
   1956     656    3   0.423800000000    -3.500072     3.143812   -16.763894  # Hw spce
   1957     657    3   0.423800000000   -17.928578    -9.541824     2.129216  # Hw spce
   1958     657    4  -0.847600000000   -17.865801    -9.021911     1.277307  # Ow spce
   1959     657    3   0.423800000000   -18.750064    -8.599176     1.078883  # Hw spce
   1960     658    3   0.423800000000     5.317497     8.032506    -6.141998  # Hw spce
   1961     658    4  -0.847600000000     4.487714     8.573073    -6.280736  # Ow spce
   1962     658    3   0.423800000000     4.425080     9.275494    -5.571735  # Hw spce
   1963     659    3   0.423800000000     5.383878     5.151931    -5.186170  # Hw spce
   1964     659    4  -0.847600000000     4.676088     4.521344    -5.504591  # Ow spce
   1965     659    3   0.423800000000     5.090921     3.638647    -5.725404  # Hw spce
   1966     660    3   0.423800000000     9.214255     6.472826    11.692369  # Hw spce
   1967     660    4  -0.847600000000     8.796253     5.619331    12.003530  # Ow spce
   1968     660    3   0.423800000000     9.505579     4.924373    12.121377  # Hw spce
   1969     661    3   0.423800000000    -1.164890    -9.755903    -4.011396  # Hw spce
   1970     661    4  -0.847600000000    -1.417946    -9.902648    -4.967654  # Ow spce
   1971     661    3   0.423800000000    -2.414353    -9.926759    -5.048833  # Hw spce
   1972     662    3   0.423800000000    -6.690757   -18.367273     6.504074  # Hw spce
   1973     662    4  -0.847600000000    -5.868345   -18.030656     6.962689  # Ow spce
   1974     662    3   0.423800000000    -5.482509   -18.757402     7.530993  # Hw spce
   1975     663    3   0.423800000000    -4.430328     0.824020     9.210137  # Hw spce
   1976     663    4  -0.847600000000    -4.105875     1.620710     9.720054  # Ow spce
   1977     663    3   0.423800000000    -4.432301     1.567978    10.663804  # Hw spce
   1978     664    3   0.423800000000    -7.220575    -1.468939   -10.360647  # Hw spce
   1979     664    4  -0.847600000000    -6.988827    -0.964877    -9.528653  # Ow spce
   1980     664    3   0.423800000000    -7.377185    -1.434122    -8.735567  # Hw spce
   1981     665    3   0.423800000000     6.126362   -11.321772   -13.864229  # Hw spce
   1982     665    4  -0.847600000000     5.126997   -11.292575   -13.884682  # Ow spce
   1983     665    3   0.423800000000     4.765356   -12.223834   -13.840288  # Hw spce
   1984     666    3   0.423800000000    -3.551809   -11.943355    12.210685  # Hw spce
   1985     666    4  -0.847600000000    -2.693889   -11.542812    12.532460  # Ow spce
   1986     666    3   0.423800000000    -2.232862   -11.086651    11.771296  # Hw spce
   1987     667    3   0.423800000000    -8.941950    -6.941552    -1.617945  # Hw spce
   1988     667    4  -0.847600000000    -8.316211    -6.291883    -1.186228  # Ow spce
   1989     667    3   0.423800000000    -8.731400    -5.382161    -1.181375  # Hw spce
   1990     668    3   0.423800000000    -9.910763    -0.394257   -17.012574  # Hw spce
   1991     668    4  -0.847600000000   -10.690360    -1.002559   -17.161561  # Ow spce
   1992     668    3   0.423800000000   -11.260732    -1.020639   -16.340373  # Hw spce
   1993     669    3   0.423800000000     2.606895    -9.465902    10.419983  # Hw spce
   1994     669    4  -0.847600000000     3.194370   -10.039049     9.848690  # Ow spce
   1995     669    3   0.423800000000     3.598533   -10.763254    10.407420  # Hw spce
   1996     670    3   0.423800000000   -16.918090    16.469793    12.917684  # Hw spce
   1997     670    4  -0.847600000000   -17.895755    16.343862    13.085952  # Ow spce
   1998     670    3   0.423800000000   -18.143242    16.776699    13.952786  # Hw spce
   1999     671    3   0.423800000000    12.754975    -4.052321    -3.742609  # Hw spce
   2000     671    4  -0.847600000000    12.017260    -3.505293    -3.346961  # Ow spce
   2001     671    3   0.423800000000    11.474692    -4.074488    -2.729194  # Hw spce
   2002     672    3   0.423800000000    17.442955    -7.804869    -8.975267  # Hw spce
   2003     672    4  -0.847600000000    17.734858    -7.450792    -9.863762  # Ow spce
   2004     672    3   0.423800000000    18.385832    -8.086628   -10.278425  # Hw spce
   2005     673    3   0.423800000000     9.801440     2.343559   -17.181666  # Hw spce
   2006     673    4  -0.847600000000    10.173761     1.935092   -16.348280  # Ow spce
   2007     673    3   0.423800000000     9.694621     2.305702   -15.552622  # Hw spce
   2008     674    3   0.423800000000     1.374638     5.588520   -11.117641  # Hw spce
   2009     674    4  -0.847600000000     1.413882     5.178947   -10.206208  # Ow spce
   2010     674    3   0.423800000000     0.523257     4.784908    -9.979228  # Hw spce
   2011     675    3   0.423800000000    15.587331     9.366244    11.913667  # Hw spce
   2012     675    4  -0.847600000000    16.118367     8.751722    11.330260  # Ow spce
   2013     675    3   0.423800000000    16.355574     7.926967    11.843594  # Hw spce
   2014     676    3   0.423800000000    -1.704527    12.396724     6.908247  # Hw spce
   2015     676    4  -0.847600000000    -2.297087    13.112268     7.278207  # Ow spce
   2016     676    3   0.423800000000    -3.185399    13.079280     6.820154  # Hw spce
   2017     677    3   0.423800000000    -4.368758    -8.780483     7.976900  # Hw spce
   2018     677    4  -0.847600000000    -4.552605    -8.025465     7.347497  # Ow spce
   2019     677    3   0.423800000000    -5.367839    -8.233170     6.806895  # Hw spce
   2020     678    3   0.423800000000     5.389302     0.689698    14.782797  # Hw spce
   2021     678    4  -0.847600000000     5.094794     1.638987    14.672723  # Ow spce
   2022     678    3   0.423800000000     4.190149     1.660093    14.247083  # Hw spce
   2023     679    3   0.423800000000    -5.715149    -6.598887    -3.241593  # Hw spce
   2024     679    4  -0.847600000000    -4.942505    -6.120622    -2.824120  # Ow spce
   2025     679    3   0.423800000000    -4.308580    -6.788388    -2.433956  # Hw spce
   2026     680    3   0.423800000000   -18.188035   -12.023520     9.204645  # Hw spce
   2027     680    4  -0.847600000000   -17.227059   -12.092520     8.936757  # Ow spce
   2028     680    3   0.423800000000   -16.814265   -11.181698     8.938717  # Hw spce
   2029     681    3   0.423800000000   -14.378151   -12.215509   -13.105503  # Hw spce
   2030     681    4  -0.847600000000   -14.348798   -11.249722   -12.847833  # Ow spce
   2031     681    3   0.423800000000   -15.187538   -11.009487   -12.359158  # Hw spce
   2032     682    3   0.423800000000     8.980523    -3.282370    -3.593237  # Hw spce
   2033     682    4  -0.847600000000     8.180303    -3.882073    -3.595492  # Ow spce
   2034     682    3   0.423800000000     8.478588    -4.835741    -3.634784  # Hw spce
   2035     683    3   0.423800000000    12.851546    13.640850   -10.615667  # Hw spce
   2036     683    4  -0.847600000000    13.437034    13.941954   -11.368356  # Ow spce
   2037     683    3   0.423800000000    14.391181    13.941886   -11.069018  # Hw spce
   2038     684    3   0.423800000000     8.376644   -10.141852     3.337671  # Hw spce
   2039     684    4  -0.847600000000     7.460004   -10.193180     3.734075  # Ow spce
   2040     684    3   0.423800000000     7.410254    -9.598934     4.536819  # Hw spce
   2041     685    3   0.423800000000    15.576859    -9.683101     0.892871  # Hw spce
   2042     685    4  -0.847600000000    15.195505   -10.587738     1.083136  # Ow spce
   2043     685    3   0.423800000000    15.821827   -11.095874     1.674337  # Hw spce
   2044     686    3   0.423800000000   -14.712654    13.694333    -6.789984  # Hw spce
   2045     686    4  -0.847600000000   -15.322086    13.056081    -7.260333  # Ow spce
   2046     686    3   0.423800000000   -14.888934    12.156071    -7.308927  # Hw spce
   2047     687    3   0.423800000000     1.703110   -15.464280     8.030293  # Hw spce
   2048     687    4  -0.847600000000     1.592006   -14.612377     7.518516  # Ow spce
   2049     687    3   0.423800000000     0.857102   -14.719280     6.848823  # Hw spce
   2050     688    3   0.423800000000    -2.091528   -18.750473    11.082712  # Hw spce
   2051     688    4  -0.847600000000    -1.289081   -18.173704    11.235736  # Ow spce
   2052     688    3   0.423800000000    -0.479832   -18.750823    11.345504  # Hw spce
   2053     689    3   0.423800000000     8.847528     1.877085    -2.306554  # Hw spce
   2054     689    4  -0.847600000000     9.835758     1.821396    -2.164082  # Ow spce
   2055     689    3   0.423800000000    10.265511     2.669499    -2.473976  # Hw spce
   2056     690    3   0.423800000000    -5.788055     1.947622    13.215560  # Hw spce
   2057     690    4  -0.847600000000    -6.774991     2.002519    13.064093  # Ow spce
   2058     690    3   0.423800000000    -7.069556     2.955982    13.128438  # Hw spce
   2059     691    3   0.423800000000     6.815246     4.615926    15.689725  # Hw spce
   2060     691    4  -0.847600000000     7.626664     4.971038    15.225510  # Ow spce
   2061     691    3   0.423800000000     7.815114     5.899073    15.546815  # Hw spce
   2062     692    3   0.423800000000    15.814147     9.072720     5.460962  # Hw spce
   2063     692    4  -0.847600000000    15.776229     8.097954     5.240976  # Ow spce
   2064     692    3   0.423800000000    16.603254     7.836109     4.743516  # Hw spce
   2065     693    3   0.423800000000     8.435598     4.010940    -7.782707  # Hw spce
   2066     693    4  -0.847600000000     8.853782     3.726633    -8.645430  # Ow spce
   2067     693    3   0.423800000000     8.243894     3.090227    -9.117684  # Hw spce
   2068     694    3   0.423800000000     9.137076    15.425022     7.235050  # Hw spce
   2069     694    4  -0.847600000000    10.029677    15.874044     7.275586  # Ow spce
   2070     694    3   0.423800000000    10.752221    15.184505     7.225940  # Hw spce
   2071     695    3   0.423800000000    16.087532     1.676586    13.658345  # Hw spce
   2072     695    4  -0.847600000000    16.481587     0.768963    13.803052  # Ow spce
   2073     695    3   0.423800000000    15.757000     0.080893    13.763889  # Hw spce
   2074     696    3   0.423800000000     7.062454     8.560196    12.549109  # Hw spce
   2075     696    4  -0.847600000000     6.778254     7.613388    12.398159  # Ow spce
   2076     696    3   0.423800000000     6.848119     7.103667    13.255658  # Hw spce
   2077     697    3   0.423800000000    -2.499136    -8.445719    -7.758222  # Hw spce
   2078     697    4  -0.847600000000    -1.509137    -8.367128    -7.875385  # Ow spce
   2079     697    3   0.423800000000    -1.185801    -7.532964    -7.428594  # Hw spce
   2080     698    3   0.423800000000    10.453326    -6.922676   -11.629616  # Hw spce
   2081     698    4  -0.847600000000     9.985882    -6.040126   -11.578611  # Ow spce
   2082     698    3   0.423800000000    10.647745    -5.324866   -11.354243  # Hw spce
   2083     699    3   0.423800000000   -10.248744     8.418862     5.580051  # Hw spce
   2084     699    4  -0.847600000000    -9.626489     8.619398     4.823357  # Ow spce
   2085     699    3   0.423800000000    -9.337564     9.575419     4.873826  # Hw spce
   2086     700    3   0.423800000000    -7.534742    18.745703    -7.468545  # Hw spce
   2087     700    4  -0.847600000000    -8.393467    18.253917    -7.612552  # Ow spce
   2088     700    3   0.423800000000    -8.221810    17.269079    -7.587488  # Hw spce
   2089     701    3   0.423800000000   -16.999368     4.201838   -16.311106  # Hw spce
   2090     701    4  -0.847600000000   -17.109528     4.849898   -15.557525  # Ow spce
   2091     701    3   0.423800000000   -16.492665     4.600872   -14.810889  # Hw spce
   2092     702    3   0.423800000000    -1.445293    -0.092947   -13.129591  # Hw spce
   2093     702    4  -0.847600000000    -2.360030    -0.460629   -13.297119  # Ow spce
   2094     702    3   0.423800000000    -2.299384    -1.446292   -13.454566  # Hw spce
   2095     703    3   0.423800000000    -5.992247    -2.025827   -17.462094  # Hw spce
   2096     703    4  -0.847600000000    -6.369003    -1.828074   -18.367052  # Ow spce
   2097     703    3   0.423800000000    -7.342044    -1.613185   -18.283312  # Hw spce
   2098     704    3   0.423800000000    -2.908872     9.052578    -3.921056  # Hw spce
   2099     704    4  -0.847600000000    -2.376899     8.460396    -3.315808  # Ow spce
   2100     704    3   0.423800000000    -1.579841     8.960119    -2.976728  # Hw spce
   2101     705    3   0.423800000000   -12.312782   -13.659241    16.445225  # Hw spce
   2102     705    4  -0.847600000000   -13.046790   -14.332516    16.534297  # Ow spce
   2103     705    3   0.423800000000   -12.654708   -15.252197    16.555709  # Hw spce
   2104     706    3   0.423800000000    -0.331217     5.385552   -15.067697  # Hw spce
   2105     706    4  -0.847600000000    -0.925843     4.586148   -15.153569  # Ow spce
   2106     706    3   0.423800000000    -0.741849     4.125615   -16.021933  # Hw spce
   2107     707    3   0.423800000000    -1.571474    16.876994   -16.940291  # Hw spce
   2108     707    4  -0.847600000000    -2.550718    16.680703   -16.990800  # Ow spce
   2109     707    3   0.423800000000    -3.067295    17.528061   -16.867786  # Hw spce
   2110     708    3   0.423800000000    -2.991114   -14.689227     3.903158  # Hw spce
   2111     708    4  -0.847600000000    -2.248393   -15.088704     3.365772  # Ow spce
   2112     708    3   0.423800000000    -2.052798   -14.502155     2.579831  # Hw spce
   2113     709    3   0.423800000000   -17.288777    -1.202243     1.156189  # Hw spce
   2114     709    4  -0.847600000000   -17.399413    -1.761273     1.977922  # Ow spce
   2115     709    3   0.423800000000   -17.988130    -1.283047     2.629621  # Hw spce
   2116     710    3   0.423800000000    13.597345   -11.264468    16.543490  # Hw spce
   2117     710    4  -0.847600000000    12.614120   -11.400030    16.421457  # Ow spce
   2118     710    3   0.423800000000    12.322621   -10.973695    15.565147  # Hw spce
   2119     711    3   0.423800000000    -1.129445     8.804287     3.807596  # Hw spce
   2120     711    4  -0.847600000000    -0.754268     9.269609     4.609293  # Ow spce
   2121     711    3   0.423800000000    -1.068988     8.809400     5.439449  # Hw spce
   2122     712    3   0.423800000000   -18.750085     7.534868     8.233889  # Hw spce
   2123     712    4  -0.847600000000   -18.064901     6.912959     7.854742  # Ow spce
   2124     712    3   0.423800000000   -18.213497     6.813092     6.870900  # Hw spce
   2125     713    3   0.423800000000    -3.887639     5.393804    -3.336337  # Hw spce
   2126     713    4  -0.847600000000    -2.946005     5.719268    -3.422347  # Ow spce
   2127     713    3   0.423800000000    -2.347162     4.951021    -3.648583  # Hw spce
   2128     714    3   0.423800000000   -15.572025    -2.709900    -2.220934  # Hw spce
   2129     714    4  -0.847600000000   -16.105404    -3.227907    -2.889646  # Ow spce
   2130     714    3   0.423800000000   -15.945424    -4.206193    -2.757875  # Hw spce
   2131     715    3   0.423800000000     7.583957    15.705319    -8.388661  # Hw spce
   2132     715    4  -0.847600000000     7.909423    14.943026    -7.829214  # Ow spce
   2133     715    3   0.423800000000     7.289539    14.165184    -7.932673  # Hw spce
   2134     716    3   0.423800000000     8.206507    -6.747755     5.044394  # Hw spce
   2135     716    4  -0.847600000000     8.866348    -6.059182     5.345187  # Ow spce
   2136     716    3   0.423800000000     8.462391    -5.148816     5.255449  # Hw spce
   2137     717    3   0.423800000000    -5.750200    -4.629154     8.086594  # Hw spce
   2138     717    4  -0.847600000000    -5.806629    -5.624810     8.012538  # Ow spce
   2139     717    3   0.423800000000    -6.766322    -5.901535     7.963440  # Hw spce
   2140     718    3   0.423800000000     2.802054     8.106369   -11.184077  # Hw spce
   2141     718    4  -0.847600000000     1.934239     8.602897   -11.202971  # Ow spce
   2142     718    3   0.423800000000     2.027110     9.456035   -10.689619  # Hw spce
   2143     719    3   0.423800000000   -10.240444    13.430327   -16.329005  # Hw spce
   2144     719    4  -0.847600000000    -9.708658    14.272436   -16.239256  # Ow spce
   2145     719    3   0.423800000000    -9.581150    14.683904   -17.141716  # Hw spce
   2146     720    3   0.423800000000    -9.702370     9.216888     0.319365  # Hw spce
   2147     720    4  -0.847600000000    -8.857354     9.716443     0.128593  # Ow spce
   2148     720    3   0.423800000000    -8.943384    10.655877     0.460348  # Hw spce
   2149     721    3   0.423800000000    15.564360    11.072226   -17.240907  # Hw spce
   2150     721    4  -0.847600000000    15.733444    10.097212   -17.384986  # Ow spce
   2151     721    3   0.423800000000    14.860975     9.610480   -17.428461  # Hw spce
   2152     722    3   0.423800000000    -3.937938    -1.717809     5.256523  # Hw spce
   2153     722    4  -0.847600000000    -2.973230    -1.507154     5.414519  # Ow spce
   2154     722    3   0.423800000000    -2.478876    -2.349573     5.628864  # Hw spce
   2155     723    3   0.423800000000     8.600581     5.579832    -1.983095  # Hw spce
   2156     723    4  -0.847600000000     7.883279     4.913914    -1.778078  # Ow spce
   2157     723    3   0.423800000000     7.078440     5.389592    -1.423166  # Hw spce
   2158     724    3   0.423800000000    15.730466   -10.002908     5.781658  # Hw spce
   2159     724    4  -0.847600000000    16.725864    -9.931440     5.845502  # Ow spce
   2160     724    3   0.423800000000    16.981349    -8.980155     6.018077  # Hw spce
   2161     725    3   0.423800000000   -13.480744    10.767408     4.051791  # Hw spce
   2162     725    4  -0.847600000000   -13.877089    11.465798     4.647747  # Ow spce
   2163     725    3   0.423800000000   -14.874763    11.408910     4.610193  # Hw spce
   2164     726    3   0.423800000000    11.257684     1.143012    -5.396635  # Hw spce
   2165     726    4  -0.847600000000    11.800777     0.666953    -6.088312  # Ow spce
   2166     726    3   0.423800000000    12.645752     1.174717    -6.256222  # Hw spce
   2167     727    3   0.423800000000    -1.869698   -11.380912    15.435200  # Hw spce
   2168     727    4  -0.847600000000    -2.513452   -10.631542    15.280201  # Ow spce
   2169     727    3   0.423800000000    -3.094721   -10.519396    16.086148  # Hw spce
   2170     728    3   0.423800000000    16.252443   -10.902554     9.695256  # Hw spce
   2171     728    4  -0.847600000000    16.569766   -10.409565     8.885152  # Ow spce
   2172     728    3   0.423800000000    17.352588   -10.889044     8.488556  # Hw spce
   2173     729    3   0.423800000000    14.028838     3.589309    -6.629931  # Hw spce
   2174     729    4  -0.847600000000    13.459822     4.388667    -6.436939  # Ow spce
   2175     729    3   0.423800000000    12.533363     4.228373    -6.777494  # Hw spce
   2176     730    3   0.423800000000     0.595465     9.570154    15.411142  # Hw spce
   2177     730    4  -0.847600000000     1.401730     9.893593    14.915840  # Ow spce
   2178     730    3   0.423800000000     1.175009    10.733085    14.422029  # Hw spce
   2179     731    3   0.423800000000   -10.850977    -6.346949     0.726453  # Hw spce
   2180     731    4  -0.847600000000   -11.446230    -5.601734     0.425903  # Ow spce
   2181     731    3   0.423800000000   -10.915710    -4.756474     0.362002  # Hw spce
   2182     732    3   0.423800000000    -0.444224   -18.713450     3.071473  # Hw spce
   2183     732    4  -0.847600000000    -0.792903   -17.779887     2.988503  # Ow spce
   2184     732    3   0.423800000000    -1.787821   -17.785513     3.089036  # Hw spce
   2185     733    3   0.423800000000    -6.329744    16.365763    -5.807854  # Hw spce
   2186     733    4  -0.847600000000    -5.764442    17.131300    -6.115078  # Ow spce
   2187     733    3   0.423800000000    -4.814541    16.973533    -5.845267  # Hw spce
   2188     734    3   0.423800000000    14.507567     4.849088   -17.983170  # Hw spce
   2189     734    4  -0.847600000000    13.906273     4.052301   -18.042971  # Ow spce
   2190     734    3   0.423800000000    13.028969     4.325643   -18.437461  # Hw spce
   2191     735    3   0.423800000000   -14.268473    17.849517    -7.444528  # Hw spce
   2192     735    4  -0.847600000000   -13.856125    17.284055    -8.158826  # Ow spce
   2193     735    3   0.423800000000   -14.071387    16.322467    -7.988497  # Hw spce
   2194     736    3   0.423800000000   -13.454815    15.043625    -4.217978  # Hw spce
   2195     736    4  -0.847600000000   -12.810521    14.405477    -4.639468  # Ow spce
   2196     736    3   0.423800000000   -13.092421    13.466950    -4.440222  # Hw spce
   2197     737    3   0.423800000000    -2.318587   -18.593273    15.850749  # Hw spce
   2198     737    4  -0.847600000000    -3.041778   -18.069608    16.301049  # Ow spce
   2199     737    3   0.423800000000    -3.119082   -18.360015    17.254824  # Hw spce
   2200     738    3   0.423800000000     4.762463    11.269671    12.169022  # Hw spce
   2201     738    4  -0.847600000000     5.106706    11.103882    11.244895  # Ow spce
   2202     738    3   0.423800000000     6.079533    10.876292    11.287429  # Hw spce
   2203     739    3   0.423800000000   -12.387909    -9.952941    -0.106532  # Hw spce
   2204     739    4  -0.847600000000   -13.319339    -9.943816    -0.470338  # Ow spce
   2205     739    3   0.423800000000   -13.575119   -10.867741    -0.754837  # Hw spce
   2206     740    3   0.423800000000    -5.837289    -6.737001    11.477775  # Hw spce
   2207     740    4  -0.847600000000    -6.745064    -6.451333    11.784919  # Ow spce
   2208     740    3   0.423800000000    -6.833805    -5.460201    11.686011  # Hw spce
   2209     741    3   0.423800000000     1.828108   -14.014279    10.540036  # Hw spce
   2210     741    4  -0.847600000000     2.793198   -14.253204    10.647348  # Ow spce
   2211     741    3   0.423800000000     3.235886   -13.589366    11.250130  # Hw spce
   2212     742    3   0.423800000000     4.358204   -17.532156    15.514386  # Hw spce
   2213     742    4  -0.847600000000     5.100912   -18.194995    15.419368  # Ow spce
   2214     742    3   0.423800000000     5.976873   -17.738827    15.576222  # Hw spce
   2215     743    3   0.423800000000   -14.716087   -17.832567    -7.418481  # Hw spce
   2216     743    4  -0.847600000000   -14.027801   -17.155501    -7.158012  # Ow spce
   2217     743    3   0.423800000000   -14.224728   -16.816995    -6.237885  # Hw spce
   2218     744    3   0.423800000000    -7.506863     3.436722     4.589536  # Hw spce
   2219     744    4  -0.847600000000    -7.247773     3.701375     3.660648  # Ow spce
   2220     744    3   0.423800000000    -6.682529     2.983165     3.254851  # Hw spce
   2221     745    3   0.423800000000    -3.395104   -14.576524     8.149061  # Hw spce
   2222     745    4  -0.847600000000    -2.493402   -14.153689     8.058816  # Ow spce
   2223     745    3   0.423800000000    -1.804968   -14.864398     7.914067  # Hw spce
   2224     746    3   0.423800000000     9.275498     7.727436   -16.860315  # Hw spce
   2225     746    4  -0.847600000000     9.801258     6.962547   -17.232498  # Ow spce
   2226     746    3   0.423800000000    10.736910     6.999115   -16.881475  # Hw spce
   2227     747    3   0.423800000000    -3.662358    -5.113725   -18.408920  # Hw spce
   2228     747    4  -0.847600000000    -4.312923    -4.357939   -18.334406  # Ow spce
   2229     747    3   0.423800000000    -5.188579    -4.703893   -17.997446  # Hw spce
   2230     748    3   0.423800000000    15.183326     6.022236   -10.798383  # Hw spce
   2231     748    4  -0.847600000000    15.703894     5.288237   -11.234565  # Ow spce
   2232     748    3   0.423800000000    15.544165     5.307364   -12.221541  # Hw spce
   2233     749    3   0.423800000000    10.031547    14.578413    12.790615  # Hw spce
   2234     749    4  -0.847600000000    10.954297    14.796779    12.473047  # Ow spce
   2235     749    3   0.423800000000    11.531484    13.983001    12.541013  # Hw spce
   2236     750    3   0.423800000000    10.933317    -4.204395     3.337358  # Hw spce
   2237     750    4  -0.847600000000    11.025885    -5.073310     3.823587  # Ow spce
   2238     750    3   0.423800000000    11.985803    -5.353584     3.825482  # Hw spce
   2239     751    3   0.423800000000   -11.317700    16.896583   -15.322925  # Hw spce
   2240     751    4  -0.847600000000   -11.686780    15.976413   -15.192282  # Ow spce
   2241     751    3   0.423800000000   -11.422525    15.636325   -14.289780  # Hw spce
   2242     752    3   0.423800000000    -2.835458    -5.506296     1.632736  # Hw spce
   2243     752    4  -0.847600000000    -3.328722    -5.269476     0.795712  # Ow spce
   2244     752    3   0.423800000000    -2.798723    -5.566038     0.001262  # Hw spce
   2245     753    3   0.423800000000   -11.086357   -13.533052    -9.038284  # Hw spce
   2246     753    4  -0.847600000000   -10.552690   -14.378722    -9.044714  # Ow spce
   2247     753    3   0.423800000000    -9.583520   -14.160392    -9.158914  # Hw spce
   2248     754    3   0.423800000000    -5.326977     8.510473    15.091466  # Hw spce
   2249     754    4  -0.847600000000    -6.040936     9.075265    15.505318  # Ow spce
   2250     754    3   0.423800000000    -6.529644     8.541790    16.195657  # Hw spce
   2251     755    3   0.423800000000    -1.628521    -0.827564    -5.193419  # Hw spce
   2252     755    4  -0.847600000000    -2.390957    -1.403338    -5.488671  # Ow spce
   2253     755    3   0.423800000000    -3.068485    -1.461051    -4.755442  # Hw spce
   2254     756    3   0.423800000000     8.694130   -11.091145     6.469765  # Hw spce
   2255     756    4  -0.847600000000     9.505833   -10.680801     6.054127  # Ow spce
   2256     756    3   0.423800000000    10.317402   -11.197337     6.327159  # Hw spce
   2257     757    3   0.423800000000   -15.968746     5.242147    -9.128309  # Hw spce
   2258     757    4  -0.847600000000   -16.056331     4.253547    -9.005840  # Ow spce
   2259     757    3   0.423800000000   -16.965664     4.041283    -8.647990  # Hw spce
   2260     758    3   0.423800000000    -8.211852     8.393471   -18.563468  # Hw spce
   2261     758    4  -0.847600000000    -7.289135     8.297432   -18.190145  # Ow spce
   2262     758    3   0.423800000000    -6.768034     7.653936   -18.750830  # Hw spce
   2263     759    3   0.423800000000    -6.410007    -0.991940    18.715157  # Hw spce
   2264     759    4  -0.847600000000    -6.973712    -1.472272    18.043205  # Ow spce
   2265     759    3   0.423800000000    -6.926896    -0.994184    17.166142  # Hw spce
   2266     760    3   0.423800000000    18.750094    17.326439   -18.750138  # Hw spce
   2267     760    4  -0.847600000000    18.368544    16.580578   -18.204142  # Ow spce
   2268     760    3   0.423800000000    17.546189    16.227666   -18.650445  # Hw spce
   2269     761    3   0.423800000000     6.599163    -6.554721     7.303925  # Hw spce
   2270     761    4  -0.847600000000     5.725512    -7.038947     7.256385  # Ow spce
   2271     761    3   0.423800000000     4.983805    -6.377925     7.142715  # Hw spce
   2272     762    3   0.423800000000     3.410008    -0.960481    -1.056862  # Hw spce
   2273     762    4  -0.847600000000     2.421485    -0.843966    -0.960700  # Ow spce
   2274     762    3   0.423800000000     2.025353    -0.611080    -1.848868  # Hw spce
   2275     763    3   0.423800000000     0.315822     5.536956     7.015430  # Hw spce
   2276     763    4  -0.847600000000     1.248670     5.176906     7.002846  # Ow spce
   2277     763    3   0.423800000000     1.686620     5.355046     7.884019  # Hw spce
   2278     764    3   0.423800000000    15.074427    -2.453616   -17.687776  # Hw spce
   2279     764    4  -0.847600000000    15.181968    -1.582634   -18.167177  # Ow spce
   2280     764    3   0.423800000000    14.500375    -0.931758   -17.832823  # Hw spce
   2281     765    3   0.423800000000   -15.831776   -17.049948     9.652118  # Hw spce
   2282     765    4  -0.847600000000   -16.000965   -17.986000     9.960636  # Ow spce
   2283     765    3   0.423800000000   -16.974657   -18.195573     9.871185  # Hw spce
   2284     766    3   0.423800000000    -1.534700    14.705133    -2.006582  # Hw spce
   2285     766    4  -0.847600000000    -2.464378    14.583948    -1.658714  # Ow spce
   2286     766    3   0.423800000000    -2.877513    15.479363    -1.492728  # Hw spce
   2287     767    3   0.423800000000    -4.376567     6.744338     4.029299  # Hw spce
   2288     767    4  -0.847600000000    -3.701679     6.168781     4.491101  # Ow spce
   2289     767    3   0.423800000000    -3.758235     6.315702     5.478630  # Hw spce
   2290     768    3   0.423800000000    -2.035094     8.616811   -13.644605  # Hw spce
   2291     768    4  -0.847600000000    -2.298079     9.305101   -12.968517  # Ow spce
   2292     768    3   0.423800000000    -1.790189    10.149721   -13.137820  # Hw spce
   2293     769    3   0.423800000000    17.144803   -16.479433    10.744020  # Hw spce
   2294     769    4  -0.847600000000    17.033140   -17.470688    10.814345  # Ow spce
   2295     769    3   0.423800000000    16.077480   -17.684958    11.016340  # Hw spce
   2296     770    3   0.423800000000   -18.268751    15.748551     8.418304  # Hw spce
   2297     770    4  -0.847600000000   -18.755489    14.886737     8.561002  # Ow spce
   2298     770    3   0.423800000000   -18.117331    14.123198     8.462197  # Hw spce
   2299     771    3   0.423800000000     4.243996    13.816618   -18.750625  # Hw spce
   2300     771    4  -0.847600000000     4.348056    14.632526   -18.181886  # Ow spce
   2301     771    3   0.423800000000     4.251299    15.449582   -18.750267  # Hw spce
   2302     772    3   0.423800000000    10.158508    -7.922729    18.197721  # Hw spce
   2303     772    4  -0.847600000000    10.632801    -8.800114    18.125323  # Ow spce
   2304     772    3   0.423800000000    10.817458    -9.000799    17.163228  # Hw spce
   2305     773    3   0.423800000000    12.461900     9.994003   -14.649649  # Hw spce
   2306     773    4  -0.847600000000    13.419983     9.909459   -14.375917  # Ow spce
   2307     773    3   0.423800000000    13.854313     9.179636   -14.903853  # Hw spce
   2308     774    3   0.423800000000   -17.232751     0.864029    18.438734  # Hw spce
   2309     774    4  -0.847600000000   -16.402311     1.310504    18.771943  # Ow spce
   2310     774    3   0.423800000000   -15.600680     0.854773    18.385038  # Hw spce
   2311     775    3   0.423800000000     8.855652   -18.031205    12.736130  # Hw spce
   2312     775    4  -0.847600000000     7.941718   -18.362656    12.501894  # Ow spce
   2313     775    3   0.423800000000     7.398812   -18.460700    13.335944  # Hw spce
   2314     776    3   0.423800000000     6.032681     9.299817    -3.110229  # Hw spce
   2315     776    4  -0.847600000000     6.269797     8.356807    -2.876760  # Ow spce
   2316     776    3   0.423800000000     5.710592     7.728762    -3.417915  # Hw spce
   2317     777    3   0.423800000000   -17.912647   -10.405530   -11.574077  # Hw spce
   2318     777    4  -0.847600000000   -17.885167   -11.379605   -11.798626  # Ow spce
   2319     777    3   0.423800000000   -18.665618   -11.841054   -11.376772  # Hw spce
   2320     778    3   0.423800000000    -8.809830     6.800532   -14.459537  # Hw spce
   2321     778    4  -0.847600000000    -8.005630     6.939987   -15.037305  # Ow spce
   2322     778    3   0.423800000000    -8.286102     6.973126   -15.996595  # Hw spce
   2323     779    3   0.423800000000    17.216794     0.241113   -18.515016  # Hw spce
   2324     779    4  -0.847600000000    17.560124     1.173902   -18.405343  # Ow spce
   2325     779    3   0.423800000000    16.795862     1.790198   -18.215386  # Hw spce
   2326     780    3   0.423800000000    12.562254    -4.088160    -9.627194  # Hw spce
   2327     780    4  -0.847600000000    13.559172    -4.139492    -9.686529  # Ow spce
   2328     780    3   0.423800000000    13.935579    -3.217508    -9.777430  # Hw spce
   2329     781    3   0.423800000000   -13.331228    14.649151    -0.231488  # Hw spce
   2330     781    4  -0.847600000000   -13.107818    13.752693     0.151200  # Ow spce
   2331     781    3   0.423800000000   -12.269867    13.820859     0.692672  # Hw spce
   2332     782    3   0.423800000000    -4.504939    12.375486     0.846935  # Hw spce
   2333     782    4  -0.847600000000    -4.474582    12.583477    -0.130724  # Ow spce
   2334     782    3   0.423800000000    -5.271528    13.134021    -0.379275  # Hw spce
   2335     783    3   0.423800000000   -17.848683     1.446116     1.832200  # Hw spce
   2336     783    4  -0.847600000000   -17.927816     2.438531     1.738130  # Ow spce
   2337     783    3   0.423800000000   -17.177030     2.880767     2.228791  # Hw spce
   2338     784    3   0.423800000000   -14.039040    15.151666   -17.464170  # Hw spce
   2339     784    4  -0.847600000000   -14.557913    14.704152   -16.735815  # Ow spce
   2340     784    3   0.423800000000   -15.024357    15.396397   -16.185155  # Hw spce
   2341     785    3   0.423800000000   -10.303886    -8.970174   -12.121193  # Hw spce
   2342     785    4  -0.847600000000   -10.336552    -9.123687   -11.133587  # Ow spce
   2343     785    3   0.423800000000    -9.464604    -9.505024   -10.826525  # Hw spce
   2344     786    3   0.423800000000    10.617444    -1.096856     0.124286  # Hw spce
   2345     786    4  -0.847600000000    10.983208    -1.589712    -0.665213  # Ow spce
   2346     786    3   0.423800000000    10.914484    -1.012993    -1.479260  # Hw spce
   2347     787    3   0.423800000000     8.252708   -13.301556     8.119405  # Hw spce
   2348     787    4  -0.847600000000     8.483237   -14.158593     7.658596  # Ow spce
   2349     787    3   0.423800000000     9.212042   -13.994094     6.993928  # Hw spce
   2350     788    3   0.423800000000    18.158561    18.433302   -10.698758  # Hw spce
   2351     788    4  -0.847600000000    18.274157    18.091145    -9.766253  # Ow spce
   2352     788    3   0.423800000000    17.890043    18.750006    -9.119447  # Hw spce
   2353     789    3   0.423800000000    -7.772835   -18.750030   -15.909853  # Hw spce
   2354     789    4  -0.847600000000    -8.137498   -17.832739   -16.069850  # Ow spce
   2355     789    3   0.423800000000    -9.136781   -17.868692   -16.081665  # Hw spce
   2356     790    3   0.423800000000    16.105461    10.551071   -12.680282  # Hw spce
   2357     790    4  -0.847600000000    15.501167    11.339921   -12.568279  # Ow spce
   2358     790    3   0.423800000000    16.050784    12.169579   -12.470354  # Hw spce
   2359     791    3   0.423800000000     4.407130   -12.570223    13.563164  # Hw spce
   2360     791    4  -0.847600000000     3.530847   -12.887596    13.925659  # Ow spce
   2361     791    3   0.423800000000     2.910736   -12.109682    14.027204  # Hw spce
   2362     792    3   0.423800000000    -6.417920    -4.677656     5.173010  # Hw spce
   2363     792    4  -0.847600000000    -6.290529    -3.700524     5.343260  # Ow spce
   2364     792    3   0.423800000000    -6.213323    -3.217508     4.471059  # Hw spce
   2365     793    3   0.423800000000    -5.570200     8.255606   -10.819826  # Hw spce
   2366     793    4  -0.847600000000    -5.041398     8.152427   -11.662276  # Ow spce
   2367     793    3   0.423800000000    -5.661119     8.153873   -12.447097  # Hw spce
   2368     794    3   0.423800000000    10.812757    11.515199    -8.620916  # Hw spce
   2369     794    4  -0.847600000000    10.138000    10.779685    -8.559919  # Ow spce
   2370     794    3   0.423800000000    10.583431     9.902864    -8.740963  # Hw spce
   2371     795    3   0.423800000000   -10.414019     9.988728    -8.071327  # Hw spce
   2372     795    4  -0.847600000000    -9.890496     9.181140    -7.799803  # Ow spce
   2373     795    3   0.423800000000    -9.968686     8.479582    -8.508112  # Hw spce
   2374     796    3   0.423800000000     0.761040    -1.722713    -7.813468  # Hw spce
   2375     796    4  -0.847600000000    -0.219549    -1.918696    -7.807551  # Ow spce
   2376     796    3   0.423800000000    -0.731165    -1.059488    -7.804326  # Hw spce
   2377     797    3   0.423800000000    -4.603577     0.037599    14.900640  # Hw spce
   2378     797    4  -0.847600000000    -3.604650     0.042849    14.854641  # Ow spce
   2379     797    3   0.423800000000    -3.230055    -0.338374    15.699832  # Hw spce
   2380     798    3   0.423800000000    -7.212539    -0.436908     3.631311  # Hw spce
   2381     798    4  -0.847600000000    -7.493011     0.299606     3.015776  # Ow spce
   2382     798    3   0.423800000000    -8.299462     0.757612     3.389762  # Hw spce
   2383     799    3   0.423800000000    -5.830106     5.514508   -11.627581  # Hw spce
   2384     799    4  -0.847600000000    -6.652866     5.597750   -12.189841  # Ow spce
   2385     799    3   0.423800000000    -7.440339     5.248412   -11.682054  # Hw spce
   2386     800    3   0.423800000000     4.251155    -5.016162    17.669204  # Hw spce
   2387     800    4  -0.847600000000     3.528082    -4.926836    16.984232  # Ow spce
   2388     800    3   0.423800000000     2.682362    -5.326054    17.338326  # Hw spce
   2389     801    3   0.423800000000    -8.364937   -10.745575    10.657478  # Hw spce
   2390     801    4  -0.847600000000    -8.363824    -9.908096    11.203946  # Ow spce
   2391     801    3   0.423800000000    -8.974944    -9.236226    10.785469  # Hw spce
   2392     802    3   0.423800000000     8.299949    -2.091641    -1.111341  # Hw spce
   2393     802    4  -0.847600000000     7.593551    -2.633587    -0.656042  # Ow spce
   2394     802    3   0.423800000000     6.714781    -2.161400    -0.725333  # Hw spce
   2395     803    3   0.423800000000    10.677167    -0.083388   -14.441863  # Hw spce
   2396     803    4  -0.847600000000     9.928601    -0.544150   -14.918671  # Ow spce
   2397     803    3   0.423800000000    10.303942    -1.208772   -15.564734  # Hw spce
   2398     804    3   0.423800000000    -2.673042    18.752154   -13.131920  # Hw spce
   2399     804    4  -0.847600000000    -2.753128    17.772006   -13.313296  # Ow spce
   2400     804    3   0.423800000000    -1.862527    17.335532   -13.185546  # Hw spce
   2401     805    3   0.423800000000   -12.763062    -5.145628    -2.371669  # Hw spce
   2402     805    4  -0.847600000000   -11.764963    -5.084714    -2.380985  # Ow spce
   2403     805    3   0.423800000000   -11.375650    -6.002970    -2.453369  # Hw spce
   2404     806    3   0.423800000000   -14.511879     0.176095     0.000942  # Hw spce
   2405     806    4  -0.847600000000   -13.876650    -0.039460     0.742575  # Ow spce
   2406     806    3   0.423800000000   -13.288521     0.750110     0.917745  # Hw spce

Bonds

      1    1       7       8  # Hw-Ow
      2    1       8       9  # Ow-Hw
      3    1      10      11  # Hw-Ow
      4    1      11      12  # Ow-Hw
      5    1      13      14  # Hw-Ow
      6    1      14      15  # Ow-Hw
      7    1      16      17  # Hw-Ow
      8    1      17      18  # Ow-Hw
      9    1      19      20  # Hw-Ow
     10    1      20      21  # Ow-Hw
     11    1      22      23  # Hw-Ow
     12    1      23      24  # Ow-Hw
     13    1      25      26  # Hw-Ow
     14    1      26      27  # Ow-Hw
     15    1      28      29  # Hw-Ow
     16    1      29      30  # Ow-Hw
     17    1      31      32  # Hw-Ow
     18    1      32      33  # Ow-Hw
     19    1      34      35  # Hw-Ow
     20    1      35      36  # Ow-Hw
     21    1      37      38  # Hw-Ow
     22    1      38      39  # Ow-Hw
     23    1      40      41  # Hw-Ow
     24    1      41      42  # Ow-Hw
     25    1      43      44  # Hw-Ow
     26    1      44      45  # Ow-Hw
     27    1      46      47  # Hw-Ow
     28    1      47      48  # Ow-Hw
     29    1      49      50  # Hw-Ow
     30    1      50      51  # Ow-Hw
     31    1      52      53  # Hw-Ow
     32    1      53      54  # Ow-Hw
     33    1      55      56  # Hw-Ow
     34    1      56      57  # Ow-Hw
     35    1      58      59  # Hw-Ow
     36    1      59      60  # Ow-Hw
     37    1      61      62  # Hw-Ow
     38    1      62      63  # Ow-Hw
     39    1      64      65  # Hw-Ow
     40    1      65      66  # Ow-Hw
     41    1      67      68  # Hw-Ow
     42    1      68      69  # Ow-Hw
     43    1      70      71  # Hw-Ow
     44    1      71      72  # Ow-Hw
     45    1      73      74  # Hw-Ow
     46    1      74      75  # Ow-Hw
     47    1      76      77  # Hw-Ow
     48    1      77      78  # Ow-Hw
     49    1      79      80  # Hw-Ow
     50    1      80      81  # Ow-Hw
     51    1      82      83  # Hw-Ow
     52    1      83      84  # Ow-Hw
     53    1      85      86  # Hw-Ow
     54    1      86      87  # Ow-Hw
     55    1      88      89  # Hw-Ow
     56    1      89      90  # Ow-Hw
     57    1      91      92  # Hw-Ow
     58    1      92      93  # Ow-Hw
     59    1      94      95  # Hw-Ow
     60    1      95      96  # Ow-Hw
     61    1      97      98  # Hw-Ow
     62    1      98      99  # Ow-Hw
     63    1     100     101  # Hw-Ow
     64    1     101     102  # Ow-Hw
     65    1     103     104  # Hw-Ow
     66    1     104     105  # Ow-Hw
     67    1     106     107  # Hw-Ow
     68    1     107     108  # Ow-Hw
     69    1     109     110  # Hw-Ow
     70    1     110     111  # Ow-Hw
     71    1     112     113  # Hw-Ow
     72    1     113     114  # Ow-Hw
     73    1     115     116  # Hw-Ow
     74    1     116     117  # Ow-Hw
     75    1     118     119  # Hw-Ow
     76    1     119     120  # Ow-Hw
     77    1     121     122  # Hw-Ow
     78    1     122     123  # Ow-Hw
     79    1     124     125  # Hw-Ow
     80    1     125     126  # Ow-Hw
     81    1     127     128  # Hw-Ow
     82    1     128     129  # Ow-Hw
     83    1     130     131  # Hw-Ow
     84    1     131     132  # Ow-Hw
     85    1     133     134  # Hw-Ow
     86    1     134     135  # Ow-Hw
     87    1     136     137  # Hw-Ow
     88    1     137     138  # Ow-Hw
     89    1     139     140  # Hw-Ow
     90    1     140     141  # Ow-Hw
     91    1     142     143  # Hw-Ow
     92    1     143     144  # Ow-Hw
     93    1     145     146  # Hw-Ow
     94    1     146     147  # Ow-Hw
     95    1     148     149  # Hw-Ow
     96    1     149     150  # Ow-Hw
     97    1     151     152  # Hw-Ow
     98    1     152     153  # Ow-Hw
     99    1     154     155  # Hw-Ow
    100    1     155     156  # Ow-Hw
    101    1     157     158  # Hw-Ow
    102    1     158     159  # Ow-Hw
    103    1     160     161  # Hw-Ow
    104    1     161     162  # Ow-Hw
    105    1     163     164  # Hw-Ow
    106    1     164     165  # Ow-Hw
    107    1     166     167  # Hw-Ow
    108    1     167     168  # Ow-Hw
    109    1     169     170  # Hw-Ow
    110    1     170     171  # Ow-Hw
    111    1     172     173  # Hw-Ow
    112    1     173     174  # Ow-Hw
    113    1     175     176  # Hw-Ow
    114    1     176     177  # Ow-Hw
    115    1     178     179  # Hw-Ow
    116    1     179     180  # Ow-Hw
    117    1     181     182  # Hw-Ow
    118    1     182     183  # Ow-Hw
    119    1     184     185  # Hw-Ow
    120    1     185     186  # Ow-Hw
    121    1     187     188  # Hw-Ow
    122    1     188     189  # Ow-Hw
    123    1     190     191  # Hw-Ow
    124    1     191     192  # Ow-Hw
    125    1     193     194  # Hw-Ow
    126    1     194     195  # Ow-Hw
    127    1     196     197  # Hw-Ow
    128    1     197     198  # Ow-Hw
    129    1     199     200  # Hw-Ow
    130    1     200     201  # Ow-Hw
    131    1     202     203  # Hw-Ow
    132    1     203     204  # Ow-Hw
    133    1     205     206  # Hw-Ow
    134    1     206     207  # Ow-Hw
    135    1     208     209  # Hw-Ow
    136    1     209     210  # Ow-Hw
    137    1     211     212  # Hw-Ow
    138    1     212     213  # Ow-Hw
    139    1     214     215  # Hw-Ow
    140    1     215     216  # Ow-Hw
    141    1     217     218  # Hw-Ow
    142    1     218     219  # Ow-Hw
    143    1     220     221  # Hw-Ow
    144    1     221     222  # Ow-Hw
    145    1     223     224  # Hw-Ow
    146    1     224     225  # Ow-Hw
    147    1     226     227  # Hw-Ow
    148    1     227     228  # Ow-Hw
    149    1     229     230  # Hw-Ow
    150    1     230     231  # Ow-Hw
    151    1     232     233  # Hw-Ow
    152    1     233     234  # Ow-Hw
    153    1     235     236  # Hw-Ow
    154    1     236     237  # Ow-Hw
    155    1     238     239  # Hw-Ow
    156    1     239     240  # Ow-Hw
    157    1     241     242  # Hw-Ow
    158    1     242     243  # Ow-Hw
    159    1     244     245  # Hw-Ow
    160    1     245     246  # Ow-Hw
    161    1     247     248  # Hw-Ow
    162    1     248     249  # Ow-Hw
    163    1     250     251  # Hw-Ow
    164    1     251     252  # Ow-Hw
    165    1     253     254  # Hw-Ow
    166    1     254     255  # Ow-Hw
    167    1     256     257  # Hw-Ow
    168    1     257     258  # Ow-Hw
    169    1     259     260  # Hw-Ow
    170    1     260     261  # Ow-Hw
    171    1     262     263  # Hw-Ow
    172    1     263     264  # Ow-Hw
    173    1     265     266  # Hw-Ow
    174    1     266     267  # Ow-Hw
    175    1     268     269  # Hw-Ow
    176    1     269     270  # Ow-Hw
    177    1     271     272  # Hw-Ow
    178    1     272     273  # Ow-Hw
    179    1     274     275  # Hw-Ow
    180    1     275     276  # Ow-Hw
    181    1     277     278  # Hw-Ow
    182    1     278     279  # Ow-Hw
    183    1     280     281  # Hw-Ow
    184    1     281     282  # Ow-Hw
    185    1     283     284  # Hw-Ow
    186    1     284     285  # Ow-Hw
    187    1     286     287  # Hw-Ow
    188    1     287     288  # Ow-Hw
    189    1     289     290  # Hw-Ow
    190    1     290     291  # Ow-Hw
    191    1     292     293  # Hw-Ow
    192    1     293     294  # Ow-Hw
    193    1     295     296  # Hw-Ow
    194    1     296     297  # Ow-Hw
    195    1     298     299  # Hw-Ow
    196    1     299     300  # Ow-Hw
    197    1     301     302  # Hw-Ow
    198    1     302     303  # Ow-Hw
    199    1     304     305  # Hw-Ow
    200    1     305     306  # Ow-Hw
    201    1     307     308  # Hw-Ow
    202    1     308     309  # Ow-Hw
    203    1     310     311  # Hw-Ow
    204    1     311     312  # Ow-Hw
    205    1     313     314  # Hw-Ow
    206    1     314     315  # Ow-Hw
    207    1     316     317  # Hw-Ow
    208    1     317     318  # Ow-Hw
    209    1     319     320  # Hw-Ow
    210    1     320     321  # Ow-Hw
    211    1     322     323  # Hw-Ow
    212    1     323     324  # Ow-Hw
    213    1     325     326  # Hw-Ow
    214    1     326     327  # Ow-Hw
    215    1     328     329  # Hw-Ow
    216    1     329     330  # Ow-Hw
    217    1     331     332  # Hw-Ow
    218    1     332     333  # Ow-Hw
    219    1     334     335  # Hw-Ow
    220    1     335     336  # Ow-Hw
    221    1     337     338  # Hw-Ow
    222    1     338     339  # Ow-Hw
    223    1     340     341  # Hw-Ow
    224    1     341     342  # Ow-Hw
    225    1     343     344  # Hw-Ow
    226    1     344     345  # Ow-Hw
    227    1     346     347  # Hw-Ow
    228    1     347     348  # Ow-Hw
    229    1     349     350  # Hw-Ow
    230    1     350     351  # Ow-Hw
    231    1     352     353  # Hw-Ow
    232    1     353     354  # Ow-Hw
    233    1     355     356  # Hw-Ow
    234    1     356     357  # Ow-Hw
    235    1     358     359  # Hw-Ow
    236    1     359     360  # Ow-Hw
    237    1     361     362  # Hw-Ow
    238    1     362     363  # Ow-Hw
    239    1     364     365  # Hw-Ow
    240    1     365     366  # Ow-Hw
    241    1     367     368  # Hw-Ow
    242    1     368     369  # Ow-Hw
    243    1     370     371  # Hw-Ow
    244    1     371     372  # Ow-Hw
    245    1     373     374  # Hw-Ow
    246    1     374     375  # Ow-Hw
    247    1     376     377  # Hw-Ow
    248    1     377     378  # Ow-Hw
    249    1     379     380  # Hw-Ow
    250    1     380     381  # Ow-Hw
    251    1     382     383  # Hw-Ow
    252    1     383     384  # Ow-Hw
    253    1     385     386  # Hw-Ow
    254    1     386     387  # Ow-Hw
    255    1     388     389  # Hw-Ow
    256    1     389     390  # Ow-Hw
    257    1     391     392  # Hw-Ow
    258    1     392     393  # Ow-Hw
    259    1     394     395  # Hw-Ow
    260    1     395     396  # Ow-Hw
    261    1     397     398  # Hw-Ow
    262    1     398     399  # Ow-Hw
    263    1     400     401  # Hw-Ow
    264    1     401     402  # Ow-Hw
    265    1     403     404  # Hw-Ow
    266    1     404     405  # Ow-Hw
    267    1     406     407  # Hw-Ow
    268    1     407     408  # Ow-Hw
    269    1     409     410  # Hw-Ow
    270    1     410     411  # Ow-Hw
    271    1     412     413  # Hw-Ow
    272    1     413     414  # Ow-Hw
    273    1     415     416  # Hw-Ow
    274    1     416     417  # Ow-Hw
    275    1     418     419  # Hw-Ow
    276    1     419     420  # Ow-Hw
    277    1     421     422  # Hw-Ow
    278    1     422     423  # Ow-Hw
    279    1     424     425  # Hw-Ow
    280    1     425     426  # Ow-Hw
    281    1     427     428  # Hw-Ow
    282    1     428     429  # Ow-Hw
    283    1     430     431  # Hw-Ow
    284    1     431     432  # Ow-Hw
    285    1     433     434  # Hw-Ow
    286    1     434     435  # Ow-Hw
    287    1     436     437  # Hw-Ow
    288    1     437     438  # Ow-Hw
    289    1     439     440  # Hw-Ow
    290    1     440     441  # Ow-Hw
    291    1     442     443  # Hw-Ow
    292    1     443     444  # Ow-Hw
    293    1     445     446  # Hw-Ow
    294    1     446     447  # Ow-Hw
    295    1     448     449  # Hw-Ow
    296    1     449     450  # Ow-Hw
    297    1     451     452  # Hw-Ow
    298    1     452     453  # Ow-Hw
    299    1     454     455  # Hw-Ow
    300    1     455     456  # Ow-Hw
    301    1     457     458  # Hw-Ow
    302    1     458     459  # Ow-Hw
    303    1     460     461  # Hw-Ow
    304    1     461     462  # Ow-Hw
    305    1     463     464  # Hw-Ow
    306    1     464     465  # Ow-Hw
    307    1     466     467  # Hw-Ow
    308    1     467     468  # Ow-Hw
    309    1     469     470  # Hw-Ow
    310    1     470     471  # Ow-Hw
    311    1     472     473  # Hw-Ow
    312    1     473     474  # Ow-Hw
    313    1     475     476  # Hw-Ow
    314    1     476     477  # Ow-Hw
    315    1     478     479  # Hw-Ow
    316    1     479     480  # Ow-Hw
    317    1     481     482  # Hw-Ow
    318    1     482     483  # Ow-Hw
    319    1     484     485  # Hw-Ow
    320    1     485     486  # Ow-Hw
    321    1     487     488  # Hw-Ow
    322    1     488     489  # Ow-Hw
    323    1     490     491  # Hw-Ow
    324    1     491     492  # Ow-Hw
    325    1     493     494  # Hw-Ow
    326    1     494     495  # Ow-Hw
    327    1     496     497  # Hw-Ow
    328    1     497     498  # Ow-Hw
    329    1     499     500  # Hw-Ow
    330    1     500     501  # Ow-Hw
    331    1     502     503  # Hw-Ow
    332    1     503     504  # Ow-Hw
    333    1     505     506  # Hw-Ow
    334    1     506     507  # Ow-Hw
    335    1     508     509  # Hw-Ow
    336    1     509     510  # Ow-Hw
    337    1     511     512  # Hw-Ow
    338    1     512     513  # Ow-Hw
    339    1     514     515  # Hw-Ow
    340    1     515     516  # Ow-Hw
    341    1     517     518  # Hw-Ow
    342    1     518     519  # Ow-Hw
    343    1     520     521  # Hw-Ow
    344    1     521     522  # Ow-Hw
    345    1     523     524  # Hw-Ow
    346    1     524     525  # Ow-Hw
    347    1     526     527  # Hw-Ow
    348    1     527     528  # Ow-Hw
    349    1     529     530  # Hw-Ow
    350    1     530     531  # Ow-Hw
    351    1     532     533  # Hw-Ow
    352    1     533     534  # Ow-Hw
    353    1     535     536  # Hw-Ow
    354    1     536     537  # Ow-Hw
    355    1     538     539  # Hw-Ow
    356    1     539     540  # Ow-Hw
    357    1     541     542  # Hw-Ow
    358    1     542     543  # Ow-Hw
    359    1     544     545  # Hw-Ow
    360    1     545     546  # Ow-Hw
    361    1     547     548  # Hw-Ow
    362    1     548     549  # Ow-Hw
    363    1     550     551  # Hw-Ow
    364    1     551     552  # Ow-Hw
    365    1     553     554  # Hw-Ow
    366    1     554     555  # Ow-Hw
    367    1     556     557  # Hw-Ow
    368    1     557     558  # Ow-Hw
    369    1     559     560  # Hw-Ow
    370    1     560     561  # Ow-Hw
    371    1     562     563  # Hw-Ow
    372    1     563     564  # Ow-Hw
    373    1     565     566  # Hw-Ow
    374    1     566     567  # Ow-Hw
    375    1     568     569  # Hw-Ow
    376    1     569     570  # Ow-Hw
    377    1     571     572  # Hw-Ow
    378    1     572     573  # Ow-Hw
    379    1     574     575  # Hw-Ow
    380    1     575     576  # Ow-Hw
    381    1     577     578  # Hw-Ow
    382    1     578     579  # Ow-Hw
    383    1     580     581  # Hw-Ow
    384    1     581     582  # Ow-Hw
    385    1     583     584  # Hw-Ow
    386    1     584     585  # Ow-Hw
    387    1     586     587  # Hw-Ow
    388    1     587     588  # Ow-Hw
    389    1     589     590  # Hw-Ow
    390    1     590     591  # Ow-Hw
    391    1     592     593  # Hw-Ow
    392    1     593     594  # Ow-Hw
    393    1     595     596  # Hw-Ow
    394    1     596     597  # Ow-Hw
    395    1     598     599  # Hw-Ow
    396    1     599     600  # Ow-Hw
    397    1     601     602  # Hw-Ow
    398    1     602     603  # Ow-Hw
    399    1     604     605  # Hw-Ow
    400    1     605     606  # Ow-Hw
    401    1     607     608  # Hw-Ow
    402    1     608     609  # Ow-Hw
    403    1     610     611  # Hw-Ow
    404    1     611     612  # Ow-Hw
    405    1     613     614  # Hw-Ow
    406    1     614     615  # Ow-Hw
    407    1     616     617  # Hw-Ow
    408    1     617     618  # Ow-Hw
    409    1     619     620  # Hw-Ow
    410    1     620     621  # Ow-Hw
    411    1     622     623  # Hw-Ow
    412    1     623     624  # Ow-Hw
    413    1     625     626  # Hw-Ow
    414    1     626     627  # Ow-Hw
    415    1     628     629  # Hw-Ow
    416    1     629     630  # Ow-Hw
    417    1     631     632  # Hw-Ow
    418    1     632     633  # Ow-Hw
    419    1     634     635  # Hw-Ow
    420    1     635     636  # Ow-Hw
    421    1     637     638  # Hw-Ow
    422    1     638     639  # Ow-Hw
    423    1     640     641  # Hw-Ow
    424    1     641     642  # Ow-Hw
    425    1     643     644  # Hw-Ow
    426    1     644     645  # Ow-Hw
    427    1     646     647  # Hw-Ow
    428    1     647     648  # Ow-Hw
    429    1     649     650  # Hw-Ow
    430    1     650     651  # Ow-Hw
    431    1     652     653  # Hw-Ow
    432    1     653     654  # Ow-Hw
    433    1     655     656  # Hw-Ow
    434    1     656     657  # Ow-Hw
    435    1     658     659  # Hw-Ow
    436    1     659     660  # Ow-Hw
    437    1     661     662  # Hw-Ow
    438    1     662     663  # Ow-Hw
    439    1     664     665  # Hw-Ow
    440    1     665     666  # Ow-Hw
    441    1     667     668  # Hw-Ow
    442    1     668     669  # Ow-Hw
    443    1     670     671  # Hw-Ow
    444    1     671     672  # Ow-Hw
    445    1     673     674  # Hw-Ow
    446    1     674     675  # Ow-Hw
    447    1     676     677  # Hw-Ow
    448    1     677     678  # Ow-Hw
    449    1     679     680  # Hw-Ow
    450    1     680     681  # Ow-Hw
    451    1     682     683  # Hw-Ow
    452    1     683     684  # Ow-Hw
    453    1     685     686  # Hw-Ow
    454    1     686     687  # Ow-Hw
    455    1     688     689  # Hw-Ow
    456    1     689     690  # Ow-Hw
    457    1     691     692  # Hw-Ow
    458    1     692     693  # Ow-Hw
    459    1     694     695  # Hw-Ow
    460    1     695     696  # Ow-Hw
    461    1     697     698  # Hw-Ow
    462    1     698     699  # Ow-Hw
    463    1     700     701  # Hw-Ow
    464    1     701     702  # Ow-Hw
    465    1     703     704  # Hw-Ow
    466    1     704     705  # Ow-Hw
    467    1     706     707  # Hw-Ow
    468    1     707     708  # Ow-Hw
    469    1     709     710  # Hw-Ow
    470    1     710     711  # Ow-Hw
    471    1     712     713  # Hw-Ow
    472    1     713     714  # Ow-Hw
    473    1     715     716  # Hw-Ow
    474    1     716     717  # Ow-Hw
    475    1     718     719  # Hw-Ow
    476    1     719     720  # Ow-Hw
    477    1     721     722  # Hw-Ow
    478    1     722     723  # Ow-Hw
    479    1     724     725  # Hw-Ow
    480    1     725     726  # Ow-Hw
    481    1     727     728  # Hw-Ow
    482    1     728     729  # Ow-Hw
    483    1     730     731  # Hw-Ow
    484    1     731     732  # Ow-Hw
    485    1     733     734  # Hw-Ow
    486    1     734     735  # Ow-Hw
    487    1     736     737  # Hw-Ow
    488    1     737     738  # Ow-Hw
    489    1     739     740  # Hw-Ow
    490    1     740     741  # Ow-Hw
    491    1     742     743  # Hw-Ow
    492    1     743     744  # Ow-Hw
    493    1     745     746  # Hw-Ow
    494    1     746     747  # Ow-Hw
    495    1     748     749  # Hw-Ow
    496    1     749     750  # Ow-Hw
    497    1     751     752  # Hw-Ow
    498    1     752     753  # Ow-Hw
    499    1     754     755  # Hw-Ow
    500    1     755     756  # Ow-Hw
    501    1     757     758  # Hw-Ow
    502    1     758     759  # Ow-Hw
    503    1     760     761  # Hw-Ow
    504    1     761     762  # Ow-Hw
    505    1     763     764  # Hw-Ow
    506    1     764     765  # Ow-Hw
    507    1     766     767  # Hw-Ow
    508    1     767     768  # Ow-Hw
    509    1     769     770  # Hw-Ow
    510    1     770     771  # Ow-Hw
    511    1     772     773  # Hw-Ow
    512    1     773     774  # Ow-Hw
    513    1     775     776  # Hw-Ow
    514    1     776     777  # Ow-Hw
    515    1     778     779  # Hw-Ow
    516    1     779     780  # Ow-Hw
    517    1     781     782  # Hw-Ow
    518    1     782     783  # Ow-Hw
    519    1     784     785  # Hw-Ow
    520    1     785     786  # Ow-Hw
    521    1     787     788  # Hw-Ow
    522    1     788     789  # Ow-Hw
    523    1     790     791  # Hw-Ow
    524    1     791     792  # Ow-Hw
    525    1     793     794  # Hw-Ow
    526    1     794     795  # Ow-Hw
    527    1     796     797  # Hw-Ow
    528    1     797     798  # Ow-Hw
    529    1     799     800  # Hw-Ow
    530    1     800     801  # Ow-Hw
    531    1     802     803  # Hw-Ow
    532    1     803     804  # Ow-Hw
    533    1     805     806  # Hw-Ow
    534    1     806     807  # Ow-Hw
    535    1     808     809  # Hw-Ow
    536    1     809     810  # Ow-Hw
    537    1     811     812  # Hw-Ow
    538    1     812     813  # Ow-Hw
    539    1     814     815  # Hw-Ow
    540    1     815     816  # Ow-Hw
    541    1     817     818  # Hw-Ow
    542    1     818     819  # Ow-Hw
    543    1     820     821  # Hw-Ow
    544    1     821     822  # Ow-Hw
    545    1     823     824  # Hw-Ow
    546    1     824     825  # Ow-Hw
    547    1     826     827  # Hw-Ow
    548    1     827     828  # Ow-Hw
    549    1     829     830  # Hw-Ow
    550    1     830     831  # Ow-Hw
    551    1     832     833  # Hw-Ow
    552    1     833     834  # Ow-Hw
    553    1     835     836  # Hw-Ow
    554    1     836     837  # Ow-Hw
    555    1     838     839  # Hw-Ow
    556    1     839     840  # Ow-Hw
    557    1     841     842  # Hw-Ow
    558    1     842     843  # Ow-Hw
    559    1     844     845  # Hw-Ow
    560    1     845     846  # Ow-Hw
    561    1     847     848  # Hw-Ow
    562    1     848     849  # Ow-Hw
    563    1     850     851  # Hw-Ow
    564    1     851     852  # Ow-Hw
    565    1     853     854  # Hw-Ow
    566    1     854     855  # Ow-Hw
    567    1     856     857  # Hw-Ow
    568    1     857     858  # Ow-Hw
    569    1     859     860  # Hw-Ow
    570    1     860     861  # Ow-Hw
    571    1     862     863  # Hw-Ow
    572    1     863     864  # Ow-Hw
    573    1     865     866  # Hw-Ow
    574    1     866     867  # Ow-Hw
    575    1     868     869  # Hw-Ow
    576    1     869     870  # Ow-Hw
    577    1     871     872  # Hw-Ow
    578    1     872     873  # Ow-Hw
    579    1     874     875  # Hw-Ow
    580    1     875     876  # Ow-Hw
    581    1     877     878  # Hw-Ow
    582    1     878     879  # Ow-Hw
    583    1     880     881  # Hw-Ow
    584    1     881     882  # Ow-Hw
    585    1     883     884  # Hw-Ow
    586    1     884     885  # Ow-Hw
    587    1     886     887  # Hw-Ow
    588    1     887     888  # Ow-Hw
    589    1     889     890  # Hw-Ow
    590    1     890     891  # Ow-Hw
    591    1     892     893  # Hw-Ow
    592    1     893     894  # Ow-Hw
    593    1     895     896  # Hw-Ow
    594    1     896     897  # Ow-Hw
    595    1     898     899  # Hw-Ow
    596    1     899     900  # Ow-Hw
    597    1     901     902  # Hw-Ow
    598    1     902     903  # Ow-Hw
    599    1     904     905  # Hw-Ow
    600    1     905     906  # Ow-Hw
    601    1     907     908  # Hw-Ow
    602    1     908     909  # Ow-Hw
    603    1     910     911  # Hw-Ow
    604    1     911     912  # Ow-Hw
    605    1     913     914  # Hw-Ow
    606    1     914     915  # Ow-Hw
    607    1     916     917  # Hw-Ow
    608    1     917     918  # Ow-Hw
    609    1     919     920  # Hw-Ow
    610    1     920     921  # Ow-Hw
    611    1     922     923  # Hw-Ow
    612    1     923     924  # Ow-Hw
    613    1     925     926  # Hw-Ow
    614    1     926     927  # Ow-Hw
    615    1     928     929  # Hw-Ow
    616    1     929     930  # Ow-Hw
    617    1     931     932  # Hw-Ow
    618    1     932     933  # Ow-Hw
    619    1     934     935  # Hw-Ow
    620    1     935     936  # Ow-Hw
    621    1     937     938  # Hw-Ow
    622    1     938     939  # Ow-Hw
    623    1     940     941  # Hw-Ow
    624    1     941     942  # Ow-Hw
    625    1     943     944  # Hw-Ow
    626    1     944     945  # Ow-Hw
    627    1     946     947  # Hw-Ow
    628    1     947     948  # Ow-Hw
    629    1     949     950  # Hw-Ow
    630    1     950     951  # Ow-Hw
    631    1     952     953  # Hw-Ow
    632    1     953     954  # Ow-Hw
    633    1     955     956  # Hw-Ow
    634    1     956     957  # Ow-Hw
    635    1     958     959  # Hw-Ow
    636    1     959     960  # Ow-Hw
    637    1     961     962  # Hw-Ow
    638    1     962     963  # Ow-Hw
    639    1     964     965  # Hw-Ow
    640    1     965     966  # Ow-Hw
    641    1     967     968  # Hw-Ow
    642    1     968     969  # Ow-Hw
    643    1     970     971  # Hw-Ow
    644    1     971     972  # Ow-Hw
    645    1     973     974  # Hw-Ow
    646    1     974     975  # Ow-Hw
    647    1     976     977  # Hw-Ow
    648    1     977     978  # Ow-Hw
    649    1     979     980  # Hw-Ow
    650    1     980     981  # Ow-Hw
    651    1     982     983  # Hw-Ow
    652    1     983     984  # Ow-Hw
    653    1     985     986  # Hw-Ow
    654    1     986     987  # Ow-Hw
    655    1     988     989  # Hw-Ow
    656    1     989     990  # Ow-Hw
    657    1     991     992  # Hw-Ow
    658    1     992     993  # Ow-Hw
    659    1     994     995  # Hw-Ow
    660    1     995     996  # Ow-Hw
    661    1     997     998  # Hw-Ow
    662    1     998     999  # Ow-Hw
    663    1    1000    1001  # Hw-Ow
    664    1    1001    1002  # Ow-Hw
    665    1    1003    1004  # Hw-Ow
    666    1    1004    1005  # Ow-Hw
    667    1    1006    1007  # Hw-Ow
    668    1    1007    1008  # Ow-Hw
    669    1    1009    1010  # Hw-Ow
    670    1    1010    1011  # Ow-Hw
    671    1    1012    1013  # Hw-Ow
    672    1    1013    1014  # Ow-Hw
    673    1    1015    1016  # Hw-Ow
    674    1    1016    1017  # Ow-Hw
    675    1    1018    1019  # Hw-Ow
    676    1    1019    1020  # Ow-Hw
    677    1    1021    1022  # Hw-Ow
    678    1    1022    1023  # Ow-Hw
    679    1    1024    1025  # Hw-Ow
    680    1    1025    1026  # Ow-Hw
    681    1    1027    1028  # Hw-Ow
    682    1    1028    1029  # Ow-Hw
    683    1    1030    1031  # Hw-Ow
    684    1    1031    1032  # Ow-Hw
    685    1    1033    1034  # Hw-Ow
    686    1    1034    1035  # Ow-Hw
    687    1    1036    1037  # Hw-Ow
    688    1    1037    1038  # Ow-Hw
    689    1    1039    1040  # Hw-Ow
    690    1    1040    1041  # Ow-Hw
    691    1    1042    1043  # Hw-Ow
    692    1    1043    1044  # Ow-Hw
    693    1    1045    1046  # Hw-Ow
    694    1    1046    1047  # Ow-Hw
    695    1    1048    1049  # Hw-Ow
    696    1    1049    1050  # Ow-Hw
    697    1    1051    1052  # Hw-Ow
    698    1    1052    1053  # Ow-Hw
    699    1    1054    1055  # Hw-Ow
    700    1    1055    1056  # Ow-Hw
    701    1    1057    1058  # Hw-Ow
    702    1    1058    1059  # Ow-Hw
    703    1    1060    1061  # Hw-Ow
    704    1    1061    1062  # Ow-Hw
    705    1    1063    1064  # Hw-Ow
    706    1    1064    1065  # Ow-Hw
    707    1    1066    1067  # Hw-Ow
    708    1    1067    1068  # Ow-Hw
    709    1    1069    1070  # Hw-Ow
    710    1    1070    1071  # Ow-Hw
    711    1    1072    1073  # Hw-Ow
    712    1    1073    1074  # Ow-Hw
    713    1    1075    1076  # Hw-Ow
    714    1    1076    1077  # Ow-Hw
    715    1    1078    1079  # Hw-Ow
    716    1    1079    1080  # Ow-Hw
    717    1    1081    1082  # Hw-Ow
    718    1    1082    1083  # Ow-Hw
    719    1    1084    1085  # Hw-Ow
    720    1    1085    1086  # Ow-Hw
    721    1    1087    1088  # Hw-Ow
    722    1    1088    1089  # Ow-Hw
    723    1    1090    1091  # Hw-Ow
    724    1    1091    1092  # Ow-Hw
    725    1    1093    1094  # Hw-Ow
    726    1    1094    1095  # Ow-Hw
    727    1    1096    1097  # Hw-Ow
    728    1    1097    1098  # Ow-Hw
    729    1    1099    1100  # Hw-Ow
    730    1    1100    1101  # Ow-Hw
    731    1    1102    1103  # Hw-Ow
    732    1    1103    1104  # Ow-Hw
    733    1    1105    1106  # Hw-Ow
    734    1    1106    1107  # Ow-Hw
    735    1    1108    1109  # Hw-Ow
    736    1    1109    1110  # Ow-Hw
    737    1    1111    1112  # Hw-Ow
    738    1    1112    1113  # Ow-Hw
    739    1    1114    1115  # Hw-Ow
    740    1    1115    1116  # Ow-Hw
    741    1    1117    1118  # Hw-Ow
    742    1    1118    1119  # Ow-Hw
    743    1    1120    1121  # Hw-Ow
    744    1    1121    1122  # Ow-Hw
    745    1    1123    1124  # Hw-Ow
    746    1    1124    1125  # Ow-Hw
    747    1    1126    1127  # Hw-Ow
    748    1    1127    1128  # Ow-Hw
    749    1    1129    1130  # Hw-Ow
    750    1    1130    1131  # Ow-Hw
    751    1    1132    1133  # Hw-Ow
    752    1    1133    1134  # Ow-Hw
    753    1    1135    1136  # Hw-Ow
    754    1    1136    1137  # Ow-Hw
    755    1    1138    1139  # Hw-Ow
    756    1    1139    1140  # Ow-Hw
    757    1    1141    1142  # Hw-Ow
    758    1    1142    1143  # Ow-Hw
    759    1    1144    1145  # Hw-Ow
    760    1    1145    1146  # Ow-Hw
    761    1    1147    1148  # Hw-Ow
    762    1    1148    1149  # Ow-Hw
    763    1    1150    1151  # Hw-Ow
    764    1    1151    1152  # Ow-Hw
    765    1    1153    1154  # Hw-Ow
    766    1    1154    1155  # Ow-Hw
    767    1    1156    1157  # Hw-Ow
    768    1    1157    1158  # Ow-Hw
    769    1    1159    1160  # Hw-Ow
    770    1    1160    1161  # Ow-Hw
    771    1    1162    1163  # Hw-Ow
    772    1    1163    1164  # Ow-Hw
    773    1    1165    1166  # Hw-Ow
    774    1    1166    1167  # Ow-Hw
    775    1    1168    1169  # Hw-Ow
    776    1    1169    1170  # Ow-Hw
    777    1    1171    1172  # Hw-Ow
    778    1    1172    1173  # Ow-Hw
    779    1    1174    1175  # Hw-Ow
    780    1    1175    1176  # Ow-Hw
    781    1    1177    1178  # Hw-Ow
    782    1    1178    1179  # Ow-Hw
    783    1    1180    1181  # Hw-Ow
    784    1    1181    1182  # Ow-Hw
    785    1    1183    1184  # Hw-Ow
    786    1    1184    1185  # Ow-Hw
    787    1    1186    1187  # Hw-Ow
    788    1    1187    1188  # Ow-Hw
    789    1    1189    1190  # Hw-Ow
    790    1    1190    1191  # Ow-Hw
    791    1    1192    1193  # Hw-Ow
    792    1    1193    1194  # Ow-Hw
    793    1    1195    1196  # Hw-Ow
    794    1    1196    1197  # Ow-Hw
    795    1    1198    1199  # Hw-Ow
    796    1    1199    1200  # Ow-Hw
    797    1    1201    1202  # Hw-Ow
    798    1    1202    1203  # Ow-Hw
    799    1    1204    1205  # Hw-Ow
    800    1    1205    1206  # Ow-Hw
    801    1    1207    1208  # Hw-Ow
    802    1    1208    1209  # Ow-Hw
    803    1    1210    1211  # Hw-Ow
    804    1    1211    1212  # Ow-Hw
    805    1    1213    1214  # Hw-Ow
    806    1    1214    1215  # Ow-Hw
    807    1    1216    1217  # Hw-Ow
    808    1    1217    1218  # Ow-Hw
    809    1    1219    1220  # Hw-Ow
    810    1    1220    1221  # Ow-Hw
    811    1    1222    1223  # Hw-Ow
    812    1    1223    1224  # Ow-Hw
    813    1    1225    1226  # Hw-Ow
    814    1    1226    1227  # Ow-Hw
    815    1    1228    1229  # Hw-Ow
    816    1    1229    1230  # Ow-Hw
    817    1    1231    1232  # Hw-Ow
    818    1    1232    1233  # Ow-Hw
    819    1    1234    1235  # Hw-Ow
    820    1    1235    1236  # Ow-Hw
    821    1    1237    1238  # Hw-Ow
    822    1    1238    1239  # Ow-Hw
    823    1    1240    1241  # Hw-Ow
    824    1    1241    1242  # Ow-Hw
    825    1    1243    1244  # Hw-Ow
    826    1    1244    1245  # Ow-Hw
    827    1    1246    1247  # Hw-Ow
    828    1    1247    1248  # Ow-Hw
    829    1    1249    1250  # Hw-Ow
    830    1    1250    1251  # Ow-Hw
    831    1    1252    1253  # Hw-Ow
    832    1    1253    1254  # Ow-Hw
    833    1    1255    1256  # Hw-Ow
    834    1    1256    1257  # Ow-Hw
    835    1    1258    1259  # Hw-Ow
    836    1    1259    1260  # Ow-Hw
    837    1    1261    1262  # Hw-Ow
    838    1    1262    1263  # Ow-Hw
    839    1    1264    1265  # Hw-Ow
    840    1    1265    1266  # Ow-Hw
    841    1    1267    1268  # Hw-Ow
    842    1    1268    1269  # Ow-Hw
    843    1    1270    1271  # Hw-Ow
    844    1    1271    1272  # Ow-Hw
    845    1    1273    1274  # Hw-Ow
    846    1    1274    1275  # Ow-Hw
    847    1    1276    1277  # Hw-Ow
    848    1    1277    1278  # Ow-Hw
    849    1    1279    1280  # Hw-Ow
    850    1    1280    1281  # Ow-Hw
    851    1    1282    1283  # Hw-Ow
    852    1    1283    1284  # Ow-Hw
    853    1    1285    1286  # Hw-Ow
    854    1    1286    1287  # Ow-Hw
    855    1    1288    1289  # Hw-Ow
    856    1    1289    1290  # Ow-Hw
    857    1    1291    1292  # Hw-Ow
    858    1    1292    1293  # Ow-Hw
    859    1    1294    1295  # Hw-Ow
    860    1    1295    1296  # Ow-Hw
    861    1    1297    1298  # Hw-Ow
    862    1    1298    1299  # Ow-Hw
    863    1    1300    1301  # Hw-Ow
    864    1    1301    1302  # Ow-Hw
    865    1    1303    1304  # Hw-Ow
    866    1    1304    1305  # Ow-Hw
    867    1    1306    1307  # Hw-Ow
    868    1    1307    1308  # Ow-Hw
    869    1    1309    1310  # Hw-Ow
    870    1    1310    1311  # Ow-Hw
    871    1    1312    1313  # Hw-Ow
    872    1    1313    1314  # Ow-Hw
    873    1    1315    1316  # Hw-Ow
    874    1    1316    1317  # Ow-Hw
    875    1    1318    1319  # Hw-Ow
    876    1    1319    1320  # Ow-Hw
    877    1    1321    1322  # Hw-Ow
    878    1    1322    1323  # Ow-Hw
    879    1    1324    1325  # Hw-Ow
    880    1    1325    1326  # Ow-Hw
    881    1    1327    1328  # Hw-Ow
    882    1    1328    1329  # Ow-Hw
    883    1    1330    1331  # Hw-Ow
    884    1    1331    1332  # Ow-Hw
    885    1    1333    1334  # Hw-Ow
    886    1    1334    1335  # Ow-Hw
    887    1    1336    1337  # Hw-Ow
    888    1    1337    1338  # Ow-Hw
    889    1    1339    1340  # Hw-Ow
    890    1    1340    1341  # Ow-Hw
    891    1    1342    1343  # Hw-Ow
    892    1    1343    1344  # Ow-Hw
    893    1    1345    1346  # Hw-Ow
    894    1    1346    1347  # Ow-Hw
    895    1    1348    1349  # Hw-Ow
    896    1    1349    1350  # Ow-Hw
    897    1    1351    1352  # Hw-Ow
    898    1    1352    1353  # Ow-Hw
    899    1    1354    1355  # Hw-Ow
    900    1    1355    1356  # Ow-Hw
    901    1    1357    1358  # Hw-Ow
    902    1    1358    1359  # Ow-Hw
    903    1    1360    1361  # Hw-Ow
    904    1    1361    1362  # Ow-Hw
    905    1    1363    1364  # Hw-Ow
    906    1    1364    1365  # Ow-Hw
    907    1    1366    1367  # Hw-Ow
    908    1    1367    1368  # Ow-Hw
    909    1    1369    1370  # Hw-Ow
    910    1    1370    1371  # Ow-Hw
    911    1    1372    1373  # Hw-Ow
    912    1    1373    1374  # Ow-Hw
    913    1    1375    1376  # Hw-Ow
    914    1    1376    1377  # Ow-Hw
    915    1    1378    1379  # Hw-Ow
    916    1    1379    1380  # Ow-Hw
    917    1    1381    1382  # Hw-Ow
    918    1    1382    1383  # Ow-Hw
    919    1    1384    1385  # Hw-Ow
    920    1    1385    1386  # Ow-Hw
    921    1    1387    1388  # Hw-Ow
    922    1    1388    1389  # Ow-Hw
    923    1    1390    1391  # Hw-Ow
    924    1    1391    1392  # Ow-Hw
    925    1    1393    1394  # Hw-Ow
    926    1    1394    1395  # Ow-Hw
    927    1    1396    1397  # Hw-Ow
    928    1    1397    1398  # Ow-Hw
    929    1    1399    1400  # Hw-Ow
    930    1    1400    1401  # Ow-Hw
    931    1    1402    1403  # Hw-Ow
    932    1    1403    1404  # Ow-Hw
    933    1    1405    1406  # Hw-Ow
    934    1    1406    1407  # Ow-Hw
    935    1    1408    1409  # Hw-Ow
    936    1    1409    1410  # Ow-Hw
    937    1    1411    1412  # Hw-Ow
    938    1    1412    1413  # Ow-Hw
    939    1    1414    1415  # Hw-Ow
    940    1    1415    1416  # Ow-Hw
    941    1    1417    1418  # Hw-Ow
    942    1    1418    1419  # Ow-Hw
    943    1    1420    1421  # Hw-Ow
    944    1    1421    1422  # Ow-Hw
    945    1    1423    1424  # Hw-Ow
    946    1    1424    1425  # Ow-Hw
    947    1    1426    1427  # Hw-Ow
    948    1    1427    1428  # Ow-Hw
    949    1    1429    1430  # Hw-Ow
    950    1    1430    1431  # Ow-Hw
    951    1    1432    1433  # Hw-Ow
    952    1    1433    1434  # Ow-Hw
    953    1    1435    1436  # Hw-Ow
    954    1    1436    1437  # Ow-Hw
    955    1    1438    1439  # Hw-Ow
    956    1    1439    1440  # Ow-Hw
    957    1    1441    1442  # Hw-Ow
    958    1    1442    1443  # Ow-Hw
    959    1    1444    1445  # Hw-Ow
    960    1    1445    1446  # Ow-Hw
    961    1    1447    1448  # Hw-Ow
    962    1    1448    1449  # Ow-Hw
    963    1    1450    1451  # Hw-Ow
    964    1    1451    1452  # Ow-Hw
    965    1    1453    1454  # Hw-Ow
    966    1    1454    1455  # Ow-Hw
    967    1    1456    1457  # Hw-Ow
    968    1    1457    1458  # Ow-Hw
    969    1    1459    1460  # Hw-Ow
    970    1    1460    1461  # Ow-Hw
    971    1    1462    1463  # Hw-Ow
    972    1    1463    1464  # Ow-Hw
    973    1    1465    1466  # Hw-Ow
    974    1    1466    1467  # Ow-Hw
    975    1    1468    1469  # Hw-Ow
    976    1    1469    1470  # Ow-Hw
    977    1    1471    1472  # Hw-Ow
    978    1    1472    1473  # Ow-Hw
    979    1    1474    1475  # Hw-Ow
    980    1    1475    1476  # Ow-Hw
    981    1    1477    1478  # Hw-Ow
    982    1    1478    1479  # Ow-Hw
    983    1    1480    1481  # Hw-Ow
    984    1    1481    1482  # Ow-Hw
    985    1    1483    1484  # Hw-Ow
    986    1    1484    1485  # Ow-Hw
    987    1    1486    1487  # Hw-Ow
    988    1    1487    1488  # Ow-Hw
    989    1    1489    1490  # Hw-Ow
    990    1    1490    1491  # Ow-Hw
    991    1    1492    1493  # Hw-Ow
    992    1    1493    1494  # Ow-Hw
    993    1    1495    1496  # Hw-Ow
    994    1    1496    1497  # Ow-Hw
    995    1    1498    1499  # Hw-Ow
    996    1    1499    1500  # Ow-Hw
    997    1    1501    1502  # Hw-Ow
    998    1    1502    1503  # Ow-Hw
    999    1    1504    1505  # Hw-Ow
   1000    1    1505    1506  # Ow-Hw
   1001    1    1507    1508  # Hw-Ow
   1002    1    1508    1509  # Ow-Hw
   1003    1    1510    1511  # Hw-Ow
   1004    1    1511    1512  # Ow-Hw
   1005    1    1513    1514  # Hw-Ow
   1006    1    1514    1515  # Ow-Hw
   1007    1    1516    1517  # Hw-Ow
   1008    1    1517    1518  # Ow-Hw
   1009    1    1519    1520  # Hw-Ow
   1010    1    1520    1521  # Ow-Hw
   1011    1    1522    1523  # Hw-Ow
   1012    1    1523    1524  # Ow-Hw
   1013    1    1525    1526  # Hw-Ow
   1014    1    1526    1527  # Ow-Hw
   1015    1    1528    1529  # Hw-Ow
   1016    1    1529    1530  # Ow-Hw
   1017    1    1531    1532  # Hw-Ow
   1018    1    1532    1533  # Ow-Hw
   1019    1    1534    1535  # Hw-Ow
   1020    1    1535    1536  # Ow-Hw
   1021    1    1537    1538  # Hw-Ow
   1022    1    1538    1539  # Ow-Hw
   1023    1    1540    1541  # Hw-Ow
   1024    1    1541    1542  # Ow-Hw
   1025    1    1543    1544  # Hw-Ow
   1026    1    1544    1545  # Ow-Hw
   1027    1    1546    1547  # Hw-Ow
   1028    1    1547    1548  # Ow-Hw
   1029    1    1549    1550  # Hw-Ow
   1030    1    1550    1551  # Ow-Hw
   1031    1    1552    1553  # Hw-Ow
   1032    1    1553    1554  # Ow-Hw
   1033    1    1555    1556  # Hw-Ow
   1034    1    1556    1557  # Ow-Hw
   1035    1    1558    1559  # Hw-Ow
   1036    1    1559    1560  # Ow-Hw
   1037    1    1561    1562  # Hw-Ow
   1038    1    1562    1563  # Ow-Hw
   1039    1    1564    1565  # Hw-Ow
   1040    1    1565    1566  # Ow-Hw
   1041    1    1567    1568  # Hw-Ow
   1042    1    1568    1569  # Ow-Hw
   1043    1    1570    1571  # Hw-Ow
   1044    1    1571    1572  # Ow-Hw
   1045    1    1573    1574  # Hw-Ow
   1046    1    1574    1575  # Ow-Hw
   1047    1    1576    1577  # Hw-Ow
   1048    1    1577    1578  # Ow-Hw
   1049    1    1579    1580  # Hw-Ow
   1050    1    1580    1581  # Ow-Hw
   1051    1    1582    1583  # Hw-Ow
   1052    1    1583    1584  # Ow-Hw
   1053    1    1585    1586  # Hw-Ow
   1054    1    1586    1587  # Ow-Hw
   1055    1    1588    1589  # Hw-Ow
   1056    1    1589    1590  # Ow-Hw
   1057    1    1591    1592  # Hw-Ow
   1058    1    1592    1593  # Ow-Hw
   1059    1    1594    1595  # Hw-Ow
   1060    1    1595    1596  # Ow-Hw
   1061    1    1597    1598  # Hw-Ow
   1062    1    1598    1599  # Ow-Hw
   1063    1    1600    1601  # Hw-Ow
   1064    1    1601    1602  # Ow-Hw
   1065    1    1603    1604  # Hw-Ow
   1066    1    1604    1605  # Ow-Hw
   1067    1    1606    1607  # Hw-Ow
   1068    1    1607    1608  # Ow-Hw
   1069    1    1609    1610  # Hw-Ow
   1070    1    1610    1611  # Ow-Hw
   1071    1    1612    1613  # Hw-Ow
   1072    1    1613    1614  # Ow-Hw
   1073    1    1615    1616  # Hw-Ow
   1074    1    1616    1617  # Ow-Hw
   1075    1    1618    1619  # Hw-Ow
   1076    1    1619    1620  # Ow-Hw
   1077    1    1621    1622  # Hw-Ow
   1078    1    1622    1623  # Ow-Hw
   1079    1    1624    1625  # Hw-Ow
   1080    1    1625    1626  # Ow-Hw
   1081    1    1627    1628  # Hw-Ow
   1082    1    1628    1629  # Ow-Hw
   1083    1    1630    1631  # Hw-Ow
   1084    1    1631    1632  # Ow-Hw
   1085    1    1633    1634  # Hw-Ow
   1086    1    1634    1635  # Ow-Hw
   1087    1    1636    1637  # Hw-Ow
   1088    1    1637    1638  # Ow-Hw
   1089    1    1639    1640  # Hw-Ow
   1090    1    1640    1641  # Ow-Hw
   1091    1    1642    1643  # Hw-Ow
   1092    1    1643    1644  # Ow-Hw
   1093    1    1645    1646  # Hw-Ow
   1094    1    1646    1647  # Ow-Hw
   1095    1    1648    1649  # Hw-Ow
   1096    1    1649    1650  # Ow-Hw
   1097    1    1651    1652  # Hw-Ow
   1098    1    1652    1653  # Ow-Hw
   1099    1    1654    1655  # Hw-Ow
   1100    1    1655    1656  # Ow-Hw
   1101    1    1657    1658  # Hw-Ow
   1102    1    1658    1659  # Ow-Hw
   1103    1    1660    1661  # Hw-Ow
   1104    1    1661    1662  # Ow-Hw
   1105    1    1663    1664  # Hw-Ow
   1106    1    1664    1665  # Ow-Hw
   1107    1    1666    1667  # Hw-Ow
   1108    1    1667    1668  # Ow-Hw
   1109    1    1669    1670  # Hw-Ow
   1110    1    1670    1671  # Ow-Hw
   1111    1    1672    1673  # Hw-Ow
   1112    1    1673    1674  # Ow-Hw
   1113    1    1675    1676  # Hw-Ow
   1114    1    1676    1677  # Ow-Hw
   1115    1    1678    1679  # Hw-Ow
   1116    1    1679    1680  # Ow-Hw
   1117    1    1681    1682  # Hw-Ow
   1118    1    1682    1683  # Ow-Hw
   1119    1    1684    1685  # Hw-Ow
   1120    1    1685    1686  # Ow-Hw
   1121    1    1687    1688  # Hw-Ow
   1122    1    1688    1689  # Ow-Hw
   1123    1    1690    1691  # Hw-Ow
   1124    1    1691    1692  # Ow-Hw
   1125    1    1693    1694  # Hw-Ow
   1126    1    1694    1695  # Ow-Hw
   1127    1    1696    1697  # Hw-Ow
   1128    1    1697    1698  # Ow-Hw
   1129    1    1699    1700  # Hw-Ow
   1130    1    1700    1701  # Ow-Hw
   1131    1    1702    1703  # Hw-Ow
   1132    1    1703    1704  # Ow-Hw
   1133    1    1705    1706  # Hw-Ow
   1134    1    1706    1707  # Ow-Hw
   1135    1    1708    1709  # Hw-Ow
   1136    1    1709    1710  # Ow-Hw
   1137    1    1711    1712  # Hw-Ow
   1138    1    1712    1713  # Ow-Hw
   1139    1    1714    1715  # Hw-Ow
   1140    1    1715    1716  # Ow-Hw
   1141    1    1717    1718  # Hw-Ow
   1142    1    1718    1719  # Ow-Hw
   1143    1    1720    1721  # Hw-Ow
   1144    1    1721    1722  # Ow-Hw
   1145    1    1723    1724  # Hw-Ow
   1146    1    1724    1725  # Ow-Hw
   1147    1    1726    1727  # Hw-Ow
   1148    1    1727    1728  # Ow-Hw
   1149    1    1729    1730  # Hw-Ow
   1150    1    1730    1731  # Ow-Hw
   1151    1    1732    1733  # Hw-Ow
   1152    1    1733    1734  # Ow-Hw
   1153    1    1735    1736  # Hw-Ow
   1154    1    1736    1737  # Ow-Hw
   1155    1    1738    1739  # Hw-Ow
   1156    1    1739    1740  # Ow-Hw
   1157    1    1741    1742  # Hw-Ow
   1158    1    1742    1743  # Ow-Hw
   1159    1    1744    1745  # Hw-Ow
   1160    1    1745    1746  # Ow-Hw
   1161    1    1747    1748  # Hw-Ow
   1162    1    1748    1749  # Ow-Hw
   1163    1    1750    1751  # Hw-Ow
   1164    1    1751    1752  # Ow-Hw
   1165    1    1753    1754  # Hw-Ow
   1166    1    1754    1755  # Ow-Hw
   1167    1    1756    1757  # Hw-Ow
   1168    1    1757    1758  # Ow-Hw
   1169    1    1759    1760  # Hw-Ow
   1170    1    1760    1761  # Ow-Hw
   1171    1    1762    1763  # Hw-Ow
   1172    1    1763    1764  # Ow-Hw
   1173    1    1765    1766  # Hw-Ow
   1174    1    1766    1767  # Ow-Hw
   1175    1    1768    1769  # Hw-Ow
   1176    1    1769    1770  # Ow-Hw
   1177    1    1771    1772  # Hw-Ow
   1178    1    1772    1773  # Ow-Hw
   1179    1    1774    1775  # Hw-Ow
   1180    1    1775    1776  # Ow-Hw
   1181    1    1777    1778  # Hw-Ow
   1182    1    1778    1779  # Ow-Hw
   1183    1    1780    1781  # Hw-Ow
   1184    1    1781    1782  # Ow-Hw
   1185    1    1783    1784  # Hw-Ow
   1186    1    1784    1785  # Ow-Hw
   1187    1    1786    1787  # Hw-Ow
   1188    1    1787    1788  # Ow-Hw
   1189    1    1789    1790  # Hw-Ow
   1190    1    1790    1791  # Ow-Hw
   1191    1    1792    1793  # Hw-Ow
   1192    1    1793    1794  # Ow-Hw
   1193    1    1795    1796  # Hw-Ow
   1194    1    1796    1797  # Ow-Hw
   1195    1    1798    1799  # Hw-Ow
   1196    1    1799    1800  # Ow-Hw
   1197    1    1801    1802  # Hw-Ow
   1198    1    1802    1803  # Ow-Hw
   1199    1    1804    1805  # Hw-Ow
   1200    1    1805    1806  # Ow-Hw
   1201    1    1807    1808  # Hw-Ow
   1202    1    1808    1809  # Ow-Hw
   1203    1    1810    1811  # Hw-Ow
   1204    1    1811    1812  # Ow-Hw
   1205    1    1813    1814  # Hw-Ow
   1206    1    1814    1815  # Ow-Hw
   1207    1    1816    1817  # Hw-Ow
   1208    1    1817    1818  # Ow-Hw
   1209    1    1819    1820  # Hw-Ow
   1210    1    1820    1821  # Ow-Hw
   1211    1    1822    1823  # Hw-Ow
   1212    1    1823    1824  # Ow-Hw
   1213    1    1825    1826  # Hw-Ow
   1214    1    1826    1827  # Ow-Hw
   1215    1    1828    1829  # Hw-Ow
   1216    1    1829    1830  # Ow-Hw
   1217    1    1831    1832  # Hw-Ow
   1218    1    1832    1833  # Ow-Hw
   1219    1    1834    1835  # Hw-Ow
   1220    1    1835    1836  # Ow-Hw
   1221    1    1837    1838  # Hw-Ow
   1222    1    1838    1839  # Ow-Hw
   1223    1    1840    1841  # Hw-Ow
   1224    1    1841    1842  # Ow-Hw
   1225    1    1843    1844  # Hw-Ow
   1226    1    1844    1845  # Ow-Hw
   1227    1    1846    1847  # Hw-Ow
   1228    1    1847    1848  # Ow-Hw
   1229    1    1849    1850  # Hw-Ow
   1230    1    1850    1851  # Ow-Hw
   1231    1    1852    1853  # Hw-Ow
   1232    1    1853    1854  # Ow-Hw
   1233    1    1855    1856  # Hw-Ow
   1234    1    1856    1857  # Ow-Hw
   1235    1    1858    1859  # Hw-Ow
   1236    1    1859    1860  # Ow-Hw
   1237    1    1861    1862  # Hw-Ow
   1238    1    1862    1863  # Ow-Hw
   1239    1    1864    1865  # Hw-Ow
   1240    1    1865    1866  # Ow-Hw
   1241    1    1867    1868  # Hw-Ow
   1242    1    1868    1869  # Ow-Hw
   1243    1    1870    1871  # Hw-Ow
   1244    1    1871    1872  # Ow-Hw
   1245    1    1873    1874  # Hw-Ow
   1246    1    1874    1875  # Ow-Hw
   1247    1    1876    1877  # Hw-Ow
   1248    1    1877    1878  # Ow-Hw
   1249    1    1879    1880  # Hw-Ow
   1250    1    1880    1881  # Ow-Hw
   1251    1    1882    1883  # Hw-Ow
   1252    1    1883    1884  # Ow-Hw
   1253    1    1885    1886  # Hw-Ow
   1254    1    1886    1887  # Ow-Hw
   1255    1    1888    1889  # Hw-Ow
   1256    1    1889    1890  # Ow-Hw
   1257    1    1891    1892  # Hw-Ow
   1258    1    1892    1893  # Ow-Hw
   1259    1    1894    1895  # Hw-Ow
   1260    1    1895    1896  # Ow-Hw
   1261    1    1897    1898  # Hw-Ow
   1262    1    1898    1899  # Ow-Hw
   1263    1    1900    1901  # Hw-Ow
   1264    1    1901    1902  # Ow-Hw
   1265    1    1903    1904  # Hw-Ow
   1266    1    1904    1905  # Ow-Hw
   1267    1    1906    1907  # Hw-Ow
   1268    1    1907    1908  # Ow-Hw
   1269    1    1909    1910  # Hw-Ow
   1270    1    1910    1911  # Ow-Hw
   1271    1    1912    1913  # Hw-Ow
   1272    1    1913    1914  # Ow-Hw
   1273    1    1915    1916  # Hw-Ow
   1274    1    1916    1917  # Ow-Hw
   1275    1    1918    1919  # Hw-Ow
   1276    1    1919    1920  # Ow-Hw
   1277    1    1921    1922  # Hw-Ow
   1278    1    1922    1923  # Ow-Hw
   1279    1    1924    1925  # Hw-Ow
   1280    1    1925    1926  # Ow-Hw
   1281    1    1927    1928  # Hw-Ow
   1282    1    1928    1929  # Ow-Hw
   1283    1    1930    1931  # Hw-Ow
   1284    1    1931    1932  # Ow-Hw
   1285    1    1933    1934  # Hw-Ow
   1286    1    1934    1935  # Ow-Hw
   1287    1    1936    1937  # Hw-Ow
   1288    1    1937    1938  # Ow-Hw
   1289    1    1939    1940  # Hw-Ow
   1290    1    1940    1941  # Ow-Hw
   1291    1    1942    1943  # Hw-Ow
   1292    1    1943    1944  # Ow-Hw
   1293    1    1945    1946  # Hw-Ow
   1294    1    1946    1947  # Ow-Hw
   1295    1    1948    1949  # Hw-Ow
   1296    1    1949    1950  # Ow-Hw
   1297    1    1951    1952  # Hw-Ow
   1298    1    1952    1953  # Ow-Hw
   1299    1    1954    1955  # Hw-Ow
   1300    1    1955    1956  # Ow-Hw
   1301    1    1957    1958  # Hw-Ow
   1302    1    1958    1959  # Ow-Hw
   1303    1    1960    1961  # Hw-Ow
   1304    1    1961    1962  # Ow-Hw
   1305    1    1963    1964  # Hw-Ow
   1306    1    1964    1965  # Ow-Hw
   1307    1    1966    1967  # Hw-Ow
   1308    1    1967    1968  # Ow-Hw
   1309    1    1969    1970  # Hw-Ow
   1310    1    1970    1971  # Ow-Hw
   1311    1    1972    1973  # Hw-Ow
   1312    1    1973    1974  # Ow-Hw
   1313    1    1975    1976  # Hw-Ow
   1314    1    1976    1977  # Ow-Hw
   1315    1    1978    1979  # Hw-Ow
   1316    1    1979    1980  # Ow-Hw
   1317    1    1981    1982  # Hw-Ow
   1318    1    1982    1983  # Ow-Hw
   1319    1    1984    1985  # Hw-Ow
   1320    1    1985    1986  # Ow-Hw
   1321    1    1987    1988  # Hw-Ow
   1322    1    1988    1989  # Ow-Hw
   1323    1    1990    1991  # Hw-Ow
   1324    1    1991    1992  # Ow-Hw
   1325    1    1993    1994  # Hw-Ow
   1326    1    1994    1995  # Ow-Hw
   1327    1    1996    1997  # Hw-Ow
   1328    1    1997    1998  # Ow-Hw
   1329    1    1999    2000  # Hw-Ow
   1330    1    2000    2001  # Ow-Hw
   1331    1    2002    2003  # Hw-Ow
   1332    1    2003    2004  # Ow-Hw
   1333    1    2005    2006  # Hw-Ow
   1334    1    2006    2007  # Ow-Hw
   1335    1    2008    2009  # Hw-Ow
   1336    1    2009    2010  # Ow-Hw
   1337    1    2011    2012  # Hw-Ow
   1338    1    2012    2013  # Ow-Hw
   1339    1    2014    2015  # Hw-Ow
   1340    1    2015    2016  # Ow-Hw
   1341    1    2017    2018  # Hw-Ow
   1342    1    2018    2019  # Ow-Hw
   1343    1    2020    2021  # Hw-Ow
   1344    1    2021    2022  # Ow-Hw
   1345    1    2023    2024  # Hw-Ow
   1346    1    2024    2025  # Ow-Hw
   1347    1    2026    2027  # Hw-Ow
   1348    1    2027    2028  # Ow-Hw
   1349    1    2029    2030  # Hw-Ow
   1350    1    2030    2031  # Ow-Hw
   1351    1    2032    2033  # Hw-Ow
   1352    1    2033    2034  # Ow-Hw
   1353    1    2035    2036  # Hw-Ow
   1354    1    2036    2037  # Ow-Hw
   1355    1    2038    2039  # Hw-Ow
   1356    1    2039    2040  # Ow-Hw
   1357    1    2041    2042  # Hw-Ow
   1358    1    2042    2043  # Ow-Hw
   1359    1    2044    2045  # Hw-Ow
   1360    1    2045    2046  # Ow-Hw
   1361    1    2047    2048  # Hw-Ow
   1362    1    2048    2049  # Ow-Hw
   1363    1    2050    2051  # Hw-Ow
   1364    1    2051    2052  # Ow-Hw
   1365    1    2053    2054  # Hw-Ow
   1366    1    2054    2055  # Ow-Hw
   1367    1    2056    2057  # Hw-Ow
   1368    1    2057    2058  # Ow-Hw
   1369    1    2059    2060  # Hw-Ow
   1370    1    2060    2061  # Ow-Hw
   1371    1    2062    2063  # Hw-Ow
   1372    1    2063    2064  # Ow-Hw
   1373    1    2065    2066  # Hw-Ow
   1374    1    2066    2067  # Ow-Hw
   1375    1    2068    2069  # Hw-Ow
   1376    1    2069    2070  # Ow-Hw
   1377    1    2071    2072  # Hw-Ow
   1378    1    2072    2073  # Ow-Hw
   1379    1    2074    2075  # Hw-Ow
   1380    1    2075    2076  # Ow-Hw
   1381    1    2077    2078  # Hw-Ow
   1382    1    2078    2079  # Ow-Hw
   1383    1    2080    2081  # Hw-Ow
   1384    1    2081    2082  # Ow-Hw
   1385    1    2083    2084  # Hw-Ow
   1386    1    2084    2085  # Ow-Hw
   1387    1    2086    2087  # Hw-Ow
   1388    1    2087    2088  # Ow-Hw
   1389    1    2089    2090  # Hw-Ow
   1390    1    2090    2091  # Ow-Hw
   1391    1    2092    2093  # Hw-Ow
   1392    1    2093    2094  # Ow-Hw
   1393    1    2095    2096  # Hw-Ow
   1394    1    2096    2097  # Ow-Hw
   1395    1    2098    2099  # Hw-Ow
   1396    1    2099    2100  # Ow-Hw
   1397    1    2101    2102  # Hw-Ow
   1398    1    2102    2103  # Ow-Hw
   1399    1    2104    2105  # Hw-Ow
   1400    1    2105    2106  # Ow-Hw
   1401    1    2107    2108  # Hw-Ow
   1402    1    2108    2109  # Ow-Hw
   1403    1    2110    2111  # Hw-Ow
   1404    1    2111    2112  # Ow-Hw
   1405    1    2113    2114  # Hw-Ow
   1406    1    2114    2115  # Ow-Hw
   1407    1    2116    2117  # Hw-Ow
   1408    1    2117    2118  # Ow-Hw
   1409    1    2119    2120  # Hw-Ow
   1410    1    2120    2121  # Ow-Hw
   1411    1    2122    2123  # Hw-Ow
   1412    1    2123    2124  # Ow-Hw
   1413    1    2125    2126  # Hw-Ow
   1414    1    2126    2127  # Ow-Hw
   1415    1    2128    2129  # Hw-Ow
   1416    1    2129    2130  # Ow-Hw
   1417    1    2131    2132  # Hw-Ow
   1418    1    2132    2133  # Ow-Hw
   1419    1    2134    2135  # Hw-Ow
   1420    1    2135    2136  # Ow-Hw
   1421    1    2137    2138  # Hw-Ow
   1422    1    2138    2139  # Ow-Hw
   1423    1    2140    2141  # Hw-Ow
   1424    1    2141    2142  # Ow-Hw
   1425    1    2143    2144  # Hw-Ow
   1426    1    2144    2145  # Ow-Hw
   1427    1    2146    2147  # Hw-Ow
   1428    1    2147    2148  # Ow-Hw
   1429    1    2149    2150  # Hw-Ow
   1430    1    2150    2151  # Ow-Hw
   1431    1    2152    2153  # Hw-Ow
   1432    1    2153    2154  # Ow-Hw
   1433    1    2155    2156  # Hw-Ow
   1434    1    2156    2157  # Ow-Hw
   1435    1    2158    2159  # Hw-Ow
   1436    1    2159    2160  # Ow-Hw
   1437    1    2161    2162  # Hw-Ow
   1438    1    2162    2163  # Ow-Hw
   1439    1    2164    2165  # Hw-Ow
   1440    1    2165    2166  # Ow-Hw
   1441    1    2167    2168  # Hw-Ow
   1442    1    2168    2169  # Ow-Hw
   1443    1    2170    2171  # Hw-Ow
   1444    1    2171    2172  # Ow-Hw
   1445    1    2173    2174  # Hw-Ow
   1446    1    2174    2175  # Ow-Hw
   1447    1    2176    2177  # Hw-Ow
   1448    1    2177    2178  # Ow-Hw
   1449    1    2179    2180  # Hw-Ow
   1450    1    2180    2181  # Ow-Hw
   1451    1    2182    2183  # Hw-Ow
   1452    1    2183    2184  # Ow-Hw
   1453    1    2185    2186  # Hw-Ow
   1454    1    2186    2187  # Ow-Hw
   1455    1    2188    2189  # Hw-Ow
   1456    1    2189    2190  # Ow-Hw
   1457    1    2191    2192  # Hw-Ow
   1458    1    2192    2193  # Ow-Hw
   1459    1    2194    2195  # Hw-Ow
   1460    1    2195    2196  # Ow-Hw
   1461    1    2197    2198  # Hw-Ow
   1462    1    2198    2199  # Ow-Hw
   1463    1    2200    2201  # Hw-Ow
   1464    1    2201    2202  # Ow-Hw
   1465    1    2203    2204  # Hw-Ow
   1466    1    2204    2205  # Ow-Hw
   1467    1    2206    2207  # Hw-Ow
   1468    1    2207    2208  # Ow-Hw
   1469    1    2209    2210  # Hw-Ow
   1470    1    2210    2211  # Ow-Hw
   1471    1    2212    2213  # Hw-Ow
   1472    1    2213    2214  # Ow-Hw
   1473    1    2215    2216  # Hw-Ow
   1474    1    2216    2217  # Ow-Hw
   1475    1    2218    2219  # Hw-Ow
   1476    1    2219    2220  # Ow-Hw
   1477    1    2221    2222  # Hw-Ow
   1478    1    2222    2223  # Ow-Hw
   1479    1    2224    2225  # Hw-Ow
   1480    1    2225    2226  # Ow-Hw
   1481    1    2227    2228  # Hw-Ow
   1482    1    2228    2229  # Ow-Hw
   1483    1    2230    2231  # Hw-Ow
   1484    1    2231    2232  # Ow-Hw
   1485    1    2233    2234  # Hw-Ow
   1486    1    2234    2235  # Ow-Hw
   1487    1    2236    2237  # Hw-Ow
   1488    1    2237    2238  # Ow-Hw
   1489    1    2239    2240  # Hw-Ow
   1490    1    2240    2241  # Ow-Hw
   1491    1    2242    2243  # Hw-Ow
   1492    1    2243    2244  # Ow-Hw
   1493    1    2245    2246  # Hw-Ow
   1494    1    2246    2247  # Ow-Hw
   1495    1    2248    2249  # Hw-Ow
   1496    1    2249    2250  # Ow-Hw
   1497    1    2251    2252  # Hw-Ow
   1498    1    2252    2253  # Ow-Hw
   1499    1    2254    2255  # Hw-Ow
   1500    1    2255    2256  # Ow-Hw
   1501    1    2257    2258  # Hw-Ow
   1502    1    2258    2259  # Ow-Hw
   1503    1    2260    2261  # Hw-Ow
   1504    1    2261    2262  # Ow-Hw
   1505    1    2263    2264  # Hw-Ow
   1506    1    2264    2265  # Ow-Hw
   1507    1    2266    2267  # Hw-Ow
   1508    1    2267    2268  # Ow-Hw
   1509    1    2269    2270  # Hw-Ow
   1510    1    2270    2271  # Ow-Hw
   1511    1    2272    2273  # Hw-Ow
   1512    1    2273    2274  # Ow-Hw
   1513    1    2275    2276  # Hw-Ow
   1514    1    2276    2277  # Ow-Hw
   1515    1    2278    2279  # Hw-Ow
   1516    1    2279    2280  # Ow-Hw
   1517    1    2281    2282  # Hw-Ow
   1518    1    2282    2283  # Ow-Hw
   1519    1    2284    2285  # Hw-Ow
   1520    1    2285    2286  # Ow-Hw
   1521    1    2287    2288  # Hw-Ow
   1522    1    2288    2289  # Ow-Hw
   1523    1    2290    2291  # Hw-Ow
   1524    1    2291    2292  # Ow-Hw
   1525    1    2293    2294  # Hw-Ow
   1526    1    2294    2295  # Ow-Hw
   1527    1    2296    2297  # Hw-Ow
   1528    1    2297    2298  # Ow-Hw
   1529    1    2299    2300  # Hw-Ow
   1530    1    2300    2301  # Ow-Hw
   1531    1    2302    2303  # Hw-Ow
   1532    1    2303    2304  # Ow-Hw
   1533    1    2305    2306  # Hw-Ow
   1534    1    2306    2307  # Ow-Hw
   1535    1    2308    2309  # Hw-Ow
   1536    1    2309    2310  # Ow-Hw
   1537    1    2311    2312  # Hw-Ow
   1538    1    2312    2313  # Ow-Hw
   1539    1    2314    2315  # Hw-Ow
   1540    1    2315    2316  # Ow-Hw
   1541    1    2317    2318  # Hw-Ow
   1542    1    2318    2319  # Ow-Hw
   1543    1    2320    2321  # Hw-Ow
   1544    1    2321    2322  # Ow-Hw
   1545    1    2323    2324  # Hw-Ow
   1546    1    2324    2325  # Ow-Hw
   1547    1    2326    2327  # Hw-Ow
   1548    1    2327    2328  # Ow-Hw
   1549    1    2329    2330  # Hw-Ow
   1550    1    2330    2331  # Ow-Hw
   1551    1    2332    2333  # Hw-Ow
   1552    1    2333    2334  # Ow-Hw
   1553    1    2335    2336  # Hw-Ow
   1554    1    2336    2337  # Ow-Hw
   1555    1    2338    2339  # Hw-Ow
   1556    1    2339    2340  # Ow-Hw
   1557    1    2341    2342  # Hw-Ow
   1558    1    2342    2343  # Ow-Hw
   1559    1    2344    2345  # Hw-Ow
   1560    1    2345    2346  # Ow-Hw
   1561    1    2347    2348  # Hw-Ow
   1562    1    2348    2349  # Ow-Hw
   1563    1    2350    2351  # Hw-Ow
   1564    1    2351    2352  # Ow-Hw
   1565    1    2353    2354  # Hw-Ow
   1566    1    2354    2355  # Ow-Hw
   1567    1    2356    2357  # Hw-Ow
   1568    1    2357    2358  # Ow-Hw
   1569    1    2359    2360  # Hw-Ow
   1570    1    2360    2361  # Ow-Hw
   1571    1    2362    2363  # Hw-Ow
   1572    1    2363    2364  # Ow-Hw
   1573    1    2365    2366  # Hw-Ow
   1574    1    2366    2367  # Ow-Hw
   1575    1    2368    2369  # Hw-Ow
   1576    1    2369    2370  # Ow-Hw
   1577    1    2371    2372  # Hw-Ow
   1578    1    2372    2373  # Ow-Hw
   1579    1    2374    2375  # Hw-Ow
   1580    1    2375    2376  # Ow-Hw
   1581    1    2377    2378  # Hw-Ow
   1582    1    2378    2379  # Ow-Hw
   1583    1    2380    2381  # Hw-Ow
   1584    1    2381    2382  # Ow-Hw
   1585    1    2383    2384  # Hw-Ow
   1586    1    2384    2385  # Ow-Hw
   1587    1    2386    2387  # Hw-Ow
   1588    1    2387    2388  # Ow-Hw
   1589    1    2389    2390  # Hw-Ow
   1590    1    2390    2391  # Ow-Hw
   1591    1    2392    2393  # Hw-Ow
   1592    1    2393    2394  # Ow-Hw
   1593    1    2395    2396  # Hw-Ow
   1594    1    2396    2397  # Ow-Hw
   1595    1    2398    2399  # Hw-Ow
   1596    1    2399    2400  # Ow-Hw
   1597    1    2401    2402  # Hw-Ow
   1598    1    2402    2403  # Ow-Hw
   1599    1    2404    2405  # Hw-Ow
   1600    1    2405    2406  # Ow-Hw

Angles

      1    1       7       8       9  # Hw-Ow-Hw
      2    1      10      11      12  # Hw-Ow-Hw
      3    1      13      14      15  # Hw-Ow-Hw
      4    1      16      17      18  # Hw-Ow-Hw
      5    1      19      20      21  # Hw-Ow-Hw
      6    1      22      23      24  # Hw-Ow-Hw
      7    1      25      26      27  # Hw-Ow-Hw
      8    1      28      29      30  # Hw-Ow-Hw
      9    1      31      32      33  # Hw-Ow-Hw
     10    1      34      35      36  # Hw-Ow-Hw
     11    1      37      38      39  # Hw-Ow-Hw
     12    1      40      41      42  # Hw-Ow-Hw
     13    1      43      44      45  # Hw-Ow-Hw
     14    1      46      47      48  # Hw-Ow-Hw
     15    1      49      50      51  # Hw-Ow-Hw
     16    1      52      53      54  # Hw-Ow-Hw
     17    1      55      56      57  # Hw-Ow-Hw
     18    1      58      59      60  # Hw-Ow-Hw
     19    1      61      62      63  # Hw-Ow-Hw
     20    1      64      65      66  # Hw-Ow-Hw
     21    1      67      68      69  # Hw-Ow-Hw
     22    1      70      71      72  # Hw-Ow-Hw
     23    1      73      74      75  # Hw-Ow-Hw
     24    1      76      77      78  # Hw-Ow-Hw
     25    1      79      80      81  # Hw-Ow-Hw
     26    1      82      83      84  # Hw-Ow-Hw
     27    1      85      86      87  # Hw-Ow-Hw
     28    1      88      89      90  # Hw-Ow-Hw
     29    1      91      92      93  # Hw-Ow-Hw
     30    1      94      95      96  # Hw-Ow-Hw
     31    1      97      98      99  # Hw-Ow-Hw
     32    1     100     101     102  # Hw-Ow-Hw
     33    1     103     104     105  # Hw-Ow-Hw
     34    1     106     107     108  # Hw-Ow-Hw
     35    1     109     110     111  # Hw-Ow-Hw
     36    1     112     113     114  # Hw-Ow-Hw
     37    1     115     116     117  # Hw-Ow-Hw
     38    1     118     119     120  # Hw-Ow-Hw
     39    1     121     122     123  # Hw-Ow-Hw
     40    1     124     125     126  # Hw-Ow-Hw
     41    1     127     128     129  # Hw-Ow-Hw
     42    1     130     131     132  # Hw-Ow-Hw
     43    1     133     134     135  # Hw-Ow-Hw
     44    1     136     137     138  # Hw-Ow-Hw
     45    1     139     140     141  # Hw-Ow-Hw
     46    1     142     143     144  # Hw-Ow-Hw
     47    1     145     146     147  # Hw-Ow-Hw
     48    1     148     149     150  # Hw-Ow-Hw
     49    1     151     152     153  # Hw-Ow-Hw
     50    1     154     155     156  # Hw-Ow-Hw
     51    1     157     158     159  # Hw-Ow-Hw
     52    1     160     161     162  # Hw-Ow-Hw
     53    1     163     164     165  # Hw-Ow-Hw
     54    1     166     167     168  # Hw-Ow-Hw
     55    1     169     170     171  # Hw-Ow-Hw
     56    1     172     173     174  # Hw-Ow-Hw
     57    1     175     176     177  # Hw-Ow-Hw
     58    1     178     179     180  # Hw-Ow-Hw
     59    1     181     182     183  # Hw-Ow-Hw
     60    1     184     185     186  # Hw-Ow-Hw
     61    1     187     188     189  # Hw-Ow-Hw
     62    1     190     191     192  # Hw-Ow-Hw
     63    1     193     194     195  # Hw-Ow-Hw
     64    1     196     197     198  # Hw-Ow-Hw
     65    1     199     200     201  # Hw-Ow-Hw
     66    1     202     203     204  # Hw-Ow-Hw
     67    1     205     206     207  # Hw-Ow-Hw
     68    1     208     209     210  # Hw-Ow-Hw
     69    1     211     212     213  # Hw-Ow-Hw
     70    1     214     215     216  # Hw-Ow-Hw
     71    1     217     218     219  # Hw-Ow-Hw
     72    1     220     221     222  # Hw-Ow-Hw
     73    1     223     224     225  # Hw-Ow-Hw
     74    1     226     227     228  # Hw-Ow-Hw
     75    1     229     230     231  # Hw-Ow-Hw
     76    1     232     233     234  # Hw-Ow-Hw
     77    1     235     236     237  # Hw-Ow-Hw
     78    1     238     239     240  # Hw-Ow-Hw
     79    1     241     242     243  # Hw-Ow-Hw
     80    1     244     245     246  # Hw-Ow-Hw
     81    1     247     248     249  # Hw-Ow-Hw
     82    1     250     251     252  # Hw-Ow-Hw
     83    1     253     254     255  # Hw-Ow-Hw
     84    1     256     257     258  # Hw-Ow-Hw
     85    1     259     260     261  # Hw-Ow-Hw
     86    1     262     263     264  # Hw-Ow-Hw
     87    1     265     266     267  # Hw-Ow-Hw
     88    1     268     269     270  # Hw-Ow-Hw
     89    1     271     272     273  # Hw-Ow-Hw
     90    1     274     275     276  # Hw-Ow-Hw
     91    1     277     278     279  # Hw-Ow-Hw
     92    1     280     281     282  # Hw-Ow-Hw
     93    1     283     284     285  # Hw-Ow-Hw
     94    1     286     287     288  # Hw-Ow-Hw
     95    1     289     290     291  # Hw-Ow-Hw
     96    1     292     293     294  # Hw-Ow-Hw
     97    1     295     296     297  # Hw-Ow-Hw
     98    1     298     299     300  # Hw-Ow-Hw
     99    1     301     302     303  # Hw-Ow-Hw
    100    1     304     305     306  # Hw-Ow-Hw
    101    1     307     308     309  # Hw-Ow-Hw
    102    1     310     311     312  # Hw-Ow-Hw
    103    1     313     314     315  # Hw-Ow-Hw
    104    1     316     317     318  # Hw-Ow-Hw
    105    1     319     320     321  # Hw-Ow-Hw
    106    1     322     323     324  # Hw-Ow-Hw
    107    1     325     326     327  # Hw-Ow-Hw
    108    1     328     329     330  # Hw-Ow-Hw
    109    1     331     332     333  # Hw-Ow-Hw
    110    1     334     335     336  # Hw-Ow-Hw
    111    1     337     338     339  # Hw-Ow-Hw
    112    1     340     341     342  # Hw-Ow-Hw
    113    1     343     344     345  # Hw-Ow-Hw
    114    1     346     347     348  # Hw-Ow-Hw
    115    1     349     350     351  # Hw-Ow-Hw
    116    1     352     353     354  # Hw-Ow-Hw
    117    1     355     356     357  # Hw-Ow-Hw
    118    1     358     359     360  # Hw-Ow-Hw
    119    1     361     362     363  # Hw-Ow-Hw
    120    1     364     365     366  # Hw-Ow-Hw
    121    1     367     368     369  # Hw-Ow-Hw
    122    1     370     371     372  # Hw-Ow-Hw
    123    1     373     374     375  # Hw-Ow-Hw
    124    1     376     377     378  # Hw-Ow-Hw
    125    1     379     380     381  # Hw-Ow-Hw
    126    1     382     383     384  # Hw-Ow-Hw
    127    1     385     386     387  # Hw-Ow-Hw
    128    1     388     389     390  # Hw-Ow-Hw
    129    1     391     392     393  # Hw-Ow-Hw
    130    1     394     395     396  # Hw-Ow-Hw
    131    1     397     398     399  # Hw-Ow-Hw
    132    1     400     401     402  # Hw-Ow-Hw
    133    1     403     404     405  # Hw-Ow-Hw
    134    1     406     407     408  # Hw-Ow-Hw
    135    1     409     410     411  # Hw-Ow-Hw
    136    1     412     413     414  # Hw-Ow-Hw
    137    1     415     416     417  # Hw-Ow-Hw
    138    1     418     419     420  # Hw-Ow-Hw
    139    1     421     422     423  # Hw-Ow-Hw
    140    1     424     425     426  # Hw-Ow-Hw
    141    1     427     428     429  # Hw-Ow-Hw
    142    1     430     431     432  # Hw-Ow-Hw
    143    1     433     434     435  # Hw-Ow-Hw
    144    1     436     437     438  # Hw-Ow-Hw
    145    1     439     440     441  # Hw-Ow-Hw
    146    1     442     443     444  # Hw-Ow-Hw
    147    1     445     446     447  # Hw-Ow-Hw
    148    1     448     449     450  # Hw-Ow-Hw
    149    1     451     452     453  # Hw-Ow-Hw
    150    1     454     455     456  # Hw-Ow-Hw
    151    1     457     458     459  # Hw-Ow-Hw
    152    1     460     461     462  # Hw-Ow-Hw
    153    1     463     464     465  # Hw-Ow-Hw
    154    1     466     467     468  # Hw-Ow-Hw
    155    1     469     470     471  # Hw-Ow-Hw
    156    1     472     473     474  # Hw-Ow-Hw
    157    1     475     476     477  # Hw-Ow-Hw
    158    1     478     479     480  # Hw-Ow-Hw
    159    1     481     482     483  # Hw-Ow-Hw
    160    1     484     485     486  # Hw-Ow-Hw
    161    1     487     488     489  # Hw-Ow-Hw
    162    1     490     491     492  # Hw-Ow-Hw
    163    1     493     494     495  # Hw-Ow-Hw
    164    1     496     497     498  # Hw-Ow-Hw
    165    1     499     500     501  # Hw-Ow-Hw
    166    1     502     503     504  # Hw-Ow-Hw
    167    1     505     506     507  # Hw-Ow-Hw
    168    1     508     509     510  # Hw-Ow-Hw
    169    1     511     512     513  # Hw-Ow-Hw
    170    1     514     515     516  # Hw-Ow-Hw
    171    1     517     518     519  # Hw-Ow-Hw
    172    1     520     521     522  # Hw-Ow-Hw
    173    1     523     524     525  # Hw-Ow-Hw
    174    1     526     527     528  # Hw-Ow-Hw
    175    1     529     530     531  # Hw-Ow-Hw
    176    1     532     533     534  # Hw-Ow-Hw
    177    1     535     536     537  # Hw-Ow-Hw
    178    1     538     539     540  # Hw-Ow-Hw
    179    1     541     542     543  # Hw-Ow-Hw
    180    1     544     545     546  # Hw-Ow-Hw
    181    1     547     548     549  # Hw-Ow-Hw
    182    1     550     551     552  # Hw-Ow-Hw
    183    1     553     554     555  # Hw-Ow-Hw
    184    1     556     557     558  # Hw-Ow-Hw
    185    1     559     560     561  # Hw-Ow-Hw
    186    1     562     563     564  # Hw-Ow-Hw
    187    1     565     566     567  # Hw-Ow-Hw
    188    1     568     569     570  # Hw-Ow-Hw
    189    1     571     572     573  # Hw-Ow-Hw
    190    1     574     575     576  # Hw-Ow-Hw
    191    1     577     578     579  # Hw-Ow-Hw
    192    1     580     581     582  # Hw-Ow-Hw
    193    1     583     584     585  # Hw-Ow-Hw
    194    1     586     587     588  # Hw-Ow-Hw
    195    1     589     590     591  # Hw-Ow-Hw
    196    1     592     593     594  # Hw-Ow-Hw
    197    1     595     596     597  # Hw-Ow-Hw
    198    1     598     599     600  # Hw-Ow-Hw
    199    1     601     602     603  # Hw-Ow-Hw
    200    1     604     605     606  # Hw-Ow-Hw
    201    1     607     608     609  # Hw-Ow-Hw
    202    1     610     611     612  # Hw-Ow-Hw
    203    1     613     614     615  # Hw-Ow-Hw
    204    1     616     617     618  # Hw-Ow-Hw
    205    1     619     620     621  # Hw-Ow-Hw
    206    1     622     623     624  # Hw-Ow-Hw
    207    1     625     626     627  # Hw-Ow-Hw
    208    1     628     629     630  # Hw-Ow-Hw
    209    1     631     632     633  # Hw-Ow-Hw
    210    1     634     635     636  # Hw-Ow-Hw
    211    1     637     638     639  # Hw-Ow-Hw
    212    1     640     641     642  # Hw-Ow-Hw
    213    1     643     644     645  # Hw-Ow-Hw
    214    1     646     647     648  # Hw-Ow-Hw
    215    1     649     650     651  # Hw-Ow-Hw
    216    1     652     653     654  # Hw-Ow-Hw
    217    1     655     656     657  # Hw-Ow-Hw
    218    1     658     659     660  # Hw-Ow-Hw
    219    1     661     662     663  # Hw-Ow-Hw
    220    1     664     665     666  # Hw-Ow-Hw
    221    1     667     668     669  # Hw-Ow-Hw
    222    1     670     671     672  # Hw-Ow-Hw
    223    1     673     674     675  # Hw-Ow-Hw
    224    1     676     677     678  # Hw-Ow-Hw
    225    1     679     680     681  # Hw-Ow-Hw
    226    1     682     683     684  # Hw-Ow-Hw
    227    1     685     686     687  # Hw-Ow-Hw
    228    1     688     689     690  # Hw-Ow-Hw
    229    1     691     692     693  # Hw-Ow-Hw
    230    1     694     695     696  # Hw-Ow-Hw
    231    1     697     698     699  # Hw-Ow-Hw
    232    1     700     701     702  # Hw-Ow-Hw
    233    1     703     704     705  # Hw-Ow-Hw
    234    1     706     707     708  # Hw-Ow-Hw
    235    1     709     710     711  # Hw-Ow-Hw
    236    1     712     713     714  # Hw-Ow-Hw
    237    1     715     716     717  # Hw-Ow-Hw
    238    1     718     719     720  # Hw-Ow-Hw
    239    1     721     722     723  # Hw-Ow-Hw
    240    1     724     725     726  # Hw-Ow-Hw
    241    1     727     728     729  # Hw-Ow-Hw
    242    1     730     731     732  # Hw-Ow-Hw
    243    1     733     734     735  # Hw-Ow-Hw
    244    1     736     737     738  # Hw-Ow-Hw
    245    1     739     740     741  # Hw-Ow-Hw
    246    1     742     743     744  # Hw-Ow-Hw
    247    1     745     746     747  # Hw-Ow-Hw
    248    1     748     749     750  # Hw-Ow-Hw
    249    1     751     752     753  # Hw-Ow-Hw
    250    1     754     755     756  # Hw-Ow-Hw
    251    1     757     758     759  # Hw-Ow-Hw
    252    1     760     761     762  # Hw-Ow-Hw
    253    1     763     764     765  # Hw-Ow-Hw
    254    1     766     767     768  # Hw-Ow-Hw
    255    1     769     770     771  # Hw-Ow-Hw
    256    1     772     773     774  # Hw-Ow-Hw
    257    1     775     776     777  # Hw-Ow-Hw
    258    1     778     779     780  # Hw-Ow-Hw
    259    1     781     782     783  # Hw-Ow-Hw
    260    1     784     785     786  # Hw-Ow-Hw
    261    1     787     788     789  # Hw-Ow-Hw
    262    1     790     791     792  # Hw-Ow-Hw
    263    1     793     794     795  # Hw-Ow-Hw
    264    1     796     797     798  # Hw-Ow-Hw
    265    1     799     800     801  # Hw-Ow-Hw
    266    1     802     803     804  # Hw-Ow-Hw
    267    1     805     806     807  # Hw-Ow-Hw
    268    1     808     809     810  # Hw-Ow-Hw
    269    1     811     812     813  # Hw-Ow-Hw
    270    1     814     815     816  # Hw-Ow-Hw
    271    1     817     818     819  # Hw-Ow-Hw
    272    1     820     821     822  # Hw-Ow-Hw
    273    1     823     824     825  # Hw-Ow-Hw
    274    1     826     827     828  # Hw-Ow-Hw
    275    1     829     830     831  # Hw-Ow-Hw
    276    1     832     833     834  # Hw-Ow-Hw
    277    1     835     836     837  # Hw-Ow-Hw
    278    1     838     839     840  # Hw-Ow-Hw
    279    1     841     842     843  # Hw-Ow-Hw
    280    1     844     845     846  # Hw-Ow-Hw
    281    1     847     848     849  # Hw-Ow-Hw
    282    1     850     851     852  # Hw-Ow-Hw
    283    1     853     854     855  # Hw-Ow-Hw
    284    1     856     857     858  # Hw-Ow-Hw
    285    1     859     860     861  # Hw-Ow-Hw
    286    1     862     863     864  # Hw-Ow-Hw
    287    1     865     866     867  # Hw-Ow-Hw
    288    1     868     869     870  # Hw-Ow-Hw
    289    1     871     872     873  # Hw-Ow-Hw
    290    1     874     875     876  # Hw-Ow-Hw
    291    1     877     878     879  # Hw-Ow-Hw
    292    1     880     881     882  # Hw-Ow-Hw
    293    1     883     884     885  # Hw-Ow-Hw
    294    1     886     887     888  # Hw-Ow-Hw
    295    1     889     890     891  # Hw-Ow-Hw
    296    1     892     893     894  # Hw-Ow-Hw
    297    1     895     896     897  # Hw-Ow-Hw
    298    1     898     899     900  # Hw-Ow-Hw
    299    1     901     902     903  # Hw-Ow-Hw
    300    1     904     905     906  # Hw-Ow-Hw
    301    1     907     908     909  # Hw-Ow-Hw
    302    1     910     911     912  # Hw-Ow-Hw
    303    1     913     914     915  # Hw-Ow-Hw
    304    1     916     917     918  # Hw-Ow-Hw
    305    1     919     920     921  # Hw-Ow-Hw
    306    1     922     923     924  # Hw-Ow-Hw
    307    1     925     926     927  # Hw-Ow-Hw
    308    1     928     929     930  # Hw-Ow-Hw
    309    1     931     932     933  # Hw-Ow-Hw
    310    1     934     935     936  # Hw-Ow-Hw
    311    1     937     938     939  # Hw-Ow-Hw
    312    1     940     941     942  # Hw-Ow-Hw
    313    1     943     944     945  # Hw-Ow-Hw
    314    1     946     947     948  # Hw-Ow-Hw
    315    1     949     950     951  # Hw-Ow-Hw
    316    1     952     953     954  # Hw-Ow-Hw
    317    1     955     956     957  # Hw-Ow-Hw
    318    1     958     959     960  # Hw-Ow-Hw
    319    1     961     962     963  # Hw-Ow-Hw
    320    1     964     965     966  # Hw-Ow-Hw
    321    1     967     968     969  # Hw-Ow-Hw
    322    1     970     971     972  # Hw-Ow-Hw
    323    1     973     974     975  # Hw-Ow-Hw
    324    1     976     977     978  # Hw-Ow-Hw
    325    1     979     980     981  # Hw-Ow-Hw
    326    1     982     983     984  # Hw-Ow-Hw
    327    1     985     986     987  # Hw-Ow-Hw
    328    1     988     989     990  # Hw-Ow-Hw
    329    1     991     992     993  # Hw-Ow-Hw
    330    1     994     995     996  # Hw-Ow-Hw
    331    1     997     998     999  # Hw-Ow-Hw
    332    1    1000    1001    1002  # Hw-Ow-Hw
    333    1    1003    1004    1005  # Hw-Ow-Hw
    334    1    1006    1007    1008  # Hw-Ow-Hw
    335    1    1009    1010    1011  # Hw-Ow-Hw
    336    1    1012    1013    1014  # Hw-Ow-Hw
    337    1    1015    1016    1017  # Hw-Ow-Hw
    338    1    1018    1019    1020  # Hw-Ow-Hw
    339    1    1021    1022    1023  # Hw-Ow-Hw
    340    1    1024    1025    1026  # Hw-Ow-Hw
    341    1    1027    1028    1029  # Hw-Ow-Hw
    342    1    1030    1031    1032  # Hw-Ow-Hw
    343    1    1033    1034    1035  # Hw-Ow-Hw
    344    1    1036    1037    1038  # Hw-Ow-Hw
    345    1    1039    1040    1041  # Hw-Ow-Hw
    346    1    1042    1043    1044  # Hw-Ow-Hw
    347    1    1045    1046    1047  # Hw-Ow-Hw
    348    1    1048    1049    1050  # Hw-Ow-Hw
    349    1    1051    1052    1053  # Hw-Ow-Hw
    350    1    1054    1055    1056  # Hw-Ow-Hw
    351    1    1057    1058    1059  # Hw-Ow-Hw
    352    1    1060    1061    1062  # Hw-Ow-Hw
    353    1    1063    1064    1065  # Hw-Ow-Hw
    354    1    1066    1067    1068  # Hw-Ow-Hw
    355    1    1069    1070    1071  # Hw-Ow-Hw
    356    1    1072    1073    1074  # Hw-Ow-Hw
    357    1    1075    1076    1077  # Hw-Ow-Hw
    358    1    1078    1079    1080  # Hw-Ow-Hw
    359    1    1081    1082    1083  # Hw-Ow-Hw
    360    1    1084    1085    1086  # Hw-Ow-Hw
    361    1    1087    1088    1089  # Hw-Ow-Hw
    362    1    1090    1091    1092  # Hw-Ow-Hw
    363    1    1093    1094    1095  # Hw-Ow-Hw
    364    1    1096    1097    1098  # Hw-Ow-Hw
    365    1    1099    1100    1101  # Hw-Ow-Hw
    366    1    1102    1103    1104  # Hw-Ow-Hw
    367    1    1105    1106    1107  # Hw-Ow-Hw
    368    1    1108    1109    1110  # Hw-Ow-Hw
    369    1    1111    1112    1113  # Hw-Ow-Hw
    370    1    1114    1115    1116  # Hw-Ow-Hw
    371    1    1117    1118    1119  # Hw-Ow-Hw
    372    1    1120    1121    1122  # Hw-Ow-Hw
    373    1    1123    1124    1125  # Hw-Ow-Hw
    374    1    1126    1127    1128  # Hw-Ow-Hw
    375    1    1129    1130    1131  # Hw-Ow-Hw
    376    1    1132    1133    1134  # Hw-Ow-Hw
    377    1    1135    1136    1137  # Hw-Ow-Hw
    378    1    1138    1139    1140  # Hw-Ow-Hw
    379    1    1141    1142    1143  # Hw-Ow-Hw
    380    1    1144    1145    1146  # Hw-Ow-Hw
    381    1    1147    1148    1149  # Hw-Ow-Hw
    382    1    1150    1151    1152  # Hw-Ow-Hw
    383    1    1153    1154    1155  # Hw-Ow-Hw
    384    1    1156    1157    1158  # Hw-Ow-Hw
    385    1    1159    1160    1161  # Hw-Ow-Hw
    386    1    1162    1163    1164  # Hw-Ow-Hw
    387    1    1165    1166    1167  # Hw-Ow-Hw
    388    1    1168    1169    1170  # Hw-Ow-Hw
    389    1    1171    1172    1173  # Hw-Ow-Hw
    390    1    1174    1175    1176  # Hw-Ow-Hw
    391    1    1177    1178    1179  # Hw-Ow-Hw
    392    1    1180    1181    1182  # Hw-Ow-Hw
    393    1    1183    1184    1185  # Hw-Ow-Hw
    394    1    1186    1187    1188  # Hw-Ow-Hw
    395    1    1189    1190    1191  # Hw-Ow-Hw
    396    1    1192    1193    1194  # Hw-Ow-Hw
    397    1    1195    1196    1197  # Hw-Ow-Hw
    398    1    1198    1199    1200  # Hw-Ow-Hw
    399    1    1201    1202    1203  # Hw-Ow-Hw
    400    1    1204    1205    1206  # Hw-Ow-Hw
    401    1    1207    1208    1209  # Hw-Ow-Hw
    402    1    1210    1211    1212  # Hw-Ow-Hw
    403    1    1213    1214    1215  # Hw-Ow-Hw
    404    1    1216    1217    1218  # Hw-Ow-Hw
    405    1    1219    1220    1221  # Hw-Ow-Hw
    406    1    1222    1223    1224  # Hw-Ow-Hw
    407    1    1225    1226    1227  # Hw-Ow-Hw
    408    1    1228    1229    1230  # Hw-Ow-Hw
    409    1    1231    1232    1233  # Hw-Ow-Hw
    410    1    1234    1235    1236  # Hw-Ow-Hw
    411    1    1237    1238    1239  # Hw-Ow-Hw
    412    1    1240    1241    1242  # Hw-Ow-Hw
    413    1    1243    1244    1245  # Hw-Ow-Hw
    414    1    1246    1247    1248  # Hw-Ow-Hw
    415    1    1249    1250    1251  # Hw-Ow-Hw
    416    1    1252    1253    1254  # Hw-Ow-Hw
    417    1    1255    1256    1257  # Hw-Ow-Hw
    418    1    1258    1259    1260  # Hw-Ow-Hw
    419    1    1261    1262    1263  # Hw-Ow-Hw
    420    1    1264    1265    1266  # Hw-Ow-Hw
    421    1    1267    1268    1269  # Hw-Ow-Hw
    422    1    1270    1271    1272  # Hw-Ow-Hw
    423    1    1273    1274    1275  # Hw-Ow-Hw
    424    1    1276    1277    1278  # Hw-Ow-Hw
    425    1    1279    1280    1281  # Hw-Ow-Hw
    426    1    1282    1283    1284  # Hw-Ow-Hw
    427    1    1285    1286    1287  # Hw-Ow-Hw
    428    1    1288    1289    1290  # Hw-Ow-Hw
    429    1    1291    1292    1293  # Hw-Ow-Hw
    430    1    1294    1295    1296  # Hw-Ow-Hw
    431    1    1297    1298    1299  # Hw-Ow-Hw
    432    1    1300    1301    1302  # Hw-Ow-Hw
    433    1    1303    1304    1305  # Hw-Ow-Hw
    434    1    1306    1307    1308  # Hw-Ow-Hw
    435    1    1309    1310    1311  # Hw-Ow-Hw
    436    1    1312    1313    1314  # Hw-Ow-Hw
    437    1    1315    1316    1317  # Hw-Ow-Hw
    438    1    1318    1319    1320  # Hw-Ow-Hw
    439    1    1321    1322    1323  # Hw-Ow-Hw
    440    1    1324    1325    1326  # Hw-Ow-Hw
    441    1    1327    1328    1329  # Hw-Ow-Hw
    442    1    1330    1331    1332  # Hw-Ow-Hw
    443    1    1333    1334    1335  # Hw-Ow-Hw
    444    1    1336    1337    1338  # Hw-Ow-Hw
    445    1    1339    1340    1341  # Hw-Ow-Hw
    446    1    1342    1343    1344  # Hw-Ow-Hw
    447    1    1345    1346    1347  # Hw-Ow-Hw
    448    1    1348    1349    1350  # Hw-Ow-Hw
    449    1    1351    1352    1353  # Hw-Ow-Hw
    450    1    1354    1355    1356  # Hw-Ow-Hw
    451    1    1357    1358    1359  # Hw-Ow-Hw
    452    1    1360    1361    1362  # Hw-Ow-Hw
    453    1    1363    1364    1365  # Hw-Ow-Hw
    454    1    1366    1367    1368  # Hw-Ow-Hw
    455    1    1369    1370    1371  # Hw-Ow-Hw
    456    1    1372    1373    1374  # Hw-Ow-Hw
    457    1    1375    1376    1377  # Hw-Ow-Hw
    458    1    1378    1379    1380  # Hw-Ow-Hw
    459    1    1381    1382    1383  # Hw-Ow-Hw
    460    1    1384    1385    1386  # Hw-Ow-Hw
    461    1    1387    1388    1389  # Hw-Ow-Hw
    462    1    1390    1391    1392  # Hw-Ow-Hw
    463    1    1393    1394    1395  # Hw-Ow-Hw
    464    1    1396    1397    1398  # Hw-Ow-Hw
    465    1    1399    1400    1401  # Hw-Ow-Hw
    466    1    1402    1403    1404  # Hw-Ow-Hw
    467    1    1405    1406    1407  # Hw-Ow-Hw
    468    1    1408    1409    1410  # Hw-Ow-Hw
    469    1    1411    1412    1413  # Hw-Ow-Hw
    470    1    1414    1415    1416  # Hw-Ow-Hw
    471    1    1417    1418    1419  # Hw-Ow-Hw
    472    1    1420    1421    1422  # Hw-Ow-Hw
    473    1    1423    1424    1425  # Hw-Ow-Hw
    474    1    1426    1427    1428  # Hw-Ow-Hw
    475    1    1429    1430    1431  # Hw-Ow-Hw
    476    1    1432    1433    1434  # Hw-Ow-Hw
    477    1    1435    1436    1437  # Hw-Ow-Hw
    478    1    1438    1439    1440  # Hw-Ow-Hw
    479    1    1441    1442    1443  # Hw-Ow-Hw
    480    1    1444    1445    1446  # Hw-Ow-Hw
    481    1    1447    1448    1449  # Hw-Ow-Hw
    482    1    1450    1451    1452  # Hw-Ow-Hw
    483    1    1453    1454    1455  # Hw-Ow-Hw
    484    1    1456    1457    1458  # Hw-Ow-Hw
    485    1    1459    1460    1461  # Hw-Ow-Hw
    486    1    1462    1463    1464  # Hw-Ow-Hw
    487    1    1465    1466    1467  # Hw-Ow-Hw
    488    1    1468    1469    1470  # Hw-Ow-Hw
    489    1    1471    1472    1473  # Hw-Ow-Hw
    490    1    1474    1475    1476  # Hw-Ow-Hw
    491    1    1477    1478    1479  # Hw-Ow-Hw
    492    1    1480    1481    1482  # Hw-Ow-Hw
    493    1    1483    1484    1485  # Hw-Ow-Hw
    494    1    1486    1487    1488  # Hw-Ow-Hw
    495    1    1489    1490    1491  # Hw-Ow-Hw
    496    1    1492    1493    1494  # Hw-Ow-Hw
    497    1    1495    1496    1497  # Hw-Ow-Hw
    498    1    1498    1499    1500  # Hw-Ow-Hw
    499    1    1501    1502    1503  # Hw-Ow-Hw
    500    1    1504    1505    1506  # Hw-Ow-Hw
    501    1    1507    1508    1509  # Hw-Ow-Hw
    502    1    1510    1511    1512  # Hw-Ow-Hw
    503    1    1513    1514    1515  # Hw-Ow-Hw
    504    1    1516    1517    1518  # Hw-Ow-Hw
    505    1    1519    1520    1521  # Hw-Ow-Hw
    506    1    1522    1523    1524  # Hw-Ow-Hw
    507    1    1525    1526    1527  # Hw-Ow-Hw
    508    1    1528    1529    1530  # Hw-Ow-Hw
    509    1    1531    1532    1533  # Hw-Ow-Hw
    510    1    1534    1535    1536  # Hw-Ow-Hw
    511    1    1537    1538    1539  # Hw-Ow-Hw
    512    1    1540    1541    1542  # Hw-Ow-Hw
    513    1    1543    1544    1545  # Hw-Ow-Hw
    514    1    1546    1547    1548  # Hw-Ow-Hw
    515    1    1549    1550    1551  # Hw-Ow-Hw
    516    1    1552    1553    1554  # Hw-Ow-Hw
    517    1    1555    1556    1557  # Hw-Ow-Hw
    518    1    1558    1559    1560  # Hw-Ow-Hw
    519    1    1561    1562    1563  # Hw-Ow-Hw
    520    1    1564    1565    1566  # Hw-Ow-Hw
    521    1    1567    1568    1569  # Hw-Ow-Hw
    522    1    1570    1571    1572  # Hw-Ow-Hw
    523    1    1573    1574    1575  # Hw-Ow-Hw
    524    1    1576    1577    1578  # Hw-Ow-Hw
    525    1    1579    1580    1581  # Hw-Ow-Hw
    526    1    1582    1583    1584  # Hw-Ow-Hw
    527    1    1585    1586    1587  # Hw-Ow-Hw
    528    1    1588    1589    1590  # Hw-Ow-Hw
    529    1    1591    1592    1593  # Hw-Ow-Hw
    530    1    1594    1595    1596  # Hw-Ow-Hw
    531    1    1597    1598    1599  # Hw-Ow-Hw
    532    1    1600    1601    1602  # Hw-Ow-Hw
    533    1    1603    1604    1605  # Hw-Ow-Hw
    534    1    1606    1607    1608  # Hw-Ow-Hw
    535    1    1609    1610    1611  # Hw-Ow-Hw
    536    1    1612    1613    1614  # Hw-Ow-Hw
    537    1    1615    1616    1617  # Hw-Ow-Hw
    538    1    1618    1619    1620  # Hw-Ow-Hw
    539    1    1621    1622    1623  # Hw-Ow-Hw
    540    1    1624    1625    1626  # Hw-Ow-Hw
    541    1    1627    1628    1629  # Hw-Ow-Hw
    542    1    1630    1631    1632  # Hw-Ow-Hw
    543    1    1633    1634    1635  # Hw-Ow-Hw
    544    1    1636    1637    1638  # Hw-Ow-Hw
    545    1    1639    1640    1641  # Hw-Ow-Hw
    546    1    1642    1643    1644  # Hw-Ow-Hw
    547    1    1645    1646    1647  # Hw-Ow-Hw
    548    1    1648    1649    1650  # Hw-Ow-Hw
    549    1    1651    1652    1653  # Hw-Ow-Hw
    550    1    1654    1655    1656  # Hw-Ow-Hw
    551    1    1657    1658    1659  # Hw-Ow-Hw
    552    1    1660    1661    1662  # Hw-Ow-Hw
    553    1    1663    1664    1665  # Hw-Ow-Hw
    554    1    1666    1667    1668  # Hw-Ow-Hw
    555    1    1669    1670    1671  # Hw-Ow-Hw
    556    1    1672    1673    1674  # Hw-Ow-Hw
    557    1    1675    1676    1677  # Hw-Ow-Hw
    558    1    1678    1679    1680  # Hw-Ow-Hw
    559    1    1681    1682    1683  # Hw-Ow-Hw
    560    1    1684    1685    1686  # Hw-Ow-Hw
    561    1    1687    1688    1689  # Hw-Ow-Hw
    562    1    1690    1691    1692  # Hw-Ow-Hw
    563    1    1693    1694    1695  # Hw-Ow-Hw
    564    1    1696    1697    1698  # Hw-Ow-Hw
    565    1    1699    1700    1701  # Hw-Ow-Hw
    566    1    1702    1703    1704  # Hw-Ow-Hw
    567    1    1705    1706    1707  # Hw-Ow-Hw
    568    1    1708    1709    1710  # Hw-Ow-Hw
    569    1    1711    1712    1713  # Hw-Ow-Hw
    570    1    1714    1715    1716  # Hw-Ow-Hw
    571    1    1717    1718    1719  # Hw-Ow-Hw
    572    1    1720    1721    1722  # Hw-Ow-Hw
    573    1    1723    1724    1725  # Hw-Ow-Hw
    574    1    1726    1727    1728  # Hw-Ow-Hw
    575    1    1729    1730    1731  # Hw-Ow-Hw
    576    1    1732    1733    1734  # Hw-Ow-Hw
    577    1    1735    1736    1737  # Hw-Ow-Hw
    578    1    1738    1739    1740  # Hw-Ow-Hw
    579    1    1741    1742    1743  # Hw-Ow-Hw
    580    1    1744    1745    1746  # Hw-Ow-Hw
    581    1    1747    1748    1749  # Hw-Ow-Hw
    582    1    1750    1751    1752  # Hw-Ow-Hw
    583    1    1753    1754    1755  # Hw-Ow-Hw
    584    1    1756    1757    1758  # Hw-Ow-Hw
    585    1    1759    1760    1761  # Hw-Ow-Hw
    586    1    1762    1763    1764  # Hw-Ow-Hw
    587    1    1765    1766    1767  # Hw-Ow-Hw
    588    1    1768    1769    1770  # Hw-Ow-Hw
    589    1    1771    1772    1773  # Hw-Ow-Hw
    590    1    1774    1775    1776  # Hw-Ow-Hw
    591    1    1777    1778    1779  # Hw-Ow-Hw
    592    1    1780    1781    1782  # Hw-Ow-Hw
    593    1    1783    1784    1785  # Hw-Ow-Hw
    594    1    1786    1787    1788  # Hw-Ow-Hw
    595    1    1789    1790    1791  # Hw-Ow-Hw
    596    1    1792    1793    1794  # Hw-Ow-Hw
    597    1    1795    1796    1797  # Hw-Ow-Hw
    598    1    1798    1799    1800  # Hw-Ow-Hw
    599    1    1801    1802    1803  # Hw-Ow-Hw
    600    1    1804    1805    1806  # Hw-Ow-Hw
    601    1    1807    1808    1809  # Hw-Ow-Hw
    602    1    1810    1811    1812  # Hw-Ow-Hw
    603    1    1813    1814    1815  # Hw-Ow-Hw
    604    1    1816    1817    1818  # Hw-Ow-Hw
    605    1    1819    1820    1821  # Hw-Ow-Hw
    606    1    1822    1823    1824  # Hw-Ow-Hw
    607    1    1825    1826    1827  # Hw-Ow-Hw
    608    1    1828    1829    1830  # Hw-Ow-Hw
    609    1    1831    1832    1833  # Hw-Ow-Hw
    610    1    1834    1835    1836  # Hw-Ow-Hw
    611    1    1837    1838    1839  # Hw-Ow-Hw
    612    1    1840    1841    1842  # Hw-Ow-Hw
    613    1    1843    1844    1845  # Hw-Ow-Hw
    614    1    1846    1847    1848  # Hw-Ow-Hw
    615    1    1849    1850    1851  # Hw-Ow-Hw
    616    1    1852    1853    1854  # Hw-Ow-Hw
    617    1    1855    1856    1857  # Hw-Ow-Hw
    618    1    1858    1859    1860  # Hw-Ow-Hw
    619    1    1861    1862    1863  # Hw-Ow-Hw
    620    1    1864    1865    1866  # Hw-Ow-Hw
    621    1    1867    1868    1869  # Hw-Ow-Hw
    622    1    1870    1871    1872  # Hw-Ow-Hw
    623    1    1873    1874    1875  # Hw-Ow-Hw
    624    1    1876    1877    1878  # Hw-Ow-Hw
    625    1    1879    1880    1881  # Hw-Ow-Hw
    626    1    1882    1883    1884  # Hw-Ow-Hw
    627    1    1885    1886    1887  # Hw-Ow-Hw
    628    1    1888    1889    1890  # Hw-Ow-Hw
    629    1    1891    1892    1893  # Hw-Ow-Hw
    630    1    1894    1895    1896  # Hw-Ow-Hw
    631    1    1897    1898    1899  # Hw-Ow-Hw
    632    1    1900    1901    1902  # Hw-Ow-Hw
    633    1    1903    1904    1905  # Hw-Ow-Hw
    634    1    1906    1907    1908  # Hw-Ow-Hw
    635    1    1909    1910    1911  # Hw-Ow-Hw
    636    1    1912    1913    1914  # Hw-Ow-Hw
    637    1    1915    1916    1917  # Hw-Ow-Hw
    638    1    1918    1919    1920  # Hw-Ow-Hw
    639    1    1921    1922    1923  # Hw-Ow-Hw
    640    1    1924    1925    1926  # Hw-Ow-Hw
    641    1    1927    1928    1929  # Hw-Ow-Hw
    642    1    1930    1931    1932  # Hw-Ow-Hw
    643    1    1933    1934    1935  # Hw-Ow-Hw
    644    1    1936    1937    1938  # Hw-Ow-Hw
    645    1    1939    1940    1941  # Hw-Ow-Hw
    646    1    1942    1943    1944  # Hw-Ow-Hw
    647    1    1945    1946    1947  # Hw-Ow-Hw
    648    1    1948    1949    1950  # Hw-Ow-Hw
    649    1    1951    1952    1953  # Hw-Ow-Hw
    650    1    1954    1955    1956  # Hw-Ow-Hw
    651    1    1957    1958    1959  # Hw-Ow-Hw
    652    1    1960    1961    1962  # Hw-Ow-Hw
    653    1    1963    1964    1965  # Hw-Ow-Hw
    654    1    1966    1967    1968  # Hw-Ow-Hw
    655    1    1969    1970    1971  # Hw-Ow-Hw
    656    1    1972    1973    1974  # Hw-Ow-Hw
    657    1    1975    1976    1977  # Hw-Ow-Hw
    658    1    1978    1979    1980  # Hw-Ow-Hw
    659    1    1981    1982    1983  # Hw-Ow-Hw
    660    1    1984    1985    1986  # Hw-Ow-Hw
    661    1    1987    1988    1989  # Hw-Ow-Hw
    662    1    1990    1991    1992  # Hw-Ow-Hw
    663    1    1993    1994    1995  # Hw-Ow-Hw
    664    1    1996    1997    1998  # Hw-Ow-Hw
    665    1    1999    2000    2001  # Hw-Ow-Hw
    666    1    2002    2003    2004  # Hw-Ow-Hw
    667    1    2005    2006    2007  # Hw-Ow-Hw
    668    1    2008    2009    2010  # Hw-Ow-Hw
    669    1    2011    2012    2013  # Hw-Ow-Hw
    670    1    2014    2015    2016  # Hw-Ow-Hw
    671    1    2017    2018    2019  # Hw-Ow-Hw
    672    1    2020    2021    2022  # Hw-Ow-Hw
    673    1    2023    2024    2025  # Hw-Ow-Hw
    674    1    2026    2027    2028  # Hw-Ow-Hw
    675    1    2029    2030    2031  # Hw-Ow-Hw
    676    1    2032    2033    2034  # Hw-Ow-Hw
    677    1    2035    2036    2037  # Hw-Ow-Hw
    678    1    2038    2039    2040  # Hw-Ow-Hw
    679    1    2041    2042    2043  # Hw-Ow-Hw
    680    1    2044    2045    2046  # Hw-Ow-Hw
    681    1    2047    2048    2049  # Hw-Ow-Hw
    682    1    2050    2051    2052  # Hw-Ow-Hw
    683    1    2053    2054    2055  # Hw-Ow-Hw
    684    1    2056    2057    2058  # Hw-Ow-Hw
    685    1    2059    2060    2061  # Hw-Ow-Hw
    686    1    2062    2063    2064  # Hw-Ow-Hw
    687    1    2065    2066    2067  # Hw-Ow-Hw
    688    1    2068    2069    2070  # Hw-Ow-Hw
    689    1    2071    2072    2073  # Hw-Ow-Hw
    690    1    2074    2075    2076  # Hw-Ow-Hw
    691    1    2077    2078    2079  # Hw-Ow-Hw
    692    1    2080    2081    2082  # Hw-Ow-Hw
    693    1    2083    2084    2085  # Hw-Ow-Hw
    694    1    2086    2087    2088  # Hw-Ow-Hw
    695    1    2089    2090    2091  # Hw-Ow-Hw
    696    1    2092    2093    2094  # Hw-Ow-Hw
    697    1    2095    2096    2097  # Hw-Ow-Hw
    698    1    2098    2099    2100  # Hw-Ow-Hw
    699    1    2101    2102    2103  # Hw-Ow-Hw
    700    1    2104    2105    2106  # Hw-Ow-Hw
    701    1    2107    2108    2109  # Hw-Ow-Hw
    702    1    2110    2111    2112  # Hw-Ow-Hw
    703    1    2113    2114    2115  # Hw-Ow-Hw
    704    1    2116    2117    2118  # Hw-Ow-Hw
    705    1    2119    2120    2121  # Hw-Ow-Hw
    706    1    2122    2123    2124  # Hw-Ow-Hw
    707    1    2125    2126    2127  # Hw-Ow-Hw
    708    1    2128    2129    2130  # Hw-Ow-Hw
    709    1    2131    2132    2133  # Hw-Ow-Hw
    710    1    2134    2135    2136  # Hw-Ow-Hw
    711    1    2137    2138    2139  # Hw-Ow-Hw
    712    1    2140    2141    2142  # Hw-Ow-Hw
    713    1    2143    2144    2145  # Hw-Ow-Hw
    714    1    2146    2147    2148  # Hw-Ow-Hw
    715    1    2149    2150    2151  # Hw-Ow-Hw
    716    1    2152    2153    2154  # Hw-Ow-Hw
    717    1    2155    2156    2157  # Hw-Ow-Hw
    718    1    2158    2159    2160  # Hw-Ow-Hw
    719    1    2161    2162    2163  # Hw-Ow-Hw
    720    1    2164    2165    2166  # Hw-Ow-Hw
    721    1    2167    2168    2169  # Hw-Ow-Hw
    722    1    2170    2171    2172  # Hw-Ow-Hw
    723    1    2173    2174    2175  # Hw-Ow-Hw
    724    1    2176    2177    2178  # Hw-Ow-Hw
    725    1    2179    2180    2181  # Hw-Ow-Hw
    726    1    2182    2183    2184  # Hw-Ow-Hw
    727    1    2185    2186    2187  # Hw-Ow-Hw
    728    1    2188    2189    2190  # Hw-Ow-Hw
    729    1    2191    2192    2193  # Hw-Ow-Hw
    730    1    2194    2195    2196  # Hw-Ow-Hw
    731    1    2197    2198    2199  # Hw-Ow-Hw
    732    1    2200    2201    2202  # Hw-Ow-Hw
    733    1    2203    2204    2205  # Hw-Ow-Hw
    734    1    2206    2207    2208  # Hw-Ow-Hw
    735    1    2209    2210    2211  # Hw-Ow-Hw
    736    1    2212    2213    2214  # Hw-Ow-Hw
    737    1    2215    2216    2217  # Hw-Ow-Hw
    738    1    2218    2219    2220  # Hw-Ow-Hw
    739    1    2221    2222    2223  # Hw-Ow-Hw
    740    1    2224    2225    2226  # Hw-Ow-Hw
    741    1    2227    2228    2229  # Hw-Ow-Hw
    742    1    2230    2231    2232  # Hw-Ow-Hw
    743    1    2233    2234    2235  # Hw-Ow-Hw
    744    1    2236    2237    2238  # Hw-Ow-Hw
    745    1    2239    2240    2241  # Hw-Ow-Hw
    746    1    2242    2243    2244  # Hw-Ow-Hw
    747    1    2245    2246    2247  # Hw-Ow-Hw
    748    1    2248    2249    2250  # Hw-Ow-Hw
    749    1    2251    2252    2253  # Hw-Ow-Hw
    750    1    2254    2255    2256  # Hw-Ow-Hw
    751    1    2257    2258    2259  # Hw-Ow-Hw
    752    1    2260    2261    2262  # Hw-Ow-Hw
    753    1    2263    2264    2265  # Hw-Ow-Hw
    754    1    2266    2267    2268  # Hw-Ow-Hw
    755    1    2269    2270    2271  # Hw-Ow-Hw
    756    1    2272    2273    2274  # Hw-Ow-Hw
    757    1    2275    2276    2277  # Hw-Ow-Hw
    758    1    2278    2279    2280  # Hw-Ow-Hw
    759    1    2281    2282    2283  # Hw-Ow-Hw
    760    1    2284    2285    2286  # Hw-Ow-Hw
    761    1    2287    2288    2289  # Hw-Ow-Hw
    762    1    2290    2291    2292  # Hw-Ow-Hw
    763    1    2293    2294    2295  # Hw-Ow-Hw
    764    1    2296    2297    2298  # Hw-Ow-Hw
    765    1    2299    2300    2301  # Hw-Ow-Hw
    766    1    2302    2303    2304  # Hw-Ow-Hw
    767    1    2305    2306    2307  # Hw-Ow-Hw
    768    1    2308    2309    2310  # Hw-Ow-Hw
    769    1    2311    2312    2313  # Hw-Ow-Hw
    770    1    2314    2315    2316  # Hw-Ow-Hw
    771    1    2317    2318    2319  # Hw-Ow-Hw
    772    1    2320    2321    2322  # Hw-Ow-Hw
    773    1    2323    2324    2325  # Hw-Ow-Hw
    774    1    2326    2327    2328  # Hw-Ow-Hw
    775    1    2329    2330    2331  # Hw-Ow-Hw
    776    1    2332    2333    2334  # Hw-Ow-Hw
    777    1    2335    2336    2337  # Hw-Ow-Hw
    778    1    2338    2339    2340  # Hw-Ow-Hw
    779    1    2341    2342    2343  # Hw-Ow-Hw
    780    1    2344    2345    2346  # Hw-Ow-Hw
    781    1    2347    2348    2349  # Hw-Ow-Hw
    782    1    2350    2351    2352  # Hw-Ow-Hw
    783    1    2353    2354    2355  # Hw-Ow-Hw
    784    1    2356    2357    2358  # Hw-Ow-Hw
    785    1    2359    2360    2361  # Hw-Ow-Hw
    786    1    2362    2363    2364  # Hw-Ow-Hw
    787    1    2365    2366    2367  # Hw-Ow-Hw
    788    1    2368    2369    2370  # Hw-Ow-Hw
    789    1    2371    2372    2373  # Hw-Ow-Hw
    790    1    2374    2375    2376  # Hw-Ow-Hw
    791    1    2377    2378    2379  # Hw-Ow-Hw
    792    1    2380    2381    2382  # Hw-Ow-Hw
    793    1    2383    2384    2385  # Hw-Ow-Hw
    794    1    2386    2387    2388  # Hw-Ow-Hw
    795    1    2389    2390    2391  # Hw-Ow-Hw
    796    1    2392    2393    2394  # Hw-Ow-Hw
    797    1    2395    2396    2397  # Hw-Ow-Hw
    798    1    2398    2399    2400  # Hw-Ow-Hw
    799    1    2401    2402    2403  # Hw-Ow-Hw
    800    1    2404    2405    2406  # Hw-Ow-Hw
