LAMMPS (4 Jul 2026 - Development - patch_4Jul2026-178-gc4fe7a5bcf)
# =============================================================================
# MgCl2(aq) + SPC/E，Li/Merz 12-6-4（C4 table overlay）
# -----------------------------------------------------------------------------
# 体系：data.lmp — 2 Mg²⁺ + 4 Cl⁻ + 800 SPC/E（type 1=Mg, 2=Cl, 3=Hw, 4=Ow）
# 势：  lj/cut/coul/long 12 Å + PPPM；hybrid/overlay 叠
#       C4_Mg_Ow.table / C4_Cl_Ow.table（section C4_POT；E=-C4/r^4）
# 流程：最小化 → 预松弛 → NVT 100 ps + NPT 400 ps（共 500 ps）→ NPT 生产 1 ns
# 轨迹：生产段 500 帧 unwrap（xsu ysu zsu）→ result_atoms.lammpstrj
#
# 注意：hybrid/overlay 下须显式写齐全部 I–J 的 lj/cut/coul/long（勿只靠 mix）。
# =============================================================================

# ----- 可调参数 -----
variable        myrand          equal   58938
variable        mytemp          equal   298.0           # [K]
variable        mypress         equal   1.0             # [atm]
variable        tdamp           equal   100.0           # [fs]
variable        pdamp           equal   1000.0          # [fs]

variable        nvt_pre_steps   equal   4000            # 0.5 fs × 4000 = 2 ps
variable        nvt_steps       equal   100000          # NVT 100 ps @ 1 fs
variable        npt_eq_steps    equal   400000          # NPT 400 ps
variable        prod_steps      equal   1000000         # 1 ns
variable        dump_every      equal   2000            # 500 frames
variable        thermo_every    equal   1000

# ----- 基本设置 -----
units           real
boundary        p p p

atom_style      full
bond_style      harmonic
angle_style     harmonic
special_bonds   lj 0.0 0.0 0.5 coul 0.0 0.0 0.8333

pair_style      hybrid/overlay                 lj/cut/coul/long 12.0 12.0                 table linear 1000
# hybrid 下 I–J 已全部显式给出，不再依赖 mix
pair_modify     shift yes
kspace_style    pppm  1.0e-5

read_data       data.lmp
Reading data file ...
  orthogonal box = (-20 -20 -20) to (20 20 20)
  1 by 2 by 2 MPI processor grid
  reading atoms ...
  2406 atoms
  scanning bonds ...
  1 = max bonds/atom
  scanning angles ...
  1 = max angles/atom
  orthogonal box = (-20 -20 -20) to (20 20 20)
  1 by 2 by 2 MPI processor grid
  reading bonds ...
  1600 bonds
  reading angles ...
  800 angles
Finding 1-2 1-3 1-4 neighbors ...
  special bond factors lj:    0        0        0.5     
  special bond factors coul:  0        0        0.8333  
     2 = max # of 1-2 neighbors
     1 = max # of 1-3 neighbors
     1 = max # of 1-4 neighbors
     2 = max # of special neighbors
  special bonds CPU = 0.000 seconds
  read_data CPU = 0.015 seconds

# LJ：ε [kcal/mol]，σ [Å]；type 1=Mg, 2=Cl, 3=Hw, 4=Ow
pair_coeff      1 1 lj/cut/coul/long   0.020934   2.546189   # Mg-Mg
pair_coeff      1 2 lj/cut/coul/long   0.104739   3.191199   # Mg-Cl
pair_coeff      1 3 lj/cut/coul/long   0.000000   1.273094   # Mg-Hw
pair_coeff      1 4 lj/cut/coul/long   0.057018   2.856094   # Mg-Ow
pair_coeff      2 2 lj/cut/coul/long   0.524046   3.836210   # Cl-Cl
pair_coeff      2 3 lj/cut/coul/long   0.000000   1.918105   # Cl-Hw
pair_coeff      2 4 lj/cut/coul/long   0.285279   3.501105   # Cl-Ow
pair_coeff      3 3 lj/cut/coul/long   0.000000   0.000000   # Hw-Hw
pair_coeff      3 4 lj/cut/coul/long   0.000000   1.583000   # Hw-Ow
pair_coeff      4 4 lj/cut/coul/long   0.155300   3.166000   # Ow-Ow

# C4 overlay（仅离子–水氧；与上面 lj 叠加）
pair_coeff      1 4 table C4_Mg_Ow.table C4_POT
Reading pair table potential file C4_Mg_Ow.table with DATE: generated
pair_coeff      2 4 table C4_Cl_Ow.table C4_POT
Reading pair table potential file C4_Cl_Ow.table with DATE: generated

neighbor        2.0  bin
neigh_modify    delay 0  every 1  check yes
# 截断 12 + skin 2；略放大 ghost，减轻多核 PPPM out-of-range
comm_modify     cutoff 15.0

# ----- 能量最小化（先消重叠，再给速度）-----
minimize        1.0e-4  1.0e-6  10000  100000
PPPM initialization ...
  using 12-bit tables for long-range coulomb
  G vector (1/distance) = 0.24490648
  grid = 25 25 25
  stencil order = 5
  estimated absolute RMS force accuracy = 0.003387768
  estimated relative force accuracy = 1.0202163e-05
  using double precision KISS FFT
  3d grid and FFT values/proc = 11552 4225
Generated 0 of 6 mixed pair_coeff terms from geometric mixing rule
Neighbor list info ...
  update: every = 1 steps, delay = 0 steps, check = yes
  max neighbors/atom: 2000, page size: 100000
  master list distance cutoff = 14
  ghost atom cutoff = 15
  binsize = 7, bins = 6 6 6
  2 neighbor lists, perpetual/occasional/extra = 2 0 0
  (1) pair lj/cut/coul/long, perpetual
      attributes: half, newton on
      pair build: half/bin/newton
      stencil: half/bin/3d
      bin: standard
  (2) pair table, perpetual, skip from (1)
      attributes: half, newton on
      pair build: skip
      stencil: none
      bin: none
Per MPI rank memory allocation (min/avg/max) = 10.35 | 10.38 | 10.4 Mbytes
   Step          Temp          E_pair         E_mol          TotEng         Press     
         0   0             -234.68268      1.7435862e-07 -234.68268      1299.219     
       392   0             -11323.766      793.25055     -10530.515     -1276.65      
Loop time of 1.46229 on 4 procs for 392 steps with 2406 atoms

99.7% CPU use with 4 MPI tasks x no OpenMP threads

Minimization stats:
  Stopping criterion = energy tolerance
  Energy initial, next-to-last, final = 
     -234.682683506675  -10529.5203035874  -10530.5151093249
  Force two-norm initial, final = 533.59136 45.057366
  Force max component initial, final = 44.812956 9.2663071
  Final line search alpha, max atom move = 0.012873347 0.11928839
  Iterations, force evaluations = 392 712

MPI task timing breakdown:
Section |  min time  |  avg time  |  max time  |%varavg| %total
---------------------------------------------------------------
Pair    | 0.64497    | 0.82627    | 1.0726     |  17.2 | 56.51
Bond    | 0.0028476  | 0.0032592  | 0.0038127  |   0.6 |  0.22
Kspace  | 0.31273    | 0.5596     | 0.74137    |  21.0 | 38.27
Neigh   | 0.039108   | 0.039139   | 0.039166   |   0.0 |  2.68
Comm    | 0.026017   | 0.026219   | 0.02654    |   0.1 |  1.79
Output  | 0          | 0          | 0          |   0.0 |  0.00
Modify  | 0          | 0          | 0          |   0.0 |  0.00
Other   |            | 0.007805   |            |       |  0.53

Nlocal:          601.5 ave         713 max         526 min
Histogram: 1 0 1 1 0 0 0 0 0 1
Nghost:        6409.75 ave        6617 max        6132 min
Histogram: 1 0 0 0 0 1 0 1 0 1
Neighs:         134611 ave      175691 max      102915 min
Histogram: 1 0 0 1 1 0 0 0 0 1

Total # of neighbors = 538444
Ave neighs/atom = 223.79219
Ave special neighs/atom = 1.9950125
Neighbor list builds = 16
Dangerous builds = 0
reset_timestep  0

fix             myshake  all  shake  0.0001  20  0  b  1  a  1
Finding SHAKE clusters ...
       0 = # of size 2 clusters
       0 = # of size 3 clusters
       0 = # of size 4 clusters
     800 = # of frozen angles
  find clusters CPU = 0.000 seconds

thermo_style    custom  step  time  temp  press  lx  ly  lz  density  vol  pe  ke
thermo_modify   flush yes
thermo          ${thermo_every}
thermo          1000

velocity        all  create  ${mytemp}  ${myrand}  dist gaussian  mom yes  rot yes
velocity        all  create  298  ${myrand}  dist gaussian  mom yes  rot yes
velocity        all  create  298  58938  dist gaussian  mom yes  rot yes

write_data      result_atoms.data  nofix
System init for write_data ...
PPPM initialization ...
  using 12-bit tables for long-range coulomb
  G vector (1/distance) = 0.24490648
  grid = 25 25 25
  stencil order = 5
  estimated absolute RMS force accuracy = 0.003387768
  estimated relative force accuracy = 1.0202163e-05
  using double precision KISS FFT
  3d grid and FFT values/proc = 11552 4225
Generated 0 of 6 mixed pair_coeff terms from geometric mixing rule

# =============================================================================
# 0. 预松弛：0.5 fs × 2 ps（装盒重叠 / 高力时降低飞出子域风险）
# =============================================================================

timestep        1
fix             mynvt  all  nvt  temp  ${mytemp}  ${mytemp}  ${tdamp}
fix             mynvt  all  nvt  temp  298  ${mytemp}  ${tdamp}
fix             mynvt  all  nvt  temp  298  298  ${tdamp}
fix             mynvt  all  nvt  temp  298  298  100
run             ${nvt_pre_steps}
run             4000
PPPM initialization ...
  using 12-bit tables for long-range coulomb
  G vector (1/distance) = 0.24490648
  grid = 25 25 25
  stencil order = 5
  estimated absolute RMS force accuracy = 0.003387768
  estimated relative force accuracy = 1.0202163e-05
  using double precision KISS FFT
  3d grid and FFT values/proc = 11552 4225
Generated 0 of 6 mixed pair_coeff terms from geometric mixing rule
Per MPI rank memory allocation (min/avg/max) = 10.11 | 10.13 | 10.16 Mbytes
   Step          Time           Temp          Press            Lx             Ly             Lz          Density         Volume         PotEng         KinEng    
         0   0              298           -425.9037       40             40             40             0.37887328     64000         -11323.766      1425.6916    
      1000   1000           291.86889      153.03988      40             40             40             0.37887328     64000         -9096.8497      1396.3592    
      2000   2000           298.40531      92.557637      40             40             40             0.37887328     64000         -9193.1683      1427.6307    
      3000   3000           294.35187     -161.04602      40             40             40             0.37887328     64000         -9375.978       1408.2383    
      4000   4000           298.248       -339.17265      40             40             40             0.37887328     64000         -9489.7097      1426.8781    
Loop time of 8.97933 on 4 procs for 4000 steps with 2406 atoms

Performance: 38.488 ns/day, 0.624 hours/ns, 445.468 timesteps/s, 1.072 Matom-step/s
97.5% CPU use with 4 MPI tasks x no OpenMP threads

MPI task timing breakdown:
Section |  min time  |  avg time  |  max time  |%varavg| %total
---------------------------------------------------------------
Pair    | 2.7702     | 4.1446     | 5.8943     |  56.7 | 46.16
Bond    | 0.00035101 | 0.00037896 | 0.00040732 |   0.0 |  0.00
Kspace  | 2.1141     | 3.7999     | 5.1512     |  57.6 | 42.32
Neigh   | 0.56227    | 0.56281    | 0.56306    |   0.0 |  6.27
Comm    | 0.19321    | 0.25484    | 0.28362    |   7.2 |  2.84
Output  | 4.7042e-05 | 0.00013324 | 0.00039042 |   0.0 |  0.00
Modify  | 0.19673    | 0.19828    | 0.19907    |   0.2 |  2.21
Other   |            | 0.01836    |            |       |  0.20

Nlocal:          601.5 ave         744 max         523 min
Histogram: 1 1 0 1 0 0 0 0 0 1
Nghost:           5981 ave        6482 max        5472 min
Histogram: 1 0 0 0 1 1 0 0 0 1
Neighs:         188586 ave      263722 max      123260 min
Histogram: 1 0 1 0 0 0 1 0 0 1

Total # of neighbors = 754346
Ave neighs/atom = 313.52702
Ave special neighs/atom = 1.9950125
Neighbor list builds = 181
Dangerous builds = 0
unfix           mynvt

# =============================================================================
# 平衡：NVT 100 ps + NPT(iso) 400 ps = 500 ps（不含上面 2 ps 预松弛）
# =============================================================================

timestep        1.0
fix             mynvt  all  nvt  temp  ${mytemp}  ${mytemp}  ${tdamp}
fix             mynvt  all  nvt  temp  298  ${mytemp}  ${tdamp}
fix             mynvt  all  nvt  temp  298  298  ${tdamp}
fix             mynvt  all  nvt  temp  298  298  100
run             ${nvt_steps}
run             100000
PPPM initialization ...
  using 12-bit tables for long-range coulomb
  G vector (1/distance) = 0.24490648
  grid = 25 25 25
  stencil order = 5
  estimated absolute RMS force accuracy = 0.003387768
  estimated relative force accuracy = 1.0202163e-05
  using double precision KISS FFT
  3d grid and FFT values/proc = 11552 4225
Generated 0 of 6 mixed pair_coeff terms from geometric mixing rule
Per MPI rank memory allocation (min/avg/max) = 10.14 | 10.33 | 10.51 Mbytes
   Step          Time           Temp          Press            Lx             Ly             Lz          Density         Volume         PotEng         KinEng    
      4000   4000           298.248       -338.89602      40             40             40             0.37887328     64000         -9489.7097      1426.8781    
      5000   5000           288.29908     -247.93605      40             40             40             0.37887328     64000         -9502.9918      1379.2805    
      6000   6000           303.30061      72.144093      40             40             40             0.37887328     64000         -9500.7408      1451.0508    
      7000   7000           297.55259     -110.11335      40             40             40             0.37887328     64000         -9547.0963      1423.5511    
      8000   8000           298.96572     -68.447663      40             40             40             0.37887328     64000         -9581.4991      1430.3119    
      9000   9000           292.9319      -141.40624      40             40             40             0.37887328     64000         -9478.4795      1401.4448    
     10000   10000          297.89349      105.24924      40             40             40             0.37887328     64000         -9578.5645      1425.1821    
     11000   11000          298.72625      58.042482      40             40             40             0.37887328     64000         -9564.1478      1429.1661    
     12000   12000          285.90224     -193.44662      40             40             40             0.37887328     64000         -9512.9606      1367.8135    
     13000   13000          297.02041      285.22793      40             40             40             0.37887328     64000         -9597.4175      1421.0051    
     14000   14000          292.63475     -236.81229      40             40             40             0.37887328     64000         -9706.9577      1400.0232    
     15000   15000          299.04632     -49.676082      40             40             40             0.37887328     64000         -9663.3297      1430.6974    
     16000   16000          303.83126     -340.18601      40             40             40             0.37887328     64000         -9655.7509      1453.5896    
     17000   17000          289.28701     -204.42555      40             40             40             0.37887328     64000         -9754.797       1384.0069    
     18000   18000          306.65061     -213.0463       40             40             40             0.37887328     64000         -9689.0701      1467.0779    
     19000   19000          293.65344     -11.279133      40             40             40             0.37887328     64000         -9619.5866      1404.8968    
     20000   20000          298.41402     -3.9951836      40             40             40             0.37887328     64000         -9578.8527      1427.6724    
     21000   21000          290.8835      -6.0736994      40             40             40             0.37887328     64000         -9663.1151      1391.6449    
     22000   22000          293.49026     -83.216111      40             40             40             0.37887328     64000         -9672.5         1404.1161    
     23000   23000          306.72152     -186.96269      40             40             40             0.37887328     64000         -9694.1322      1467.4171    
     24000   24000          287.34152      157.72784      40             40             40             0.37887328     64000         -9694.6715      1374.6993    
     25000   25000          296.03295     -6.971208       40             40             40             0.37887328     64000         -9619.1961      1416.2809    
     26000   26000          296.64567     -301.07569      40             40             40             0.37887328     64000         -9617.9274      1419.2122    
     27000   27000          303.53799     -151.69728      40             40             40             0.37887328     64000         -9544.6856      1452.1865    
     28000   28000          299.23226     -355.3187       40             40             40             0.37887328     64000         -9644.6177      1431.587     
     29000   29000          308.25977     -237.44606      40             40             40             0.37887328     64000         -9609.5291      1474.7764    
     30000   30000          295.02169     -88.954848      40             40             40             0.37887328     64000         -9672.3197      1411.4428    
     31000   31000          297.79086      35.572331      40             40             40             0.37887328     64000         -9707.1196      1424.6911    
     32000   32000          302.51174     -220.19711      40             40             40             0.37887328     64000         -9554.5364      1447.2767    
     33000   33000          295.05281     -208.84178      40             40             40             0.37887328     64000         -9726.0876      1411.5917    
     34000   34000          297.99652     -318.62718      40             40             40             0.37887328     64000         -9718.0778      1425.675     
     35000   35000          308.5388      -201.93432      40             40             40             0.37887328     64000         -9540.6043      1476.1114    
     36000   36000          302.87513     -180.44489      40             40             40             0.37887328     64000         -9631.6397      1449.0152    
     37000   37000          292.37792     -148.11176      40             40             40             0.37887328     64000         -9648.6321      1398.7945    
     38000   38000          290.43637     -264.86176      40             40             40             0.37887328     64000         -9651.7239      1389.5057    
     39000   39000          303.12008     -113.72335      40             40             40             0.37887328     64000         -9689.9621      1450.1871    
     40000   40000          298.67362     -85.151841      40             40             40             0.37887328     64000         -9662.2026      1428.9144    
     41000   41000          294.49158     -247.38912      40             40             40             0.37887328     64000         -9696.6424      1408.9066    
     42000   42000          307.00429      191.67041      40             40             40             0.37887328     64000         -9637.6538      1468.77      
     43000   43000          298.28565     -26.564034      40             40             40             0.37887328     64000         -9660.7148      1427.0583    
     44000   44000          299.83393     -369.98409      40             40             40             0.37887328     64000         -9625.7021      1434.4655    
     45000   45000          297.67882     -133.97648      40             40             40             0.37887328     64000         -9611.3474      1424.1551    
     46000   46000          299.95007     -374.8627       40             40             40             0.37887328     64000         -9678.8765      1435.0211    
     47000   47000          297.1686      -78.709402      40             40             40             0.37887328     64000         -9633.1478      1421.714     
     48000   48000          309.22076     -361.08718      40             40             40             0.37887328     64000         -9706.6841      1479.374     
     49000   49000          289.34321     -185.27149      40             40             40             0.37887328     64000         -9690.6733      1384.2758    
     50000   50000          303.24551     -244.45189      40             40             40             0.37887328     64000         -9631.4072      1450.7872    
     51000   51000          295.20684     -16.833949      40             40             40             0.37887328     64000         -9669.9404      1412.3286    
     52000   52000          298.53944     -210.73246      40             40             40             0.37887328     64000         -9707.8609      1428.2724    
     53000   53000          293.41097     -182.97794      40             40             40             0.37887328     64000         -9626.8407      1403.7368    
     54000   54000          295.09503     -283.6039       40             40             40             0.37887328     64000         -9634.0218      1411.7937    
     55000   55000          305.8996      -186.11649      40             40             40             0.37887328     64000         -9639.8084      1463.4849    
     56000   56000          290.10194     -203.66919      40             40             40             0.37887328     64000         -9644.0487      1387.9057    
     57000   57000          291.95577     -264.12033      40             40             40             0.37887328     64000         -9642.0159      1396.7749    
     58000   58000          291.06631     -71.876521      40             40             40             0.37887328     64000         -9576.3204      1392.5195    
     59000   59000          296.65637     -174.77722      40             40             40             0.37887328     64000         -9682.8357      1419.2635    
     60000   60000          300.26782     -154.43438      40             40             40             0.37887328     64000         -9723.6901      1436.5414    
     61000   61000          302.05735     -214.11818      40             40             40             0.37887328     64000         -9659.8227      1445.1028    
     62000   62000          292.41191     -207.78908      40             40             40             0.37887328     64000         -9685.5905      1398.9571    
     63000   63000          301.49578     -248.3317       40             40             40             0.37887328     64000         -9579.1775      1442.4161    
     64000   64000          296.70057     -212.75579      40             40             40             0.37887328     64000         -9651.3695      1419.4749    
     65000   65000          294.46668     -262.95644      40             40             40             0.37887328     64000         -9718.3776      1408.7875    
     66000   66000          309.8819      -37.837419      40             40             40             0.37887328     64000         -9729.857       1482.537     
     67000   67000          296.37907     -326.83452      40             40             40             0.37887328     64000         -9659.797       1417.9368    
     68000   68000          295.79094     -96.703349      40             40             40             0.37887328     64000         -9689.4892      1415.1231    
     69000   69000          288.39532     -304.15359      40             40             40             0.37887328     64000         -9609.8289      1379.7409    
     70000   70000          293.5634      -107.6618       40             40             40             0.37887328     64000         -9666.1953      1404.466     
     71000   71000          298.24793      108.05657      40             40             40             0.37887328     64000         -9665.2865      1426.8778    
     72000   72000          301.59278     -356.97405      40             40             40             0.37887328     64000         -9706.5624      1442.8802    
     73000   73000          299.83794     -398.87139      40             40             40             0.37887328     64000         -9701.1231      1434.4847    
     74000   74000          292.6155      -307.31056      40             40             40             0.37887328     64000         -9722.6886      1399.9311    
     75000   75000          299.24931      169.81464      40             40             40             0.37887328     64000         -9707.109       1431.6686    
     76000   76000          297.86632     -341.72106      40             40             40             0.37887328     64000         -9617.3019      1425.0521    
     77000   77000          297.32348     -139.46068      40             40             40             0.37887328     64000         -9719.4409      1422.455     
     78000   78000          308.4819      -216.55493      40             40             40             0.37887328     64000         -9647.3906      1475.8392    
     79000   79000          306.16459     -111.63402      40             40             40             0.37887328     64000         -9697.5178      1464.7527    
     80000   80000          291.117       -777.54118      40             40             40             0.37887328     64000         -9605.3913      1392.762     
     81000   81000          298.08543     -51.62248       40             40             40             0.37887328     64000         -9640.5655      1426.1004    
     82000   82000          299.18138     -232.26054      40             40             40             0.37887328     64000         -9669.0344      1431.3436    
     83000   83000          300.70525     -674.0301       40             40             40             0.37887328     64000         -9629.3756      1438.6341    
     84000   84000          291.40536     -547.79427      40             40             40             0.37887328     64000         -9610.497       1394.1416    
     85000   85000          292.33082     -4.7520743      40             40             40             0.37887328     64000         -9702.6884      1398.5691    
     86000   86000          307.28148     -413.16928      40             40             40             0.37887328     64000         -9661.3225      1470.0961    
     87000   87000          300.81108     -271.48915      40             40             40             0.37887328     64000         -9638.4762      1439.1404    
     88000   88000          293.03813     -256.55844      40             40             40             0.37887328     64000         -9742.0133      1401.9531    
     89000   89000          313.07178     -32.016018      40             40             40             0.37887328     64000         -9675.0019      1497.7981    
     90000   90000          303.35249     -256.3321       40             40             40             0.37887328     64000         -9712.3818      1451.299     
     91000   91000          302.8101      -90.821268      40             40             40             0.37887328     64000         -9608.3466      1448.7041    
     92000   92000          296.83883     -296.07559      40             40             40             0.37887328     64000         -9673.1287      1420.1364    
     93000   93000          297.98354     -150.73937      40             40             40             0.37887328     64000         -9712.1198      1425.6129    
     94000   94000          287.86147     -263.53258      40             40             40             0.37887328     64000         -9724.7746      1377.1869    
     95000   95000          296.51222      83.862524      40             40             40             0.37887328     64000         -9629.3992      1418.5738    
     96000   96000          299.27286     -259.1284       40             40             40             0.37887328     64000         -9726.6771      1431.7813    
     97000   97000          304.83895      55.818911      40             40             40             0.37887328     64000         -9692.2307      1458.4106    
     98000   98000          295.77686      21.690356      40             40             40             0.37887328     64000         -9696.5427      1415.0557    
     99000   99000          288.26268     -201.86461      40             40             40             0.37887328     64000         -9632.115       1379.1063    
    100000   100000         303.25325      172.25244      40             40             40             0.37887328     64000         -9688.4771      1450.8242    
    101000   101000         296.95818     -71.359642      40             40             40             0.37887328     64000         -9746.0832      1420.7073    
    102000   102000         298.0169      -205.58666      40             40             40             0.37887328     64000         -9649.3472      1425.7725    
    103000   103000         297.13856      83.372691      40             40             40             0.37887328     64000         -9658.9631      1421.5703    
    104000   104000         299.81508     -148.08008      40             40             40             0.37887328     64000         -9677.8689      1434.3753    
Loop time of 279.432 on 4 procs for 100000 steps with 2406 atoms

Performance: 30.920 ns/day, 0.776 hours/ns, 357.869 timesteps/s, 861.033 katom-step/s
98.6% CPU use with 4 MPI tasks x no OpenMP threads

MPI task timing breakdown:
Section |  min time  |  avg time  |  max time  |%varavg| %total
---------------------------------------------------------------
Pair    | 90.275     | 140.14     | 195.13     | 419.2 | 50.15
Bond    | 0.0072542  | 0.0081081  | 0.0092913  |   0.9 |  0.00
Kspace  | 58.581     | 112.4      | 161.12     | 460.7 | 40.22
Neigh   | 16.118     | 16.122     | 16.125     |   0.1 |  5.77
Comm    | 4.6266     | 5.7559     | 6.8642     |  34.7 |  2.06
Output  | 0.0012561  | 0.0028056  | 0.0074137  |   5.0 |  0.00
Modify  | 4.5992     | 4.6191     | 4.645      |   0.8 |  1.65
Other   |            | 0.387      |            |       |  0.14

Nlocal:          601.5 ave         725 max         441 min
Histogram: 1 0 0 0 0 1 1 0 0 1
Nghost:         5455.5 ave        6150 max        4789 min
Histogram: 1 0 0 0 1 1 0 0 0 1
Neighs:         215758 ave      319765 max      116379 min
Histogram: 1 1 0 0 0 0 0 1 0 1

Total # of neighbors = 863033
Ave neighs/atom = 358.70033
Ave special neighs/atom = 1.9950125
Neighbor list builds = 4602
Dangerous builds = 0
unfix           mynvt

fix             mynpt  all  npt  temp  ${mytemp}  ${mytemp}  ${tdamp}                  iso  ${mypress}  ${mypress}  ${pdamp}
fix             mynpt  all  npt  temp  298  ${mytemp}  ${tdamp}                  iso  ${mypress}  ${mypress}  ${pdamp}
fix             mynpt  all  npt  temp  298  298  ${tdamp}                  iso  ${mypress}  ${mypress}  ${pdamp}
fix             mynpt  all  npt  temp  298  298  100                  iso  ${mypress}  ${mypress}  ${pdamp}
fix             mynpt  all  npt  temp  298  298  100                  iso  1  ${mypress}  ${pdamp}
fix             mynpt  all  npt  temp  298  298  100                  iso  1  1  ${pdamp}
fix             mynpt  all  npt  temp  298  298  100                  iso  1  1  1000
run             ${npt_eq_steps}
run             400000
PPPM initialization ...
  using 12-bit tables for long-range coulomb
  G vector (1/distance) = 0.24490648
  grid = 25 25 25
  stencil order = 5
  estimated absolute RMS force accuracy = 0.003387768
  estimated relative force accuracy = 1.0202163e-05
  using double precision KISS FFT
  3d grid and FFT values/proc = 11552 4225
Generated 0 of 6 mixed pair_coeff terms from geometric mixing rule
Per MPI rank memory allocation (min/avg/max) = 10.14 | 10.52 | 10.89 Mbytes
   Step          Time           Temp          Press            Lx             Ly             Lz          Density         Volume         PotEng         KinEng    
    104000   104000         299.81508     -147.9782       40             40             40             0.37887328     64000         -9677.8689      1434.3753    
    105000   105000         306.3242      -360.83587      39.564047      39.564047      39.564047      0.39153611     61930.149     -9661.2524      1465.5163    
    106000   106000         292.48482     -113.13531      38.972146      38.972146      38.972146      0.40964816     59191.991     -9680.2496      1399.3059    
    107000   107000         297.38754     -56.031712      38.289537      38.289537      38.289537      0.43195012     56135.857     -9674.4345      1422.7615    
    108000   108000         294.39334     -107.33327      37.40383       37.40383       37.40383       0.46336766     52329.699     -9795.9786      1408.4366    
    109000   109000         296.83234     -118.02815      36.87455       36.87455       36.87455       0.48360834     50139.52      -9731.3495      1420.1053    
    110000   110000         306.03481      17.596645      36.42627       36.42627       36.42627       0.50168353     48333.04      -9727.0988      1464.1318    
    111000   111000         286.55481     -389.17155      35.97052       35.97052       35.97052       0.5209953      46541.476     -9761.0206      1370.9356    
    112000   112000         285.71052      15.106217      35.541872      35.541872      35.541872      0.54007372     44897.371     -9824.6236      1366.8963    
    113000   113000         287.11882      74.061151      35.007356      35.007356      35.007356      0.56519204     42902.038     -9840.0458      1373.6339    
    114000   114000         296.26562     -504.11137      34.707431      34.707431      34.707431      0.57997137     41808.771     -9914.61        1417.394     
    115000   115000         291.83293     -289.46425      34.174975      34.174975      34.174975      0.60750426     39913.942     -9833.9195      1396.1871    
    116000   116000         293.47201     -135.68685      33.698467      33.698467      33.698467      0.63364139     38267.529     -9911.6075      1404.0289    
    117000   117000         298.94474      194.59977      33.323068      33.323068      33.323068      0.65529828     37002.829     -9864.4497      1430.2115    
    118000   118000         297.20445     -447.62553      32.984068      32.984068      32.984068      0.67571146     35884.977     -9825.2824      1421.8856    
    119000   119000         296.63185     -397.10756      32.286633      32.286633      32.286633      0.72045302     33656.449     -9946.942       1419.1462    
    120000   120000         303.6911       3.3324163      31.818781      31.818781      31.818781      0.75270248     32214.442     -9904.3383      1452.919     
    121000   121000         301.48857     -302.33731      31.062059      31.062059      31.062059      0.80906465     29970.275     -9894.6522      1442.3817    
    122000   122000         296.55812     -220.84415      30.505519      30.505519      30.505519      0.85415894     28388.031     -9900.0595      1418.7934    
    123000   123000         309.40239     -235.43112      29.768995      29.768995      29.768995      0.91913954     26381.076     -10077.948      1480.243     
    124000   124000         297.62171     -163.89344      29.188405      29.188405      29.188405      0.9750859      24867.44      -10168.164      1423.8818    
    125000   125000         304.48527      231.21432      28.977464      28.977464      28.977464      0.99653562     24332.186     -10209.385      1456.7185    
    126000   126000         293.70375      164.93456      29.065307      29.065307      29.065307      0.98752754     24554.141     -10234.148      1405.1375    
    127000   127000         294.13292     -175.72779      28.970864      28.970864      28.970864      0.99721688     24315.563     -10173.152      1407.1908    
    128000   128000         285.24511     -674.03995      29.039116      29.039116      29.039116      0.99020199     24487.822     -10189.128      1364.6697    
    129000   129000         290.75212      206.47453      28.864006      28.864006      28.864006      1.0083334      24047.493     -10184.516      1391.0163    
    130000   130000         301.99524      261.07353      28.830877      28.830877      28.830877      1.0118133      23964.787     -10144.378      1444.8057    
    131000   131000         297.39493      564.65625      28.845064      28.845064      28.845064      1.0103211      24000.182     -10130.191      1422.7969    
    132000   132000         304.51021     -569.84426      28.928457      28.928457      28.928457      1.0016089      24208.941     -10154.086      1456.8378    
    133000   133000         297.46103     -29.877457      28.796726      28.796726      28.796726      1.0154174      23879.726     -10303.792      1423.1131    
    134000   134000         304.39414      32.950062      28.946135      28.946135      28.946135      0.99977488     24253.35      -10216.307      1456.2825    
    135000   135000         296.17148      1120.0487      28.81736       28.81736       28.81736       1.0132377      23931.096     -10170.631      1416.9437    
    136000   136000         287.43262      438.02094      28.808204      28.808204      28.808204      1.0142042      23908.293     -10198.998      1375.1352    
    137000   137000         300.46793      928.42865      28.824933      28.824933      28.824933      1.0124394      23949.968     -10163.809      1437.4987    
    138000   138000         296.09764      260.53351      28.923428      28.923428      28.923428      1.0021314      24196.318     -10152.793      1416.5904    
    139000   139000         296.61733      583.05909      28.911852      28.911852      28.911852      1.0033356      24167.277     -10215.731      1419.0767    
    140000   140000         307.40788      634.90199      28.797277      28.797277      28.797277      1.0153591      23881.097     -10177.371      1470.7008    
    141000   141000         298.78002      312.16295      28.855077      28.855077      28.855077      1.0092697      24025.184     -10206.366      1429.4234    
    142000   142000         295.02085     -650.79349      28.9803        28.9803        28.9803        0.99624314     24339.329     -10146.395      1411.4388    
    143000   143000         300.67518      82.363234      29.049881      29.049881      29.049881      0.98910157     24515.066     -10188.472      1438.4902    
    144000   144000         293.35038      5.1076673      28.75749       28.75749       28.75749       1.0195793      23782.25      -10200.931      1403.4469    
    145000   145000         294.85396      645.49472      28.732901      28.732901      28.732901      1.0221991      23721.298     -10194.615      1410.6404    
    146000   146000         297.68425      113.99397      28.881121      28.881121      28.881121      1.0065418      24090.297     -10159.783      1424.181     
    147000   147000         294.17647      108.94939      28.88998       28.88998       28.88998       1.0056161      24112.472     -10178.942      1407.3991    
    148000   148000         296.32466      377.8468       28.911004      28.911004      28.911004      1.0034239      24165.152     -10118.835      1417.6765    
    149000   149000         288.97763     -594.24601      28.993322      28.993322      28.993322      0.99490135     24372.155     -10139.407      1382.5268    
    150000   150000         299.41957      326.06984      28.839956      28.839956      28.839956      1.0108581      23987.433     -10144.628      1432.4832    
    151000   151000         294.37487      589.62741      28.889627      28.889627      28.889627      1.005653       24111.587     -10213.795      1408.3483    
    152000   152000         295.3647       613.4389       28.873337      28.873337      28.873337      1.007356       24070.824     -10149.387      1413.0838    
    153000   153000         310.01082     -111.31745      29.019633      29.019633      29.019633      0.99219763     24438.569     -10173.282      1483.1538    
    154000   154000         299.61719      1163.191       28.891371      28.891371      28.891371      1.0054709      24115.953     -10095.895      1433.4286    
    155000   155000         295.42046     -21.212218      28.957764      28.957764      28.957764      0.99857085     24282.594     -10201.626      1413.3506    
    156000   156000         293.46245     -32.286609      28.856322      28.856322      28.856322      1.0091391      24028.292     -10203.164      1403.9831    
    157000   157000         294.83629     -252.52163      28.911688      28.911688      28.911688      1.0033527      24166.866     -10267.703      1410.5558    
    158000   158000         304.63143      500.98508      28.878768      28.878768      28.878768      1.0067878      24084.409     -10202.299      1457.4177    
    159000   159000         298.58912      162.26618      28.79462       28.79462       28.79462       1.0156402      23874.488     -10214.991      1428.5101    
    160000   160000         296.0798       522.17754      28.853705      28.853705      28.853705      1.0094137      24021.757     -10254.203      1416.505     
    161000   161000         296.41036     -447.14377      28.890426      28.890426      28.890426      1.0055696      24113.588     -10194.156      1418.0865    
    162000   162000         292.90643      630.24212      28.880315      28.880315      28.880315      1.0066261      24088.279     -10203.742      1401.323     
    163000   163000         304.64677      249.37018      28.816349      28.816349      28.816349      1.0133444      23928.576     -10232.514      1457.4911    
    164000   164000         299.62098      537.61421      28.977908      28.977908      28.977908      0.99648979     24333.305     -10224.944      1433.4467    
    165000   165000         285.13172     -461.05974      29.057346      29.057346      29.057346      0.98833947     24533.969     -10148.851      1364.1272    
    166000   166000         287.58627     -264.32961      28.894192      28.894192      28.894192      1.0051764      24123.02      -10193.651      1375.8703    
    167000   167000         302.77516     -104.03072      28.790174      28.790174      28.790174      1.0161109      23863.43      -10251.641      1448.537     
    168000   168000         302.80052      84.121166      28.838107      28.838107      28.838107      1.0110525      23982.819     -10150.271      1448.6583    
    169000   169000         298.20619      309.22121      28.767651      28.767651      28.767651      1.0184993      23807.468     -10193.929      1426.6781    
    170000   170000         299.78596      1223.5555      28.762974      28.762974      28.762974      1.0189963      23795.858     -10185.63       1434.2361    
    171000   171000         301.61604     -432.53353      28.962988      28.962988      28.962988      0.99803059     24295.738     -10172.563      1442.9915    
    172000   172000         304.38366      576.65719      28.847158      28.847158      28.847158      1.0101012      24005.407     -10193.413      1456.2323    
    173000   173000         287.24098      77.788713      28.899231      28.899231      28.899231      1.0046507      24135.642     -10221.9        1374.2183    
    174000   174000         295.2997      -177.9346       28.895312      28.895312      28.895312      1.0050595      24125.825     -10258.687      1412.7729    
    175000   175000         295.61157     -131.81642      28.796216      28.796216      28.796216      1.0154713      23878.458     -10152.454      1414.2649    
    176000   176000         300.41455     -1055.7284      28.930248      28.930248      28.930248      1.0014229      24213.437     -10173.132      1437.2433    
    177000   177000         299.48352      218.64765      28.711239      28.711239      28.711239      1.0245146      23667.687     -10244.544      1432.7891    
    178000   178000         292.15684      579.74765      28.812185      28.812185      28.812185      1.0137839      23918.205     -10174.104      1397.7368    
    179000   179000         303.99292     -877.58318      28.969154      28.969154      28.969154      0.99739346     24311.258     -10166.607      1454.363     
    180000   180000         296.8205       260.71093      28.898035      28.898035      28.898035      1.0047754      24132.646     -10155.978      1420.0487    
    181000   181000         306.89858     -311.50094      28.9124        28.9124        28.9124        1.0032786      24168.651     -10287.951      1468.2642    
    182000   182000         298.05904      375.57086      28.995352      28.995352      28.995352      0.99469239     24377.275     -10184.454      1425.9741    
    183000   183000         309.2907       266.21859      29.042987      29.042987      29.042987      0.98980611     24497.616     -10149.16       1479.7086    
    184000   184000         293.7349       7.1580507      28.954822      28.954822      28.954822      0.99887521     24275.194     -10212.948      1405.2865    
    185000   185000         297.34749      497.93509      28.858812      28.858812      28.858812      1.0088779      24034.515     -10228.558      1422.5699    
    186000   186000         292.29559     -214.75142      28.729         28.729         28.729         1.0226157      23711.635     -10250.798      1398.4006    
    187000   187000         301.42728     -1032.5367      28.875207      28.875207      28.875207      1.0071604      24075.501     -10220.955      1442.0884    
    188000   188000         301.01503      70.300005      28.860003      28.860003      28.860003      1.008753       24037.49      -10121.125      1440.1162    
    189000   189000         301.34252     -802.09531      28.875982      28.875982      28.875982      1.0070793      24077.438     -10220.141      1441.6829    
    190000   190000         304.29281     -457.58486      28.807927      28.807927      28.807927      1.0142334      23907.603     -10224.063      1455.7977    
    191000   191000         292.47468      722.27662      28.88296       28.88296       28.88296       1.0063496      24094.897     -10218.552      1399.2574    
    192000   192000         299.35172      51.692217      28.923901      28.923901      28.923901      1.0020822      24197.506     -10271.353      1432.1585    
    193000   193000         298.80539      212.42638      28.968218      28.968218      28.968218      0.99749014     24308.902     -10238.988      1429.5448    
    194000   194000         299.71082      534.18384      28.782426      28.782426      28.782426      1.0169316      23844.17      -10252.66       1433.8766    
    195000   195000         301.49491     -312.25513      28.944534      28.944534      28.944534      0.99994074     24249.327     -10166.298      1442.412     
    196000   196000         302.67946     -141.90462      29.071033      29.071033      29.071033      0.98694411     24568.656     -10087.506      1448.0791    
    197000   197000         299.81431      24.402905      28.960773      28.960773      28.960773      0.99825959     24290.165     -10177.085      1434.3717    
    198000   198000         295.42611      329.12346      28.995262      28.995262      28.995262      0.99470162     24377.049     -10192.472      1413.3777    
    199000   199000         313.37863      443.75078      28.969734      28.969734      28.969734      0.99733355     24312.719     -10245.879      1499.2661    
    200000   200000         301.4966      -591.21639      28.913507      28.913507      28.913507      1.0031633      24171.428     -10166.531      1442.4201    
    201000   201000         303.93846     -1268.1838      28.971177      28.971177      28.971177      0.99718457     24316.351     -10211.573      1454.1024    
    202000   202000         290.22279      204.06046      28.971495      28.971495      28.971495      0.99715172     24317.152     -10217.177      1388.4839    
    203000   203000         296.91724     -350.26618      28.876685      28.876685      28.876685      1.0070057      24079.198     -10185.5        1420.5115    
    204000   204000         301.88114      520.16579      28.957512      28.957512      28.957512      0.99859696     24281.959     -10208.464      1444.2598    
    205000   205000         293.59431     -757.54057      28.935641      28.935641      28.935641      1.000863       24226.982     -10193.591      1404.6139    
    206000   206000         295.37232     -223.63401      28.8313        28.8313        28.8313        1.0117688      23965.841     -10121.331      1413.1203    
    207000   207000         298.39476     -319.26182      28.952587      28.952587      28.952587      0.9991066      24269.573     -10079.818      1427.5803    
    208000   208000         294.42401      767.50547      28.901771      28.901771      28.901771      1.0043859      24142.006     -10168.967      1408.5834    
    209000   209000         292.94486      136.78926      28.84598       28.84598       28.84598       1.0102249      24002.467     -10155.134      1401.5068    
    210000   210000         301.13997      382.51511      28.748573      28.748573      28.748573      1.0205284      23760.133     -10222.459      1440.7139    
    211000   211000         309.50571     -583.38057      28.949974      28.949974      28.949974      0.99937716     24263.002     -10166.674      1480.7373    
    212000   212000         297.9353       155.6787       28.778164      28.778164      28.778164      1.0173835      23833.578     -10266.959      1425.3821    
    213000   213000         295.88184     -54.723757      28.838004      28.838004      28.838004      1.0110633      23982.564     -10228.914      1415.5579    
    214000   214000         289.56136      162.85912      28.757547      28.757547      28.757547      1.0195733      23782.39      -10254.335      1385.3195    
    215000   215000         296.16232      862.16552      29.061326      29.061326      29.061326      0.9879334      24544.053     -10209.353      1416.8998    
    216000   216000         302.57022      337.68261      28.896741      28.896741      28.896741      1.0049104      24129.404     -10154.661      1447.5565    
    217000   217000         292.96833     -421.05091      28.887139      28.887139      28.887139      1.0059129      24105.358     -10176.268      1401.6191    
    218000   218000         295.86027     -19.311059      28.883082      28.883082      28.883082      1.0063369      24095.202     -10242.44       1415.4547    
    219000   219000         283.1574      -18.461147      28.849709      28.849709      28.849709      1.0098332      24011.776     -10246.706      1354.6817    
    220000   220000         289.98428     -306.41963      29.011635      29.011635      29.011635      0.99301854     24418.366     -10123.029      1387.3428    
    221000   221000         292.73544     -46.330481      28.982267      28.982267      28.982267      0.99604031     24344.286     -10153.73       1400.5049    
    222000   222000         297.46172     -536.1443       28.825842      28.825842      28.825842      1.0123436      23952.233     -10157.995      1423.1164    
    223000   223000         298.9065       21.206218      28.802089      28.802089      28.802089      1.0148503      23893.071     -10218.076      1430.0285    
    224000   224000         300.51287      219.10647      28.812713      28.812713      28.812713      1.0137281      23919.52      -10137.817      1437.7137    
    225000   225000         301.82545      343.49087      29.002753      29.002753      29.002753      0.99393107     24395.947     -10150.509      1443.9934    
    226000   226000         300.93814      1.2321163      28.854689      28.854689      28.854689      1.0093104      24024.214     -10220.851      1439.7483    
    227000   227000         292.8131      -23.641174      28.767298      28.767298      28.767298      1.0185369      23806.59      -10245.59       1400.8764    
    228000   228000         306.57133     -156.37661      28.84125       28.84125       28.84125       1.010722       23990.661     -10238.086      1466.6986    
    229000   229000         301.37533      1040.3178      28.85942       28.85942       28.85942       1.0088142      24036.032     -10156.014      1441.8399    
    230000   230000         302.44381      385.33927      28.789057      28.789057      28.789057      1.0162291      23860.652     -10241.355      1446.9517    
    231000   231000         286.55235     -490.12312      28.957102      28.957102      28.957102      0.99863931     24280.929     -10157.304      1370.9238    
    232000   232000         299.22942     -838.03457      28.919284      28.919284      28.919284      1.0025623      24185.919     -10182.096      1431.5734    
    233000   233000         293.87792     -32.197018      28.861401      28.861401      28.861401      1.0086064      24040.984     -10176.5        1405.9708    
    234000   234000         294.09944      75.448751      28.885478      28.885478      28.885478      1.0060864      24101.201     -10209.877      1407.0306    
    235000   235000         293.09756     -145.86216      28.93135       28.93135       28.93135       1.0013084      24216.206     -10235.575      1402.2374    
    236000   236000         301.299       -177.51355      28.843928      28.843928      28.843928      1.0104405      23997.345     -10195.746      1441.4747    
    237000   237000         302.24034     -83.286664      28.98754       28.98754       28.98754       0.99549686     24357.576     -10152.784      1445.9783    
    238000   238000         305.39987     -41.711758      28.891721      28.891721      28.891721      1.0054343      24116.831     -10193.34       1461.0941    
    239000   239000         301.35762     -822.13894      29.062177      29.062177      29.062177      0.98784662     24546.209     -10186.493      1441.7551    
    240000   240000         304.23634     -429.84865      28.940793      28.940793      28.940793      1.0003286      24239.925     -10199.318      1455.5275    
    241000   241000         301.31417      438.86268      28.849628      28.849628      28.849628      1.0098417      24011.574     -10156.111      1441.5473    
    242000   242000         301.47219      1029.1933      28.692341      28.692341      28.692341      1.0265403      23620.981     -10176.449      1442.3033    
    243000   243000         291.71185     -276.84962      28.88672       28.88672       28.88672       1.0059566      24104.31      -10194.367      1395.6079    
    244000   244000         309.6414      -290.59619      28.776548      28.776548      28.776548      1.017555       23829.562     -10199.835      1481.3864    
    245000   245000         296.44603      712.00414      28.830804      28.830804      28.830804      1.0118211      23964.603     -10259.289      1418.2571    
    246000   246000         298.05986      455.44902      28.868554      28.868554      28.868554      1.0078569      24058.863     -10130.214      1425.978     
    247000   247000         300.28265      827.47971      28.779732      28.779732      28.779732      1.0172172      23837.475     -10228.989      1436.6123    
    248000   248000         293.63955      170.94576      28.754471      28.754471      28.754471      1.0199005      23774.76      -10228.436      1404.8304    
    249000   249000         295.01305      39.852866      28.811643      28.811643      28.811643      1.0138411      23916.854     -10178.183      1411.4015    
    250000   250000         299.51301      379.79292      28.688459      28.688459      28.688459      1.0269571      23611.395     -10274.554      1432.9302    
    251000   251000         288.7452       670.45368      28.755061      28.755061      28.755061      1.0198377      23776.225     -10280.514      1381.4148    
    252000   252000         295.23532      101.5043       28.849608      28.849608      28.849608      1.0098438      24011.526     -10221.293      1412.4648    
    253000   253000         291.78246      378.19602      28.773854      28.773854      28.773854      1.0178408      23822.871     -10285.59       1395.9457    
    254000   254000         292.34039      193.14291      28.81374       28.81374       28.81374       1.0136197      23922.078     -10238.923      1398.6149    
    255000   255000         303.04678     -92.569757      28.886088      28.886088      28.886088      1.0060226      24102.728     -10278.813      1449.8364    
    256000   256000         293.71294     -326.96904      28.803813      28.803813      28.803813      1.0146681      23897.362     -10203.733      1405.1815    
    257000   257000         295.03482     -716.84005      28.928814      28.928814      28.928814      1.0015718      24209.838     -10217.199      1411.5056    
    258000   258000         307.23085     -49.224852      29.02465       29.02465       29.02465       0.99168321     24451.246     -10072.735      1469.8539    
    259000   259000         309.23749     -25.54843       28.948309      28.948309      28.948309      0.99954963     24258.815     -10153.25       1479.454     
    260000   260000         306.21015     -565.80651      28.925953      28.925953      28.925953      1.0018689      24202.657     -10236.878      1464.9707    
    261000   261000         295.37148     -262.29139      28.907246      28.907246      28.907246      1.0038153      24155.73      -10184.803      1413.1163    
    262000   262000         282.91799     -849.81557      28.942364      28.942364      28.942364      1.0001657      24243.872     -10200.571      1353.5363    
    263000   263000         296.69664      644.72605      28.89988       28.89988       28.89988       1.0045831      24137.268     -10212.355      1419.4561    
    264000   264000         297.33158     -315.08383      28.871059      28.871059      28.871059      1.0075945      24065.127     -10288.149      1422.4938    
    265000   265000         296.40558     -246.87016      28.834495      28.834495      28.834495      1.0114325      23973.81      -10244.27       1418.0636    
    266000   266000         303.82542     -275.09087      28.732866      28.732866      28.732866      1.0222029      23721.211     -10231.637      1453.5616    
    267000   267000         293.17141     -181.08771      28.757159      28.757159      28.757159      1.0196146      23781.427     -10150.744      1402.5907    
    268000   268000         300.91232     -254.6796       28.945716      28.945716      28.945716      0.9998183      24252.297     -10211.648      1439.6247    
    269000   269000         290.57867     -587.28685      28.922338      28.922338      28.922338      1.0022447      24193.583     -10200.455      1390.1865    
    270000   270000         291.52052     -27.972666      28.768829      28.768829      28.768829      1.0183742      23810.393     -10190.624      1394.6925    
    271000   271000         299.03623     -482.42853      28.950639      28.950639      28.950639      0.99930831     24264.674     -10109.289      1430.6492    
    272000   272000         305.3867       117.44021      28.836438      28.836438      28.836438      1.0112281      23978.655     -10141.835      1461.0311    
    273000   273000         295.32727     -125.24233      29.018967      29.018967      29.018967      0.99226599     24436.885     -10176.151      1412.9048    
    274000   274000         295.66834     -398.8551       28.952099      28.952099      28.952099      0.9991571      24268.346     -10229.249      1414.5365    
    275000   275000         302.22477     -66.579805      28.845634      28.845634      28.845634      1.0102613      24001.604     -10332.649      1445.9038    
    276000   276000         296.56109     -294.86381      28.848428      28.848428      28.848428      1.0099677      24008.58      -10241.85       1418.8076    
    277000   277000         297.74117      218.58754      28.915285      28.915285      28.915285      1.0029783      24175.887     -10206.514      1424.4533    
    278000   278000         303.47598      532.5742       28.949383      28.949383      28.949383      0.99943842     24261.515     -10191.986      1451.8898    
    279000   279000         305.61579     -292.19968      29.057686      29.057686      29.057686      0.98830477     24534.831     -10133.186      1462.1271    
    280000   280000         286.39161     -26.187992      28.931374      28.931374      28.931374      1.0013059      24216.267     -10132.365      1370.1548    
    281000   281000         283.51002      87.471461      28.758149      28.758149      28.758149      1.0195093      23783.884     -10138.057      1356.3687    
    282000   282000         297.46365      274.47358      28.79246       28.79246       28.79246       1.0158689      23869.114     -10171.592      1423.1256    
    283000   283000         304.91283     -214.45274      28.758755      28.758755      28.758755      1.0194448      23785.389     -10185.6        1458.764     
    284000   284000         284.71306      50.452435      28.976524      28.976524      28.976524      0.99663259     24329.818     -10171.322      1362.1243    
    285000   285000         297.63886     -385.88709      28.882304      28.882304      28.882304      1.0064181      24093.257     -10255.499      1423.9639    
    286000   286000         300.90486     -524.09496      28.951454      28.951454      28.951454      0.99922393     24266.723     -10169.645      1439.5891    
    287000   287000         293.53437     -528.75888      29.019841      29.019841      29.019841      0.99217631     24439.094     -10144.524      1404.3272    
    288000   288000         307.89419      114.97925      28.992674      28.992674      28.992674      0.99496808     24370.521     -10252.487      1473.0274    
    289000   289000         289.70202     -409.45174      28.948619      28.948619      28.948619      0.9995175      24259.595     -10171.497      1385.9924    
    290000   290000         307.47285     -325.52974      28.916229      28.916229      28.916229      1.00288        24178.257     -10183.489      1471.0116    
    291000   291000         302.80853     -60.237751      28.84605       28.84605       28.84605       1.0102175      24002.642     -10224.261      1448.6966    
    292000   292000         310.19824     -646.83023      29.072926      29.072926      29.072926      0.98675133     24573.456     -10101.073      1484.0505    
    293000   293000         294.48303      654.01338      28.960344      28.960344      28.960344      0.99830403     24289.084     -10158.594      1408.8657    
    294000   294000         290.22221      433.66726      28.94572       28.94572       28.94572       0.99981782     24252.308     -10242.544      1388.4811    
    295000   295000         299.64934     -34.866419      29.014994      29.014994      29.014994      0.9926737      24426.848     -10221.935      1433.5824    
    296000   296000         300.50765     -464.26232      28.883484      28.883484      28.883484      1.0062947      24096.211     -10210.581      1437.6888    
    297000   297000         297.64572     -136.39814      28.78147       28.78147       28.78147       1.017033       23841.792     -10276.192      1423.9967    
    298000   298000         299.30075     -731.72654      28.940926      28.940926      28.940926      1.0003148      24240.26      -10246.99       1431.9147    
    299000   299000         289.48416      471.08102      28.729381      28.729381      28.729381      1.022575       23712.579     -10225.143      1384.9502    
    300000   300000         300.16591      642.73562      28.80043       28.80043       28.80043       1.0150257      23888.943     -10224.6        1436.0538    
    301000   301000         287.01662     -223.22284      29.001207      29.001207      29.001207      0.99409011     24392.044     -10143.948      1373.145     
    302000   302000         297.75475     -317.45878      28.927478      28.927478      28.927478      1.0017105      24206.484     -10229.852      1424.5183    
    303000   303000         293.50077     -522.47868      29.03574       29.03574       29.03574       0.99054743     24479.282     -10095.01       1404.1664    
    304000   304000         302.22317     -78.186327      28.949448      28.949448      28.949448      0.99943162     24261.68      -10114.562      1445.8961    
    305000   305000         304.41967      36.231338      28.911135      28.911135      28.911135      1.0034102      24165.481     -10165.023      1456.4046    
    306000   306000         294.06273      338.02662      28.891728      28.891728      28.891728      1.0054337      24116.847     -10177.399      1406.8549    
    307000   307000         297.24292      453.08309      28.936918      28.936918      28.936918      1.0007305      24230.191     -10148.228      1422.0696    
    308000   308000         296.94517     -439.44625      28.921934      28.921934      28.921934      1.0022867      24192.57      -10181.951      1420.6451    
    309000   309000         314.33111     -862.78058      29.066652      29.066652      29.066652      0.98739041     24557.551     -10164.781      1503.8229    
    310000   310000         302.42981      205.15183      28.962166      28.962166      28.962166      0.9981156      24293.669     -10235.502      1446.8848    
    311000   311000         299.18489      5.9297908      29.059707      29.059707      29.059707      0.9880985      24539.952     -10200.217      1431.3604    
    312000   312000         300.7287       220.08811      28.919385      28.919385      28.919385      1.0025517      24186.173     -10137.397      1438.7463    
    313000   313000         295.93446      275.64148      28.872564      28.872564      28.872564      1.007437       24068.89      -10196.293      1415.8097    
    314000   314000         300.95717      710.5378       28.899569      28.899569      28.899569      1.0046154      24136.489     -10174.798      1439.8394    
    315000   315000         301.79627      502.73302      28.729316      28.729316      28.729316      1.0225819      23712.419     -10199.142      1443.8537    
    316000   316000         308.07004     -501.02833      28.907629      28.907629      28.907629      1.0037753      24156.69      -10122.652      1473.8687    
    317000   317000         290.96008     -383.66399      28.877901      28.877901      28.877901      1.0068785      24082.239     -10118.323      1392.0112    
    318000   318000         308.56701      78.563217      28.821804      28.821804      28.821804      1.0127691      23942.17      -10209.007      1476.2463    
    319000   319000         304.26598      91.229712      28.910721      28.910721      28.910721      1.0034534      24164.441     -10117.273      1455.6694    
    320000   320000         301.10028     -321.45724      28.862745      28.862745      28.862745      1.0084655      24044.343     -10249.176      1440.524     
    321000   321000         302.92787      1019.5363      28.801284      28.801284      28.801284      1.0149354      23891.068     -10159.126      1449.2676    
    322000   322000         292.7609       440.67686      28.966189      28.966189      28.966189      0.99769977     24303.794     -10201.667      1400.6267    
    323000   323000         303.10913     -615.85592      29.06415       29.06415       29.06415       0.98764545     24551.209     -10178.166      1450.1347    
    324000   324000         312.31017     -392.23849      29.05495       29.05495       29.05495       0.98858399     24527.901     -10177.561      1494.1544    
    325000   325000         299.53471      985.98684      28.918301      28.918301      28.918301      1.0026645      24183.452     -10180.358      1433.034     
    326000   326000         297.05244     -227.43883      28.945208      28.945208      28.945208      0.99987093     24251.02      -10204.366      1421.1583    
    327000   327000         305.27241      731.17133      28.906699      28.906699      28.906699      1.0038723      24154.357     -10156.787      1460.4843    
    328000   328000         289.87992      666.81276      28.814902      28.814902      28.814902      1.0134971      23924.973     -10136.908      1386.8435    
    329000   329000         309.06083      59.908795      28.898965      28.898965      28.898965      1.0046784      24134.977     -10203.414      1478.6089    
    330000   330000         307.74102     -267.14326      28.701314      28.701314      28.701314      1.0255778      23643.149     -10155.293      1472.2946    
    331000   331000         301.30801      324.08972      28.945218      28.945218      28.945218      0.99986987     24251.046     -10206.139      1441.5178    
    332000   332000         300.74628      567.8827       28.916719      28.916719      28.916719      1.0028291      24179.484     -10178.638      1438.8304    
    333000   333000         293.47954      316.09705      28.984168      28.984168      28.984168      0.99584425     24349.079     -10139.997      1404.0648    
    334000   334000         308.28286     -229.66092      29.02779       29.02779       29.02779       0.99136148     24459.181     -10150.979      1474.8869    
    335000   335000         292.9046       509.30224      28.912071      28.912071      28.912071      1.0033128      24167.828     -10173.602      1401.3142    
    336000   336000         299.19582      134.77531      28.841701      28.841701      28.841701      1.0106745      23991.789     -10233.758      1431.4127    
    337000   337000         290.88679     -538.59432      28.848727      28.848727      28.848727      1.0099363      24009.326     -10224.815      1391.6606    
    338000   338000         298.33537      266.92903      28.786073      28.786073      28.786073      1.0165452      23853.234     -10128.25       1427.2961    
    339000   339000         305.94734      197.14787      28.822746      28.822746      28.822746      1.0126699      23944.515     -10211.256      1463.7133    
    340000   340000         286.6248      -111.58433      28.867274      28.867274      28.867274      1.0079909      24055.663     -10186.95       1371.2704    
    341000   341000         297.25649      456.25713      28.943418      28.943418      28.943418      1.0000564      24246.523     -10177.192      1422.1346    
    342000   342000         298.43102      402.35191      28.96731       28.96731       28.96731       0.99758396     24306.616     -10131.214      1427.7537    
    343000   343000         297.42141      380.73627      29.056468      29.056468      29.056468      0.98842903     24531.746     -10162.168      1422.9236    
    344000   344000         296.17762      127.38407      29.048315      29.048315      29.048315      0.98926155     24511.101     -10098.601      1416.973     
    345000   345000         298.24833     -380.54352      28.987755      28.987755      28.987755      0.99547467     24358.119     -10041.997      1426.8797    
    346000   346000         301.5952      -1300.1127      29.134539      29.134539      29.134539      0.98050435     24730.018     -10158.867      1442.8918    
    347000   347000         299.3762      -626.44766      28.924931      28.924931      28.924931      1.0019752      24200.091     -10183.007      1432.2757    
    348000   348000         306.18508      287.19802      28.831196      28.831196      28.831196      1.0117798      23965.581     -10144.459      1464.8507    
    349000   349000         292.36764     -527.58427      28.977898      28.977898      28.977898      0.99649082     24333.28      -10192.369      1398.7453    
    350000   350000         291.54214     -307.63807      28.886963      28.886963      28.886963      1.0059312      24104.918     -10210.302      1394.7959    
    351000   351000         300.91611     -264.3833       28.958234      28.958234      28.958234      0.99852224     24283.776     -10197.481      1439.6429    
    352000   352000         293.73746     -323.42308      29.05111       29.05111       29.05111       0.98897606     24518.177     -10138.121      1405.2988    
    353000   353000         298.38528      65.789468      28.897599      28.897599      28.897599      1.004821       24131.553     -10212.809      1427.5349    
    354000   354000         307.0772       185.98991      29.123004      29.123004      29.123004      0.98166984     24700.657     -10183.632      1469.1188    
    355000   355000         296.80213     -886.13694      29.01552       29.01552       29.01552       0.99261972     24428.177     -10109.953      1419.9608    
    356000   356000         298.28905     -1012.2548      28.8199        28.8199        28.8199        1.0129699      23937.424     -10310.487      1427.0745    
    357000   357000         294.56469     -594.23555      28.851377      28.851377      28.851377      1.0096581      24015.942     -10205.89       1409.2564    
    358000   358000         300.77425     -438.34387      28.941785      28.941785      28.941785      1.0002257      24242.417     -10207.631      1438.9642    
    359000   359000         295.31077      129.39778      28.887006      28.887006      28.887006      1.0059267      24105.027     -10115.178      1412.8258    
    360000   360000         292.65551      107.38349      28.884094      28.884094      28.884094      1.006231       24097.736     -10217.519      1400.1225    
    361000   361000         294.33179     -685.69625      29.05793       29.05793       29.05793       0.98827985     24535.449     -10195.353      1408.1422    
    362000   362000         294.86916      19.815823      28.874309      28.874309      28.874309      1.0072543      24073.255     -10236.962      1410.7131    
    363000   363000         306.33444     -206.6037       28.900409      28.900409      28.900409      1.0045279      24138.593     -10245.075      1465.5652    
    364000   364000         300.30067     -765.86173      28.983464      28.983464      28.983464      0.99591682     24347.304     -10192.817      1436.6985    
    365000   365000         293.23018     -459.36318      28.901351      28.901351      28.901351      1.0044296      24140.955     -10251.438      1402.8719    
    366000   366000         307.21101     -175.65566      28.898776      28.898776      28.898776      1.0046981      24134.503     -10203.456      1469.7589    
    367000   367000         299.32183      2.0060784      28.948634      28.948634      28.948634      0.99951592     24259.634     -10227.242      1432.0155    
    368000   368000         291.6858      -949.08083      28.852978      28.852978      28.852978      1.00949        24019.94      -10152.097      1395.4833    
    369000   369000         289.67495     -518.56747      28.940143      28.940143      28.940143      1.000396       24238.292     -10076.14       1385.8629    
    370000   370000         300.71691     -1111.6361      28.882051      28.882051      28.882051      1.0064446      24092.623     -10174.464      1438.6899    
    371000   371000         295.97847     -789.51798      28.817571      28.817571      28.817571      1.0132155      23931.622     -10201.25       1416.0202    
    372000   372000         296.23892     -16.782527      28.821757      28.821757      28.821757      1.0127741      23942.052     -10268.91       1417.2663    
    373000   373000         293.80901      251.62472      28.800163      28.800163      28.800163      1.015054       23888.277     -10176.187      1405.6411    
    374000   374000         293.77019     -468.0435       28.956377      28.956377      28.956377      0.9987143      24279.106     -10195.023      1405.4554    
    375000   375000         293.74248     -606.45969      29.03768       29.03768       29.03768       0.99034882     24484.191     -10201.504      1405.3228    
    376000   376000         295.35491      56.703877      28.943213      28.943213      28.943213      1.0000777      24246.006     -10222.083      1413.037     
    377000   377000         299.67717     -159.36502      29.00318       29.00318       29.00318       0.99388722     24397.024     -10111.686      1433.7156    
    378000   378000         300.15562     -477.79701      28.883719      28.883719      28.883719      1.0062702      24096.798     -10233.043      1436.0046    
    379000   379000         299.18246     -940.23144      28.940783      28.940783      28.940783      1.0003296      24239.9       -10135.059      1431.3488    
    380000   380000         298.8226      -797.9731       28.885372      28.885372      28.885372      1.0060974      24100.936     -10191.072      1429.6271    
    381000   381000         296.76796     -351.57814      28.932265      28.932265      28.932265      1.0012133      24218.505     -10227.702      1419.7973    
    382000   382000         293.18581     -353.84341      28.828265      28.828265      28.828265      1.0120884      23958.273     -10208.116      1402.6596    
    383000   383000         297.90669     -190.53906      28.792137      28.792137      28.792137      1.015903       23868.312     -10226.846      1425.2452    
    384000   384000         301.08683     -116.69919      28.829456      28.829456      28.829456      1.011963       23961.242     -10287.576      1440.4597    
    385000   385000         291.04869     -429.03661      28.84348       28.84348       28.84348       1.0104875      23996.229     -10192.406      1392.4352    
    386000   386000         299.90482      1082.3607      28.801511      28.801511      28.801511      1.0149114      23891.632     -10196.222      1434.8047    
    387000   387000         294.04971     -200.87697      28.939734      28.939734      28.939734      1.0004384      24237.264     -10180.617      1406.7927    
    388000   388000         306.53369     -157.80446      28.893402      28.893402      28.893402      1.0052589      24121.041     -10195.761      1466.5185    
    389000   389000         305.81902      368.20342      28.933233      28.933233      28.933233      1.0011129      24220.934     -10248.6        1463.0994    
    390000   390000         301.31697     -49.007911      29.03704       29.03704       29.03704       0.99041433     24482.572     -10118.487      1441.5607    
    391000   391000         294.07493     -389.52332      29.022697      29.022697      29.022697      0.99188342     24446.311     -10191.512      1406.9133    
    392000   392000         285.31789      38.551431      28.905396      28.905396      28.905396      1.004008       24151.092     -10209.996      1365.0179    
    393000   393000         294.11396      177.11694      28.796954      28.796954      28.796954      1.0153933      23880.293     -10182.281      1407.1       
    394000   394000         294.62708     -110.27613      28.987647      28.987647      28.987647      0.99548582     24357.846     -10119.471      1409.5549    
    395000   395000         306.35939     -299.41587      28.854885      28.854885      28.854885      1.0092898      24024.705     -10294.243      1465.6846    
    396000   396000         289.10577     -122.03224      28.827488      28.827488      28.827488      1.0121702      23956.337     -10225.263      1383.1399    
    397000   397000         302.78811      7.8246892      28.854004      28.854004      28.854004      1.0093823      24022.503     -10240.11       1448.5989    
    398000   398000         295.0843       28.813717      29.024457      29.024457      29.024457      0.99170304     24450.757     -10268.349      1411.7423    
    399000   399000         299.02029     -383.49008      28.818509      28.818509      28.818509      1.0131166      23933.958     -10247.884      1430.5729    
    400000   400000         301.00006     -104.42759      28.955831      28.955831      28.955831      0.99877083     24277.732     -10166.732      1440.0445    
    401000   401000         301.3515      -78.048822      28.937775      28.937775      28.937775      1.0006416      24232.343     -10164.872      1441.7259    
    402000   402000         288.94117      7.7733676      28.833956      28.833956      28.833956      1.0114892      23972.466     -10203.026      1382.3524    
    403000   403000         299.08334     -73.584864      28.895126      28.895126      28.895126      1.005079       24125.358     -10197.132      1430.8745    
    404000   404000         312.75768     -1218.9217      28.829212      28.829212      28.829212      1.0119886      23960.635     -10267.877      1496.2953    
    405000   405000         291.95033      1027.109       28.730282      28.730282      28.730282      1.0224788      23714.811     -10215.308      1396.7488    
    406000   406000         302.30215      319.22793      28.928329      28.928329      28.928329      1.0016221      24208.621     -10213.984      1446.274     
    407000   407000         289.99673     -31.752771      28.899193      28.899193      28.899193      1.0046547      24135.546     -10268.68       1387.4024    
    408000   408000         302.64569      429.52688      28.70193       28.70193       28.70193       1.0255118      23644.672     -10216.421      1447.9175    
    409000   409000         296.35121      322.33092      28.840681      28.840681      28.840681      1.0107818      23989.242     -10214.59       1417.8035    
    410000   410000         291.30694     -57.647913      28.799622      28.799622      28.799622      1.0151111      23886.932     -10137.331      1393.6707    
    411000   411000         292.52135     -264.43817      28.900612      28.900612      28.900612      1.0045067      24139.102     -10097.566      1399.4807    
    412000   412000         298.15734      79.435221      28.870467      28.870467      28.870467      1.0076565      24063.646     -10166.137      1426.4444    
    413000   413000         306.35044      258.94583      28.928324      28.928324      28.928324      1.0016226      24208.609     -10238.274      1465.6418    
    414000   414000         304.14286     -715.73601      28.936653      28.936653      28.936653      1.000758       24229.525     -10209.508      1455.0803    
    415000   415000         291.82192     -22.421738      29.030157      29.030157      29.030157      0.99111896     24465.166     -10142.693      1396.1344    
    416000   416000         302.98186      502.61319      28.875806      28.875806      28.875806      1.0070977      24077         -10245.367      1449.5259    
    417000   417000         298.76541      217.21443      28.956022      28.956022      28.956022      0.99875109     24278.211     -10228.289      1429.3535    
    418000   418000         312.15552      31.922444      28.909162      28.909162      28.909162      1.0036157      24160.534     -10180.848      1493.4145    
    419000   419000         298.69818     -429.86581      28.837049      28.837049      28.837049      1.0111638      23980.181     -10174.597      1429.0319    
    420000   420000         308.72863      409.2511       28.826819      28.826819      28.826819      1.0122407      23954.667     -10127.999      1477.0196    
    421000   421000         296.62611     -199.13957      28.853951      28.853951      28.853951      1.0093879      24022.371     -10183.613      1419.1187    
    422000   422000         296.53217      480.72199      28.905799      28.905799      28.905799      1.0039661      24152.101     -10271.231      1418.6692    
    423000   423000         295.82755     -695.7744       28.928326      28.928326      28.928326      1.0016224      24208.614     -10333.668      1415.2982    
    424000   424000         298.65327      186.2546       28.821047      28.821047      28.821047      1.012849       23940.282     -10232.172      1428.817     
    425000   425000         300.5677      -350.38065      29.022232      29.022232      29.022232      0.99193116     24445.134     -10095.432      1437.976     
    426000   426000         311.54154     -249.99988      28.826153      28.826153      28.826153      1.0123108      23953.009     -10152.25       1490.4771    
    427000   427000         286.78204      414.2131       28.707023      28.707023      28.707023      1.024966       23657.262     -10200.038      1372.0227    
    428000   428000         285.26726      431.14925      28.844524      28.844524      28.844524      1.0103778      23998.834     -10147.25       1364.7756    
    429000   429000         293.27381      473.88809      28.757635      28.757635      28.757635      1.0195639      23782.61      -10243.267      1403.0806    
    430000   430000         296.61006     -608.74686      28.961631      28.961631      28.961631      0.99817086     24292.324     -10197.552      1419.0419    
    431000   431000         290.11955     -352.31152      28.98261       28.98261       28.98261       0.99600494     24345.151     -10247.571      1387.99      
    432000   432000         299.19674     -87.084925      29.031743      29.031743      29.031743      0.99095659     24469.175     -10152.941      1431.4171    
    433000   433000         304.16559      156.09202      29.039837      29.039837      29.039837      0.99012817     24489.648     -10158.018      1455.1891    
    434000   434000         302.99994     -320.40292      29.030834      29.030834      29.030834      0.99104967     24466.877     -10260.54       1449.6123    
    435000   435000         297.43198      481.66311      28.991335      28.991335      28.991335      0.9951059      24367.145     -10259.059      1422.9741    
    436000   436000         300.1582       206.07297      29.08425       29.08425       29.08425       0.98559918     24602.182     -10254.064      1436.0169    
    437000   437000         306.81738      19.056508      28.987595      28.987595      28.987595      0.99549115     24357.715     -10230.173      1467.8757    
    438000   438000         297.89693     -463.43266      28.84381       28.84381       28.84381       1.0104529      23997.051     -10198.11       1425.1986    
    439000   439000         297.58173     -692.50904      28.865069      28.865069      28.865069      1.0082219      24050.151     -10265.724      1423.6905    
    440000   440000         300.06155     -273.78696      28.794838      28.794838      28.794838      1.0156171      23875.03      -10180.045      1435.5545    
    441000   441000         287.76738     -153.48142      28.942007      28.942007      28.942007      1.0002027      24242.975     -10214.227      1376.7368    
    442000   442000         303.61975      716.1087       28.741988      28.741988      28.741988      1.0212299      23743.811     -10240.335      1452.5777    
    443000   443000         299.68522      147.19196      28.762405      28.762405      28.762405      1.0190568      23794.445     -10188.824      1433.7541    
    444000   444000         296.35059      691.16851      28.636383      28.636383      28.636383      1.03257        23483.048     -10271.15       1417.8005    
    445000   445000         305.49362      389.32596      28.728148      28.728148      28.728148      1.0227066      23709.528     -10207.532      1461.5426    
    446000   446000         308.04086      870.74726      28.838133      28.838133      28.838133      1.0110497      23982.886     -10218.539      1473.7291    
    447000   447000         298.9523       333.29631      28.853542      28.853542      28.853542      1.0094308      24021.349     -10230.102      1430.2476    
    448000   448000         299.42586     -146.08023      29.008936      29.008936      29.008936      0.99329574     24411.551     -10215.736      1432.5132    
    449000   449000         301.70758      729.69733      28.877726      28.877726      28.877726      1.0068968      24081.803     -10149.155      1443.4295    
    450000   450000         299.70724     -110.89051      29.035651      29.035651      29.035651      0.99055651     24479.058     -10239.822      1433.8594    
    451000   451000         291.34598      250.09886      28.93925       28.93925       28.93925       1.0004886      24236.048     -10173.118      1393.8575    
    452000   452000         294.79871     -228.5866       28.916472      28.916472      28.916472      1.0028547      24178.866     -10211.572      1410.376     
    453000   453000         292.1837      -331.74524      29.005821      29.005821      29.005821      0.99361577     24403.689     -10225.433      1397.8653    
    454000   454000         297.18842      152.94602      28.866518      28.866518      28.866518      1.0080701      24053.773     -10103.955      1421.8089    
    455000   455000         301.3813       662.95291      28.853181      28.853181      28.853181      1.0094687      24020.447     -10167.038      1441.8685    
    456000   456000         293.01519     -540.49081      28.823945      28.823945      28.823945      1.0125435      23947.506     -10233.023      1401.8433    
    457000   457000         299.65951      873.05128      28.748361      28.748361      28.748361      1.0205509      23759.609     -10226.016      1433.6311    
    458000   458000         293.56335     -6.2290185      28.9705        28.9705        28.9705        0.99725448     24314.646     -10287.798      1404.4658    
    459000   459000         289.46086     -616.5307       28.99286       28.99286       28.99286       0.99494893     24370.99      -10189.665      1384.8387    
    460000   460000         308.59124      646.26068      28.943992      28.943992      28.943992      0.9999969      24247.965     -10176.516      1476.3623    
    461000   461000         288.5339      -980.17993      29.021906      29.021906      29.021906      0.99196461     24444.31      -10188.315      1380.4039    
    462000   462000         299.81393      1090.6881      28.811806      28.811806      28.811806      1.0138239      23917.261     -10205.158      1434.3698    
    463000   463000         295.15413     -91.961985      28.788591      28.788591      28.788591      1.0162785      23859.494     -10251.445      1412.0764    
    464000   464000         300.2088       768.94052      28.838823      28.838823      28.838823      1.0109772      23984.607     -10305.131      1436.259     
    465000   465000         292.04156     -857.9806       29.012799      29.012799      29.012799      0.99289899     24421.306     -10098.588      1397.1853    
    466000   466000         303.15143     -416.52475      28.880932      28.880932      28.880932      1.0065615      24089.824     -10198.539      1450.3371    
    467000   467000         298.14231      58.187727      28.970229      28.970229      28.970229      0.99728244     24313.965     -10194.402      1426.3725    
    468000   468000         294.39649     -191.43157      28.967272      28.967272      28.967272      0.9975879      24306.52      -10222.019      1408.4517    
    469000   469000         303.67838     -175.62015      29.004638      29.004638      29.004638      0.99373732     24400.704     -10215.232      1452.8582    
    470000   470000         296.7927      -428.72198      28.912463      28.912463      28.912463      1.003272       24168.809     -10248.651      1419.9157    
    471000   471000         299.07445     -351.85027      28.951433      28.951433      28.951433      0.99922612     24266.67      -10130.308      1430.832     
    472000   472000         311.68448      43.782216      28.889463      28.889463      28.889463      1.0056702      24111.176     -10214.524      1491.1609    
    473000   473000         303.16464      768.37647      28.743231      28.743231      28.743231      1.0210975      23746.891     -10228.913      1450.4003    
    474000   474000         293.86161      823.35714      28.805001      28.805001      28.805001      1.0145426      23900.317     -10227.115      1405.8927    
    475000   475000         284.57962      948.03181      28.69872       28.69872       28.69872       1.0258559      23636.74      -10197.806      1361.4859    
    476000   476000         287.31575     -307.14667      28.877182      28.877182      28.877182      1.0069538      24080.44      -10223.766      1374.5761    
    477000   477000         308.39233      176.68746      28.822965      28.822965      28.822965      1.0126468      23945.061     -10227.239      1475.4106    
    478000   478000         289.81329     -482.7087       28.996095      28.996095      28.996095      0.99461595     24379.149     -10170.385      1386.5248    
    479000   479000         301.78876     -194.33707      29.085667      29.085667      29.085667      0.98545517     24605.777     -10170.035      1443.8178    
    480000   480000         294.07777     -744.00151      28.941883      28.941883      28.941883      1.0002155      24242.665     -10193.579      1406.9269    
    481000   481000         305.35187      1.0939124      28.949297      28.949297      28.949297      0.99944724     24261.301     -10232.119      1460.8644    
    482000   482000         293.95516     -1028.067       28.980264      28.980264      28.980264      0.99624682     24339.24      -10225.224      1406.3403    
    483000   483000         284.84595     -268.50137      28.961065      28.961065      28.961065      0.99822943     24290.899     -10208.542      1362.7601    
    484000   484000         308.12975      29.424959      28.808915      28.808915      28.808915      1.0141292      23910.061     -10188.621      1474.1544    
    485000   485000         303.6255      -533.31624      28.884907      28.884907      28.884907      1.0061461      24099.77      -10267.513      1452.6052    
    486000   486000         304.334       -444.03339      28.901249      28.901249      28.901249      1.0044403      24140.698     -10191.441      1455.9947    
    487000   487000         303.1573       407.44737      28.793133      28.793133      28.793133      1.0157976      23870.79      -10202.801      1450.3652    
    488000   488000         295.19418      251.22655      28.930647      28.930647      28.930647      1.0013814      24214.441     -10227.385      1412.268     
    489000   489000         305.70242      527.9328       28.915852      28.915852      28.915852      1.0029192      24177.311     -10200.917      1462.5416    
    490000   490000         302.60619      590.72041      28.819153      28.819153      28.819153      1.0130487      23935.562     -10212.326      1447.7286    
    491000   491000         305.76441      453.44799      28.895899      28.895899      28.895899      1.0049983      24127.295     -10138.311      1462.8381    
    492000   492000         299.97874      352.27146      28.834921      28.834921      28.834921      1.0113877      23974.872     -10151.988      1435.1583    
    493000   493000         294.50561     -431.86882      29.067355      29.067355      29.067355      0.98731884     24559.331     -10206.361      1408.9738    
    494000   494000         296.58815     -128.36232      28.977162      28.977162      28.977162      0.99656683     24331.424     -10223.535      1418.937     
    495000   495000         282.2729      -118.45944      28.951283      28.951283      28.951283      0.99924162     24266.293     -10188.75       1350.45      
    496000   496000         297.88302      365.04769      29.030848      29.030848      29.030848      0.99104823     24466.912     -10203.042      1425.132     
    497000   497000         289.71253     -13.124939      28.944734      28.944734      28.944734      0.99992005     24249.829     -10236.283      1386.0427    
    498000   498000         294.41471     -558.49138      28.982729      28.982729      28.982729      0.99599267     24345.45      -10135.955      1408.5389    
    499000   499000         298.36193     -428.22475      28.825515      28.825515      28.825515      1.0123781      23951.417     -10192.268      1427.4232    
    500000   500000         289.79131      151.71363      28.781178      28.781178      28.781178      1.017064       23841.067     -10224.125      1386.4196    
    501000   501000         295.77311     -498.55915      28.917693      28.917693      28.917693      1.0027277      24181.929     -10167.078      1415.0378    
    502000   502000         292.17513     -490.54286      28.870924      28.870924      28.870924      1.0076087      24064.788     -10176.919      1397.8243    
    503000   503000         301.5615       602.03186      28.779573      28.779573      28.779573      1.0172341      23837.079     -10227.902      1442.7306    
    504000   504000         295.31612     -235.60059      28.930715      28.930715      28.930715      1.0013743      24214.612     -10173.486      1412.8514    
Loop time of 1344.33 on 4 procs for 400000 steps with 2406 atoms

Performance: 25.708 ns/day, 0.934 hours/ns, 297.546 timesteps/s, 715.896 katom-step/s
99.2% CPU use with 4 MPI tasks x no OpenMP threads

MPI task timing breakdown:
Section |  min time  |  avg time  |  max time  |%varavg| %total
---------------------------------------------------------------
Pair    | 884.97     | 902.2      | 918.98     |  54.5 | 67.11
Bond    | 0.036474   | 0.040192   | 0.044493   |   1.8 |  0.00
Kspace  | 223.84     | 240.63     | 257.85     | 105.5 | 17.90
Neigh   | 88.839     | 88.841     | 88.843     |   0.0 |  6.61
Comm    | 28.739     | 28.819     | 28.913     |   1.2 |  2.14
Output  | 0.0046173  | 0.013103   | 0.038493   |  12.8 |  0.00
Modify  | 72.197     | 76.06      | 80.098     |  32.0 |  5.66
Other   |            | 7.718      |            |       |  0.57

Nlocal:          601.5 ave         605 max         598 min
Histogram: 1 0 0 0 1 1 0 0 0 1
Nghost:        10970.5 ave       11027 max       10921 min
Histogram: 1 1 0 0 0 0 0 1 0 1
Neighs:         343136 ave      347759 max      339911 min
Histogram: 1 0 1 0 1 0 0 0 0 1

Total # of neighbors = 1372543
Ave neighs/atom = 570.46675
Ave special neighs/atom = 1.9950125
Neighbor list builds = 18124
Dangerous builds = 0

reset_timestep  0
write_data      result_atoms.eq.data  nofix
System init for write_data ...
PPPM initialization ...
  using 12-bit tables for long-range coulomb
  G vector (1/distance) = 0.25126495
  grid = 20 20 20
  stencil order = 5
  estimated absolute RMS force accuracy = 0.0034969702
  estimated relative force accuracy = 1.0531022e-05
  using double precision KISS FFT
  3d grid and FFT values/proc = 7803 2000
Generated 0 of 6 mixed pair_coeff terms from geometric mixing rule

# =============================================================================
# 生产：继续 NPT 1 ns；500 帧 unwrap 轨迹
# =============================================================================

dump            mydump  all  custom  ${dump_every}                  result_atoms.lammpstrj  id  mol  type  xsu  ysu  zsu
dump            mydump  all  custom  2000                  result_atoms.lammpstrj  id  mol  type  xsu  ysu  zsu
dump_modify     mydump  sort id

run             ${prod_steps}
run             1000000
PPPM initialization ...
  using 12-bit tables for long-range coulomb
  G vector (1/distance) = 0.25126495
  grid = 20 20 20
  stencil order = 5
  estimated absolute RMS force accuracy = 0.0034969702
  estimated relative force accuracy = 1.0531022e-05
  using double precision KISS FFT
  3d grid and FFT values/proc = 7803 2000
Generated 0 of 6 mixed pair_coeff terms from geometric mixing rule
Per MPI rank memory allocation (min/avg/max) = 10.9 | 11.01 | 11.29 Mbytes
   Step          Time           Temp          Press            Lx             Ly             Lz          Density         Volume         PotEng         KinEng    
         0   0              295.31612     -255.75047      28.930715      28.930715      28.930715      1.0013743      24214.612     -10173.474      1412.8514    
      1000   1000           284.10467      71.360719      29.011328      29.011328      29.011328      0.99304998     24417.593     -10171.056      1359.2136    
      2000   2000           296.36535     -56.29202       29.069698      29.069698      29.069698      0.98708012     24565.27      -10111.78       1417.8712    
      3000   3000           304.1526       513.48629      28.830755      28.830755      28.830755      1.0118262      23964.481     -10130.314      1455.1269    
      4000   4000           301.11537      326.58846      28.875323      28.875323      28.875323      1.0071482      24075.791     -10195.668      1440.5962    
      5000   5000           299.39834     -414.46553      28.900014      28.900014      28.900014      1.0045691      24137.603     -10261.921      1432.3816    
      6000   6000           285.80744     -64.954206      28.776989      28.776989      28.776989      1.0175082      23830.658     -10196.172      1367.36      
      7000   7000           299.06082      61.450469      29.0137        29.0137        29.0137        0.99280649     24423.581     -10193.577      1430.7668    
      8000   8000           306.06986     -320.46932      28.909526      28.909526      28.909526      1.0035778      24161.446     -10255.706      1464.2995    
      9000   9000           303.55163     -154.07451      28.88971       28.88971       28.88971       1.0056443      24111.795     -10133.675      1452.2518    
     10000   10000          292.13367     -21.761566      28.88292       28.88292       28.88292       1.0063537      24094.798     -10289.646      1397.6259    
     11000   11000          293.6552       69.76998       28.820337      28.820337      28.820337      1.0129238      23938.513     -10194.157      1404.9053    
     12000   12000          298.13397      1341.6468      28.837678      28.837678      28.837678      1.0110976      23981.749     -10221.738      1426.3326    
     13000   13000          297.52015     -342.67212      28.895383      28.895383      28.895383      1.0050521      24126.003     -10261.374      1423.3959    
     14000   14000          291.27002     -309.9673       29.001805      29.001805      29.001805      0.9940286      24393.554     -10206.588      1393.4941    
     15000   15000          295.86051     -289.93957      28.794895      28.794895      28.794895      1.0156112      23875.171     -10192.827      1415.4559    
     16000   16000          305.11417     -557.78162      28.841053      28.841053      28.841053      1.0107428      23990.169     -10185.987      1459.7273    
     17000   17000          295.8952      -35.795205      28.82573       28.82573       28.82573       1.0123554      23951.953     -10203.991      1415.6219    
     18000   18000          298.54891      132.61956      28.953378      28.953378      28.953378      0.99902467     24271.563     -10150.503      1428.3177    
     19000   19000          289.23005     -393.06788      28.933624      28.933624      28.933624      1.0010723      24221.917     -10208.882      1383.7345    
     20000   20000          294.99173      364.19634      28.833132      28.833132      28.833132      1.0115759      23970.411     -10250.738      1411.2995    
     21000   21000          295.01021     -840.99044      28.797182      28.797182      28.797182      1.0153692      23880.86      -10297.784      1411.3879    
     22000   22000          300.19097      265.32715      28.926872      28.926872      28.926872      1.0017735      24204.963     -10169.602      1436.1737    
     23000   23000          305.6885      -689.99596      28.845782      28.845782      28.845782      1.0102457      24001.974     -10242.54       1462.475     
     24000   24000          303.33483      432.41655      28.944755      28.944755      28.944755      0.99991781     24249.883     -10191.132      1451.2145    
     25000   25000          288.77257     -87.96476       29.003307      29.003307      29.003307      0.99387412     24397.345     -10221.672      1381.5458    
     26000   26000          297.39495      306.67709      28.76385       28.76385       28.76385       1.0189032      23798.031     -10288.75       1422.7969    
     27000   27000          301.83763     -67.226521      28.871683      28.871683      28.871683      1.0075292      24066.687     -10191.032      1444.0516    
     28000   28000          291.01796     -42.484511      28.987696      28.987696      28.987696      0.99548069     24357.971     -10216.181      1392.2881    
     29000   29000          298.47685      45.017612      28.980022      28.980022      28.980022      0.99627178     24338.63      -10216.149      1427.973     
     30000   30000          291.41583      22.509573      29.008607      29.008607      29.008607      0.9933295      24410.722     -10204.84       1394.1916    
     31000   31000          300.45931     -578.46696      28.983132      28.983132      28.983132      0.99595108     24346.467     -10228.281      1437.4575    
     32000   32000          297.6185      -233.38066      28.828905      28.828905      28.828905      1.012021       23959.87      -10268.295      1423.8665    
     33000   33000          286.5852      -182.26025      28.821694      28.821694      28.821694      1.0127808      23941.893     -10259.202      1371.0809    
     34000   34000          300.48766      215.93454      28.862678      28.862678      28.862678      1.0084725      24044.176     -10198.328      1437.5931    
     35000   35000          299.52437     -245.16882      28.981265      28.981265      28.981265      0.99614361     24341.761     -10145.525      1432.9845    
     36000   36000          297.27727     -247.30445      28.930836      28.930836      28.930836      1.0013617      24214.916     -10125.336      1422.234     
     37000   37000          300.42159      60.812314      28.832087      28.832087      28.832087      1.0116859      23967.804     -10228.764      1437.277     
     38000   38000          309.58034      116.5027       29.00602       29.00602       29.00602       0.99359534     24404.191     -10147.412      1481.0943    
     39000   39000          299.48334     -361.16054      28.868234      28.868234      28.868234      1.0078904      24058.063     -10207.239      1432.7882    
     40000   40000          294.79014     -1045.4913      28.931217      28.931217      28.931217      1.0013222      24215.873     -10148.557      1410.335     
     41000   41000          304.08459     -136.90248      28.904137      28.904137      28.904137      1.0041393      24147.935     -10132.316      1454.8015    
     42000   42000          299.00762      51.938471      28.944264      28.944264      28.944264      0.99996876     24248.648     -10106.975      1430.5123    
     43000   43000          292.77832     -380.06863      28.854063      28.854063      28.854063      1.0093761      24022.652     -10189.908      1400.7101    
     44000   44000          298.42294      709.16606      28.892092      28.892092      28.892092      1.0053956      24117.76      -10254.916      1427.715     
     45000   45000          298.01319     -149.16241      28.947987      28.947987      28.947987      0.999583       24258.006     -10219.952      1425.7547    
     46000   46000          310.3613       315.01663      28.906329      28.906329      28.906329      1.0039108      24153.432     -10221.574      1484.8306    
     47000   47000          304.68724      745.1442       28.849775      28.849775      28.849775      1.0098263      24011.942     -10211.438      1457.6847    
     48000   48000          298.56322      656.5791       28.872054      28.872054      28.872054      1.0074904      24067.615     -10183.178      1428.3862    
     49000   49000          296.08777      120.62237      28.969926      28.969926      28.969926      0.99731376     24313.201     -10139.161      1416.5432    
     50000   50000          284.59924     -1135.7194      28.981966      28.981966      28.981966      0.99607127     24343.529     -10186.861      1361.5797    
     51000   51000          296.65069     -62.516668      28.841832      28.841832      28.841832      1.0106608      23992.115     -10139.401      1419.2363    
     52000   52000          288.95528      494.03628      28.839874      28.839874      28.839874      1.0108667      23987.229     -10141.524      1382.4199    
     53000   53000          294.84902      354.91066      28.822508      28.822508      28.822508      1.012695       23943.923     -10162.612      1410.6167    
     54000   54000          296.14492      277.17793      28.895414      28.895414      28.895414      1.0050489      24126.079     -10196.324      1416.8166    
     55000   55000          299.5439       793.14254      28.696791      28.696791      28.696791      1.0260628      23631.974     -10151.892      1433.078     
     56000   56000          309.00557      975.70263      28.896993      28.896993      28.896993      1.0048842      24130.035     -10094.793      1478.3445    
     57000   57000          306.1597      -63.543703      28.83218       28.83218       28.83218       1.0116761      23968.037     -10165.661      1464.7293    
     58000   58000          307.08125     -400.33196      29.030706      29.030706      29.030706      0.99106278     24466.553     -10193.376      1469.1382    
     59000   59000          294.96166     -622.45273      28.955016      28.955016      28.955016      0.99885516     24275.682     -10193.76       1411.1556    
     60000   60000          293.48086     -42.903868      28.868283      28.868283      28.868283      1.0078852      24058.186     -10269.4        1404.0712    
     61000   61000          290.42437     -577.60687      28.953684      28.953684      28.953684      0.998993       24272.332     -10203.105      1389.4483    
     62000   62000          306.72268      353.15513      28.863453      28.863453      28.863453      1.0083913      24046.113     -10207.353      1467.4227    
     63000   63000          292.69964      79.626553      28.82967       28.82967       28.82967       1.0119404      23961.776     -10232.226      1400.3337    
     64000   64000          290.9631       57.620212      28.749525      28.749525      28.749525      1.020427       23762.493     -10231.567      1392.0257    
     65000   65000          300.94113      1034.6628      28.911028      28.911028      28.911028      1.0034214      24165.212     -10185.944      1439.7626    
     66000   66000          296.33804      943.87236      28.88766       28.88766       28.88766       1.0058584      24106.663     -10130.19       1417.7405    
     67000   67000          302.47169      185.3047       28.883658      28.883658      28.883658      1.0062765      24096.646     -10248.274      1447.0851    
     68000   68000          292.90058      380.68218      28.934729      28.934729      28.934729      1.0009577      24224.691     -10169.645      1401.295     
     69000   69000          297.93591      551.6448       28.859451      28.859451      28.859451      1.0088109      24036.111     -10159.159      1425.385     
     70000   70000          304.37504      37.370532      28.779299      28.779299      28.779299      1.0172632      23836.398     -10168.671      1456.1911    
     71000   71000          297.0278       705.80741      28.690206      28.690206      28.690206      1.0267695      23615.71      -10229.813      1421.0404    
     72000   72000          290.57429     -421.29417      28.957723      28.957723      28.957723      0.99857511     24282.49      -10211.888      1390.1655    
     73000   73000          302.4362      -431.18087      28.939931      28.939931      28.939931      1.000418       24237.759     -10181.707      1446.9153    
     74000   74000          293.11658      1064.924       28.8109        28.8109        28.8109        1.0139195      23915.005     -10162.571      1402.3284    
     75000   75000          302.20554     -91.660085      28.832853      28.832853      28.832853      1.0116053      23969.715     -10119.731      1445.8118    
     76000   76000          295.70096      840.50197      28.755907      28.755907      28.755907      1.0197477      23778.323     -10153.522      1414.6926    
     77000   77000          299.5007      -669.98616      28.75185       28.75185       28.75185       1.0201794      23768.26      -10206.174      1432.8713    
     78000   78000          309.48162      258.63979      28.846761      28.846761      28.846761      1.0101429      24004.416     -10171.161      1480.622     
     79000   79000          287.17219     -94.975031      28.783622      28.783622      28.783622      1.0168049      23847.142     -10197.545      1373.8892    
     80000   80000          307.73204      6.4839556      28.799675      28.799675      28.799675      1.0151055      23887.064     -10129.51       1472.2516    
     81000   81000          292.02275      58.52116       28.973685      28.973685      28.973685      0.99692565     24322.666     -10078.313      1397.0953    
     82000   82000          295.66025      47.355146      28.875896      28.875896      28.875896      1.0070883      24077.223     -10234.68       1414.4978    
     83000   83000          305.19677     -31.426529      28.87589       28.87589       28.87589       1.007089       24077.208     -10116.801      1460.1224    
     84000   84000          302.65335      383.25298      28.830544      28.830544      28.830544      1.0118484      23963.956     -10201.712      1447.9542    
     85000   85000          305.41538     -432.14933      28.896745      28.896745      28.896745      1.00491        24129.414     -10193.538      1461.1683    
     86000   86000          294.74656     -399.0442       28.945948      28.945948      28.945948      0.99979419     24252.882     -10190.4        1410.1265    
     87000   87000          298.85328     -292.32839      28.861121      28.861121      28.861121      1.0086357      24040.285     -10205.287      1429.7739    
     88000   88000          304.96775     -879.24088      29.040353      29.040353      29.040353      0.99007546     24490.951     -10094.67       1459.0268    
     89000   89000          307.95801     -219.9256       29.010667      29.010667      29.010667      0.99311792     24415.922     -10253.524      1473.3327    
     90000   90000          298.81382      174.52257      29.011023      29.011023      29.011023      0.9930813      24416.823     -10228.249      1429.5851    
     91000   91000          303.73558     -174.12149      28.794785      28.794785      28.794785      1.0156228      23874.898     -10238.786      1453.1318    
     92000   92000          304.56468      20.580876      28.803471      28.803471      28.803471      1.0147042      23896.51      -10208.249      1457.0984    
     93000   93000          302.29565     -489.83003      28.899639      28.899639      28.899639      1.0046082      24136.663     -10220.565      1446.2429    
     94000   94000          304.56305      202.8758       28.841301      28.841301      28.841301      1.0107167      23990.789     -10175.256      1457.0906    
     95000   95000          297.9161      -331.44654      28.958784      28.958784      28.958784      0.99846538     24285.159     -10182.025      1425.2903    
     96000   96000          283.01987     -151.56245      28.961382      28.961382      28.961382      0.99819663     24291.697     -10224.954      1354.0237    
     97000   97000          300.91718      60.575714      28.981754      28.981754      28.981754      0.99609318     24342.994     -10186.95       1439.648     
     98000   98000          289.51531     -276.61243      28.921158      28.921158      28.921158      1.0023673      24190.623     -10165.174      1385.0992    
     99000   99000          301.53654     -464.93891      29.068827      29.068827      29.068827      0.98716879     24563.064     -10208.45       1442.6111    
    100000   100000         297.73616      123.4772       29.035681      29.035681      29.035681      0.99055343     24479.134     -10161.159      1424.4294    
    101000   101000         294.46932     -516.26331      28.970186      28.970186      28.970186      0.99728685     24313.857     -10295.117      1408.8002    
    102000   102000         294.4897       152.3234       28.961158      28.961158      28.961158      0.99821977     24291.134     -10077.033      1408.8977    
    103000   103000         297.58686     -77.485223      29.094876      29.094876      29.094876      0.98451968     24629.157     -10125.342      1423.7151    
    104000   104000         294.23413     -19.289963      28.882683      28.882683      28.882683      1.0063785      24094.204     -10202.229      1407.675     
    105000   105000         291.63945     -161.04067      28.846254      28.846254      28.846254      1.0101961      24003.152     -10178.722      1395.2615    
    106000   106000         300.40672     -803.65833      28.906682      28.906682      28.906682      1.003874       24154.316     -10196.777      1437.2059    
    107000   107000         311.26667     -634.79086      29.002105      29.002105      29.002105      0.99399775     24394.311     -10132.426      1489.162     
    108000   108000         290.59875     -137.32632      28.857872      28.857872      28.857872      1.0089765      24032.165     -10200.465      1390.2826    
    109000   109000         290.42535     -21.600929      28.792839      28.792839      28.792839      1.0158288      23870.056     -10297.009      1389.453     
    110000   110000         301.53858     -253.41863      28.865617      28.865617      28.865617      1.0081645      24051.521     -10265.409      1442.6209    
    111000   111000         298.75466     -189.38881      28.90855       28.90855       28.90855       1.0036794      24158.999     -10205.865      1429.3021    
    112000   112000         294.66657     -140.08489      28.802609      28.802609      28.802609      1.0147954      23894.364     -10229.559      1409.7438    
    113000   113000         303.22282     -67.011187      28.910725      28.910725      28.910725      1.0034529      24164.453     -10160.054      1450.6787    
    114000   114000         292.6286       43.778827      28.906746      28.906746      28.906746      1.0038674      24154.475     -10202.891      1399.9938    
    115000   115000         298.57454     -514.91744      28.897652      28.897652      28.897652      1.0048154      24131.686     -10153.68       1428.4404    
    116000   116000         299.15349     -1197.4011      29.004895      29.004895      29.004895      0.9937109      24401.353     -10170.828      1431.2102    
    117000   117000         290.00123     -76.679674      28.973404      28.973404      28.973404      0.99695457     24321.961     -10173.632      1387.4239    
    118000   118000         299.28356     -149.39168      29.119609      29.119609      29.119609      0.98201324     24692.019     -10234.557      1431.8324    
    119000   119000         298.26301      36.985185      29.118199      29.118199      29.118199      0.98215589     24688.433     -10280.325      1426.9499    
    120000   120000         295.01128      203.50312      28.967269      28.967269      28.967269      0.99758817     24306.513     -10207.386      1411.393     
    121000   121000         305.14204      55.165836      28.814071      28.814071      28.814071      1.0135848      23922.903     -10258.27       1459.8606    
    122000   122000         311.0622       111.6957       28.962401      28.962401      28.962401      0.99809129     24294.261     -10131.756      1488.1838    
    123000   123000         305.22648      432.41085      28.881653      28.881653      28.881653      1.0064862      24091.626     -10200.001      1460.2646    
    124000   124000         308.14606     -379.82307      28.801554      28.801554      28.801554      1.0149069      23891.738     -10255.864      1474.2324    
    125000   125000         303.37879      68.814196      28.815113      28.815113      28.815113      1.0134748      23925.499     -10194.139      1451.4248    
    126000   126000         301.24893      226.17035      28.958458      28.958458      28.958458      0.99849909     24284.339     -10208.45       1441.2352    
    127000   127000         296.47543     -99.161328      28.898506      28.898506      28.898506      1.0047263      24133.825     -10180.516      1418.3978    
    128000   128000         296.97668      160.0881       28.977014      28.977014      28.977014      0.99658206     24331.052     -10143.435      1420.7959    
    129000   129000         302.14076      176.40285      28.866467      28.866467      28.866467      1.0080754      24053.646     -10247.369      1445.5019    
    130000   130000         302.22715     -79.642507      28.91118       28.91118       28.91118       1.0034056      24165.592     -10173.526      1445.9152    
    131000   131000         302.75409      257.27865      28.805499      28.805499      28.805499      1.0144899      23901.559     -10198.234      1448.4362    
    132000   132000         303.73265      213.97177      28.784781      28.784781      28.784781      1.0166821      23850.023     -10236.686      1453.1178    
    133000   133000         303.20477      209.98678      28.923796      28.923796      28.923796      1.0020931      24197.242     -10231.37       1450.5923    
    134000   134000         285.75924     -189.53717      28.88164       28.88164       28.88164       1.0064875      24091.595     -10231.835      1367.1294    
    135000   135000         292.50403      80.905412      28.870653      28.870653      28.870653      1.0076371      24064.111     -10182.29       1399.3978    
    136000   136000         297.4441       1222.5573      28.766493      28.766493      28.766493      1.0186223      23804.594     -10208.46       1423.0321    
    137000   137000         296.87199      420.33332      28.87676       28.87676       28.87676       1.0069979      24079.385     -10183.17       1420.295     
    138000   138000         294.28869     -18.906335      28.955388      28.955388      28.955388      0.99881664     24276.618     -10171.128      1407.936     
    139000   139000         295.78922      275.93494      28.817776      28.817776      28.817776      1.0131939      23932.132     -10287.215      1415.1148    
    140000   140000         302.45562      360.78874      28.834648      28.834648      28.834648      1.0114164      23974.19      -10201.723      1447.0082    
    141000   141000         298.93089     -739.69374      29.040654      29.040654      29.040654      0.9900446      24491.715     -10152.316      1430.1452    
    142000   142000         300.76801      848.56921      28.901708      28.901708      28.901708      1.0043924      24141.848     -10167.993      1438.9344    
    143000   143000         297.73807      165.5048       28.995291      28.995291      28.995291      0.9946987      24377.12      -10208.621      1424.4385    
    144000   144000         290.9743       144.61814      28.871855      28.871855      28.871855      1.0075113      24067.116     -10234.765      1392.0793    
    145000   145000         305.66346      548.79228      28.936468      28.936468      28.936468      1.0007771      24229.061     -10188.534      1462.3552    
    146000   146000         288.3485      -417.83017      28.921639      28.921639      28.921639      1.0023173      24191.83      -10148.443      1379.517     
    147000   147000         298.20726      44.921132      28.880986      28.880986      28.880986      1.0065559      24089.96      -10208.602      1426.6832    
    148000   148000         292.81512     -213.82847      28.827189      28.827189      28.827189      1.0122018      23955.59      -10165.739      1400.8861    
    149000   149000         288.62748      722.36874      28.925534      28.925534      28.925534      1.0019125      24201.604     -10173.832      1380.8516    
    150000   150000         297.4351       844.10494      28.693841      28.693841      28.693841      1.0263793      23624.688     -10178.459      1422.989     
    151000   151000         306.7661       817.3379       28.810083      28.810083      28.810083      1.0140057      23912.971     -10229.773      1467.6304    
    152000   152000         302.37381      106.00036      28.979982      28.979982      28.979982      0.99627584     24338.531     -10254.538      1446.6168    
    153000   153000         300.29677      531.56485      28.797606      28.797606      28.797606      1.0153243      23881.916     -10190.158      1436.6799    
    154000   154000         289.88333      153.68258      28.85901       28.85901       28.85901       1.0088571      24035.009     -10177.739      1386.8599    
    155000   155000         296.25751      321.24344      28.840322      28.840322      28.840322      1.0108196      23988.346     -10250.658      1417.3552    
    156000   156000         289.94063     -185.90841      28.994401      28.994401      28.994401      0.99479029     24374.876     -10168.781      1387.134     
    157000   157000         302.00564      357.52901      28.880812      28.880812      28.880812      1.0065741      24089.523     -10183.516      1444.8554    
    158000   158000         294.6173       504.35286      28.890955      28.890955      28.890955      1.0055143      24114.912     -10091.559      1409.5081    
    159000   159000         288.11585     -1030.5533      28.99016       28.99016       28.99016       0.99522696     24364.181     -10245.44       1378.4039    
    160000   160000         312.58778      107.59198      28.900888      28.900888      28.900888      1.004478       24139.793     -10210.189      1495.4825    
    161000   161000         307.4896      -91.561389      28.79153       28.79153       28.79153       1.0159673      23866.801     -10200.897      1471.0918    
    162000   162000         290.2585      -397.92746      28.864388      28.864388      28.864388      1.0082933      24048.449     -10115.443      1388.6547    
    163000   163000         292.24026     -506.64919      28.91214       28.91214       28.91214       1.0033056      24168         -10143.58       1398.1359    
    164000   164000         293.64865     -224.57523      28.869586      28.869586      28.869586      1.0077488      24061.443     -10205.45       1404.8739    
    165000   165000         303.51087      488.6549       28.777639      28.777639      28.777639      1.0174392      23832.274     -10193.536      1452.0567    
    166000   166000         303.21927      996.79322      28.906427      28.906427      28.906427      1.0039006      24153.676     -10169.438      1450.6617    
    167000   167000         314.36539     -441.39289      28.942719      28.942719      28.942719      1.0001289      24244.765     -10147.058      1503.987     
    168000   168000         300.72252      651.0647       28.732872      28.732872      28.732872      1.0222023      23721.224     -10173.331      1438.7167    
    169000   169000         301.36905     -78.098708      28.847932      28.847932      28.847932      1.0100198      24007.34      -10156.388      1441.8098    
    170000   170000         298.82061      43.264805      28.88973       28.88973       28.88973       1.0056423      24111.844     -10272.973      1429.6176    
    171000   171000         308.27332     -101.14461      28.956642      28.956642      28.956642      0.99868693     24279.771     -10240.622      1474.8413    
    172000   172000         294.76498     -235.68355      28.896208      28.896208      28.896208      1.0049661      24128.068     -10214.605      1410.2147    
    173000   173000         287.76945      433.75581      28.859649      28.859649      28.859649      1.0087901      24036.605     -10170.291      1376.7466    
    174000   174000         292.57485     -439.55695      28.895477      28.895477      28.895477      1.0050424      24126.237     -10236.107      1399.7366    
    175000   175000         294.70043      175.38688      28.835286      28.835286      28.835286      1.0113493      23975.782     -10205.444      1409.9058    
    176000   176000         306.57023      809.0534       28.740936      28.740936      28.740936      1.0213421      23741.202     -10223.013      1466.6934    
    177000   177000         303.91432      579.43002      28.894977      28.894977      28.894977      1.0050944      24124.987     -10244.416      1453.9869    
    178000   178000         306.21086      34.526044      28.969187      28.969187      28.969187      0.99739008     24311.341     -10264.064      1464.9741    
    179000   179000         294.47644      317.16883      28.968269      28.968269      28.968269      0.99748488     24309.03      -10213.352      1408.8342    
    180000   180000         300.04712      537.3781       28.83653       28.83653       28.83653       1.0112184      23978.885     -10184.798      1435.4855    
    181000   181000         293.20699     -160.65859      28.979877      28.979877      28.979877      0.99628672     24338.265     -10198.706      1402.7609    
    182000   182000         305.76145      687.71076      28.960248      28.960248      28.960248      0.99831387     24288.844     -10227.141      1462.824     
    183000   183000         298.8658      -137.25767      28.991369      28.991369      28.991369      0.99510242     24367.231     -10183.039      1429.8338    
    184000   184000         289.24437     -299.45833      28.941833      28.941833      28.941833      1.0002207      24242.539     -10212.456      1383.803     
    185000   185000         294.12655      710.05336      28.899992      28.899992      28.899992      1.0045713      24137.549     -10168.003      1407.1603    
    186000   186000         301.57564      318.49033      28.744017      28.744017      28.744017      1.0210137      23748.839     -10187.16       1442.7982    
    187000   187000         304.4109      -17.921406      28.852655      28.852655      28.852655      1.0095239      24019.133     -10231.8        1456.3627    
    188000   188000         291.71285      230.01181      28.835161      28.835161      28.835161      1.0113625      23975.47      -10182.053      1395.6127    
    189000   189000         301.60911     -843.76553      28.824886      28.824886      28.824886      1.0124443      23949.851     -10133.889      1442.9584    
    190000   190000         291.57569      193.38891      28.940907      28.940907      28.940907      1.0003167      24240.213     -10102.398      1394.9564    
    191000   191000         293.88429      410.95722      28.911099      28.911099      28.911099      1.003414       24165.39      -10144.783      1406.0013    
    192000   192000         302.36756      111.54653      28.950307      28.950307      28.950307      0.99934271     24263.839     -10160.066      1446.5869    
    193000   193000         305.35909     -927.25475      29.011958      29.011958      29.011958      0.99298537     24419.182     -10176.88       1460.899     
    194000   194000         290.90258     -36.370155      28.930853      28.930853      28.930853      1.00136        24214.957     -10159.624      1391.7362    
    195000   195000         299.32696      296.32866      28.880047      28.880047      28.880047      1.0066541      24087.608     -10142.311      1432.0401    
    196000   196000         300.05671     -499.30792      28.891522      28.891522      28.891522      1.0054551      24116.334     -10186.656      1435.5313    
    197000   197000         305.78637     -1089.7407      28.971437      28.971437      28.971437      0.99715767     24317.007     -10172.21       1462.9432    
    198000   198000         289.41951      614.24247      28.862306      28.862306      28.862306      1.0085115      24043.246     -10270.363      1384.6409    
    199000   199000         291.20229     -180.50229      28.877399      28.877399      28.877399      1.006931       24080.985     -10190.48       1393.17      
    200000   200000         297.23129     -211.16204      28.958282      28.958282      28.958282      0.99851722     24283.898     -10164.14       1422.014     
    201000   201000         303.99246      64.065088      28.900911      28.900911      28.900911      1.0044756      24139.85      -10184.405      1454.3608    
    202000   202000         291.10948     -1009.6415      29.183407      29.183407      29.183407      0.97558695     24854.668     -10158.22       1392.726     
    203000   203000         297.91716     -569.50619      28.855985      28.855985      28.855985      1.0091745      24027.451     -10214.629      1425.2953    
    204000   204000         298.93323      283.15437      28.945088      28.945088      28.945088      0.99988338     24250.718     -10179.948      1430.1564    
    205000   205000         295.01387     -170.46029      28.990791      28.990791      28.990791      0.99516192     24365.774     -10203.147      1411.4054    
    206000   206000         290.20056      954.72286      28.907421      28.907421      28.907421      1.003797       24156.169     -10254.664      1388.3776    
    207000   207000         296.88412      16.191756      28.837484      28.837484      28.837484      1.011118       23981.265     -10222.513      1420.3531    
    208000   208000         291.61453      241.39275      28.812837      28.812837      28.812837      1.013715       23919.829     -10216.486      1395.1423    
    209000   209000         301.82178      478.22926      28.847568      28.847568      28.847568      1.010058       24006.432     -10197.799      1443.9758    
    210000   210000         308.27463      289.77081      28.848069      28.848069      28.848069      1.0100055      24007.682     -10249.059      1474.8475    
    211000   211000         298.09607      1439.8315      28.785816      28.785816      28.785816      1.0165724      23852.596     -10322.524      1426.1512    
    212000   212000         296.9182       240.12125      28.98536       28.98536       28.98536       0.99572148     24352.081     -10246.755      1420.5161    
    213000   213000         296.71512     -64.8459        28.885457      28.885457      28.885457      1.0060886      24101.149     -10101.9        1419.5445    
    214000   214000         303.0277       324.41947      28.79617       28.79617       28.79617       1.0154762      23878.343     -10136.481      1449.7452    
    215000   215000         294.44715     -180.09495      28.839964      28.839964      28.839964      1.0108572      23987.454     -10255.314      1408.6941    
    216000   216000         306.78702     -566.99265      28.926838      28.926838      28.926838      1.001777       24204.878     -10181.932      1467.7305    
    217000   217000         303.36559     -437.12324      28.964025      28.964025      28.964025      0.99792345     24298.347     -10247.021      1451.3617    
    218000   218000         286.68155      115.50868      28.88471       28.88471       28.88471       1.0061667      24099.277     -10152.236      1371.5419    
    219000   219000         295.74761      1124.8085      28.808047      28.808047      28.808047      1.0142208      23907.901     -10214.458      1414.9158    
    220000   220000         290.07839      71.16768       28.88266       28.88266       28.88266       1.0063809      24094.148     -10146.66       1387.7931    
    221000   221000         298.89519     -35.465987      28.920534      28.920534      28.920534      1.0024322      24189.056     -10163.387      1429.9744    
    222000   222000         292.77575      525.12166      28.892854      28.892854      28.892854      1.005316       24119.669     -10120.187      1400.6978    
    223000   223000         299.44719     -331.83051      29.002293      29.002293      29.002293      0.99397836     24394.787     -10183.18       1432.6153    
    224000   224000         301.59483     -278.48694      28.958458      28.958458      28.958458      0.99849904     24284.34      -10160.618      1442.89      
    225000   225000         300.68192      95.10918       28.945183      28.945183      28.945183      0.99987349     24250.958     -10200.889      1438.5225    
    226000   226000         285.30448      475.51078      28.854647      28.854647      28.854647      1.0093148      24024.11      -10224.105      1364.9537    
    227000   227000         299.66974      122.64897      28.951048      28.951048      28.951048      0.99926596     24265.702     -10180.033      1433.68      
    228000   228000         284.72013      216.58063      28.9007        28.9007        28.9007        1.0044975      24139.323     -10174.957      1362.1581    
    229000   229000         301.59025     -238.41112      28.909366      28.909366      28.909366      1.0035945      24161.044     -10188.945      1442.8681    
    230000   230000         309.09222      13.462614      28.99091       28.99091       28.99091       0.99514965     24366.074     -10166.28       1478.759     
    231000   231000         303.31311      623.59617      28.807569      28.807569      28.807569      1.0142713      23906.711     -10166.418      1451.1106    
    232000   232000         303.71115     -82.49104       28.710159      28.710159      28.710159      1.0246303      23665.014     -10238.223      1453.0149    
    233000   233000         294.79056      184.58439      28.777496      28.777496      28.777496      1.0174544      23831.919     -10253.333      1410.337     
    234000   234000         300.62713     -1060.2102      28.988307      28.988307      28.988307      0.99541775     24359.512     -10153.306      1438.2604    
    235000   235000         296.53606      634.69694      28.892778      28.892778      28.892778      1.005324       24119.479     -10281.45       1418.6878    
    236000   236000         304.30229      358.13124      28.886186      28.886186      28.886186      1.0060124      24102.973     -10247.991      1455.8431    
    237000   237000         292.24021     -298.55347      28.923016      28.923016      28.923016      1.0021742      24195.284     -10244.632      1398.1357    
    238000   238000         300.9201       786.49682      28.913682      28.913682      28.913682      1.0031451      24171.867     -10198.459      1439.662     
    239000   239000         290.55135      222.98677      28.973608      28.973608      28.973608      0.99693351     24322.475     -10178.548      1390.0558    
    240000   240000         301.38788     -334.96806      29.089068      29.089068      29.089068      0.98510956     24614.409     -10167.737      1441.8999    
    241000   241000         301.79923     -551.53714      29.031369      29.031369      29.031369      0.99099484     24468.23      -10188.869      1443.8679    
    242000   242000         295.70142     -484.48245      28.945246      28.945246      28.945246      0.99986698     24251.116     -10116.684      1414.6948    
    243000   243000         298.45515     -136.80788      28.923414      28.923414      28.923414      1.0021329      24196.283     -10170.189      1427.8692    
    244000   244000         304.23355      110.23225      28.854602      28.854602      28.854602      1.0093196      24023.996     -10139.854      1455.5142    
    245000   245000         300.55426      167.51758      28.843446      28.843446      28.843446      1.0104911      23996.144     -10259.856      1437.9117    
    246000   246000         288.5134       724.97786      28.907355      28.907355      28.907355      1.003804       24156.002     -10228.734      1380.3058    
    247000   247000         297.14367     -220.49737      28.912414      28.912414      28.912414      1.0032771      24168.687     -10168.57       1421.5948    
    248000   248000         306.80319     -980.32181      28.767564      28.767564      28.767564      1.0185086      23807.251     -10220.41       1467.8079    
    249000   249000         299.07213     -752.5037       28.837754      28.837754      28.837754      1.0110897      23981.938     -10158.861      1430.8209    
    250000   250000         295.62767     -161.65994      28.910079      28.910079      28.910079      1.0035202      24162.833     -10175.637      1414.3419    
    251000   251000         296.45189      33.606748      28.83003       28.83003       28.83003       1.0119025      23962.675     -10209.04       1418.2852    
    252000   252000         313.52918      1054.9624      28.843062      28.843062      28.843062      1.0105316      23995.183     -10219.476      1499.9864    
    253000   253000         300.41835      375.96629      28.879422      28.879422      28.879422      1.0067194      24086.046     -10224.684      1437.2615    
    254000   254000         292.52513     -569.40682      28.951431      28.951431      28.951431      0.99922626     24266.666     -10130.984      1399.4988    
    255000   255000         307.8094      -128.19155      28.938427      28.938427      28.938427      1.000574       24233.98      -10212.499      1472.6218    
    256000   256000         307.52455      658.83359      28.868206      28.868206      28.868206      1.0078933      24057.994     -10245.744      1471.259     
    257000   257000         305.16937     -211.8439       28.858835      28.858835      28.858835      1.0088755      24034.572     -10253.428      1459.9913    
    258000   258000         287.54482      333.10998      28.798934      28.798934      28.798934      1.0151838      23885.221     -10122.766      1375.672     
    259000   259000         296.91139     -957.95982      29.022121      29.022121      29.022121      0.99194255     24444.853     -10238.119      1420.4835    
    260000   260000         295.93968     -106.73452      28.89147       28.89147       28.89147       1.0054605      24116.203     -10164.84       1415.8347    
    261000   261000         306.88218     -1078.0313      29.144631      29.144631      29.144631      0.97948605     24755.728     -10241.541      1468.1858    
    262000   262000         301.62454      23.909739      28.922447      28.922447      28.922447      1.0022333      24193.857     -10216.959      1443.0322    
    263000   263000         301.94387     -843.67631      29.009075      29.009075      29.009075      0.99328144     24411.903     -10190.449      1444.5599    
    264000   264000         300.44402     -474.80492      28.959229      28.959229      28.959229      0.99841927     24286.28      -10277.934      1437.3843    
    265000   265000         294.12873     -409.05487      28.906537      28.906537      28.906537      1.0038891      24153.952     -10163.33       1407.1707    
    266000   266000         303.52821     -524.23066      28.890827      28.890827      28.890827      1.0055277      24114.592     -10190.925      1452.1397    
    267000   267000         300.96387     -878.01311      29.071759      29.071759      29.071759      0.98687014     24570.497     -10139.611      1439.8714    
    268000   268000         304.79708     -73.043994      28.939991      28.939991      28.939991      1.0004117      24237.91      -10150.725      1458.2102    
    269000   269000         291.93225      58.189013      28.910007      28.910007      28.910007      1.0035277      24162.652     -10187.74       1396.6623    
    270000   270000         295.30364     -340.47415      28.777713      28.777713      28.777713      1.0174313      23832.459     -10177.671      1412.7917    
    271000   271000         300.65757     -852.88149      28.895359      28.895359      28.895359      1.0050546      24125.942     -10180.694      1438.406     
    272000   272000         296.61468     -162.78001      29.005855      29.005855      29.005855      0.99361224     24403.775     -10147.514      1419.064     
    273000   273000         297.62849     -603.13697      29.033908      29.033908      29.033908      0.99073491     24474.65      -10204.771      1423.9143    
    274000   274000         289.03221      220.10375      28.830022      28.830022      28.830022      1.0119034      23962.654     -10239.467      1382.7879    
    275000   275000         289.20639      396.41828      28.856022      28.856022      28.856022      1.0091706      24027.544     -10248.647      1383.6213    
    276000   276000         296.15997     -182.3116       28.948718      28.948718      28.948718      0.99950727     24259.844     -10158.724      1416.8886    
    277000   277000         289.43751     -576.09768      28.942221      28.942221      28.942221      1.0001805      24243.514     -10141.495      1384.727     
    278000   278000         302.03653     -329.38671      28.896313      28.896313      28.896313      1.0049551      24128.332     -10209.387      1445.0032    
    279000   279000         284.10889     -333.24674      28.986558      28.986558      28.986558      0.99559797     24355.102     -10163.446      1359.2338    
    280000   280000         298.40021      176.5455       28.991387      28.991387      28.991387      0.9951006      24367.275     -10189.853      1427.6063    
    281000   281000         303.43978      611.06922      28.876447      28.876447      28.876447      1.0070307      24078.601     -10183.446      1451.7166    
    282000   282000         295.18865     -103.69578      28.909265      28.909265      28.909265      1.003605       24160.79      -10124.857      1412.2416    
    283000   283000         303.13639      254.13245      28.979063      28.979063      28.979063      0.99637066     24336.214     -10227.018      1450.2652    
    284000   284000         306.61651     -238.55163      28.999283      28.999283      28.999283      0.99428797     24387.191     -10212.152      1466.9147    
    285000   285000         302.29519      331.45099      28.852748      28.852748      28.852748      1.0095141      24019.367     -10235.811      1446.2407    
    286000   286000         292.19011      709.24449      28.684103      28.684103      28.684103      1.0274251      23600.641     -10252.196      1397.896     
    287000   287000         284.82774      154.03041      28.89437       28.89437       28.89437       1.0051579      24123.464     -10245.103      1362.6729    
    288000   288000         299.11731      305.77283      28.878097      28.878097      28.878097      1.0068581      24082.729     -10164.24       1431.0371    
    289000   289000         308.1989      -157.36119      28.956538      28.956538      28.956538      0.99869767     24279.51      -10170.08       1474.4852    
    290000   290000         294.50717      888.75431      28.793327      28.793327      28.793327      1.0157771      23871.27      -10236.013      1408.9812    
    291000   291000         289.90851      46.534041      28.952508      28.952508      28.952508      0.99911479     24269.374     -10209.23       1386.9803    
    292000   292000         299.80978      236.92928      28.916137      28.916137      28.916137      1.0028896      24178.024     -10197.289      1434.35      
    293000   293000         301.57303      1.165872       28.991045      28.991045      28.991045      0.99513577     24366.414     -10116.123      1442.7857    
    294000   294000         297.99227      719.81482      28.856308      28.856308      28.856308      1.0091406      24028.258     -10193.342      1425.6547    
    295000   295000         305.28789      1027.0996      28.864729      28.864729      28.864729      1.0082576      24049.302     -10207.932      1460.5584    
    296000   296000         299.95625     -78.305831      28.897728      28.897728      28.897728      1.0048075      24131.877     -10186.258      1435.0507    
    297000   297000         300.57658     -313.4997       28.984799      28.984799      28.984799      0.99577928     24350.667     -10179.371      1438.0185    
    298000   298000         284.71377      643.97515      28.693774      28.693774      28.693774      1.0263865      23624.522     -10220.463      1362.1277    
    299000   299000         296.03963      6.7704109      28.989638      28.989638      28.989638      0.99528068     24362.866     -10204.008      1416.3128    
    300000   300000         293.59279      265.34463      28.870223      28.870223      28.870223      1.007682       24063.037     -10169.199      1404.6067    
    301000   301000         299.89097     -400.93446      28.986714      28.986714      28.986714      0.99558189     24355.495     -10129.189      1434.7384    
    302000   302000         295.70705      368.90383      28.912317      28.912317      28.912317      1.0032872      24168.445     -10207.285      1414.7217    
    303000   303000         293.70851     -693.31619      29.022587      29.022587      29.022587      0.99189475     24446.031     -10089.156      1405.1603    
    304000   304000         297.75996      243.77094      28.97471       28.97471       28.97471       0.99681977     24325.25      -10134.702      1424.5432    
    305000   305000         294.06615      249.60105      28.931907      28.931907      28.931907      1.0012506      24217.604     -10202.027      1406.8713    
    306000   306000         286.19102     -607.82301      29.156186      29.156186      29.156186      0.97832199     24785.183     -10228.035      1369.1951    
    307000   307000         299.12875     -260.88415      29.026156      29.026156      29.026156      0.99152893     24455.05      -10217.226      1431.0918    
    308000   308000         296.52307     -89.262327      29.012689      29.012689      29.012689      0.99291031     24421.028     -10116.92       1418.6257    
    309000   309000         297.18037     -158.24796      28.841945      28.841945      28.841945      1.0106489      23992.398     -10213.615      1421.7704    
    310000   310000         295.38092      340.77976      28.98297       28.98297       28.98297       0.99596782     24346.058     -10167.881      1413.1614    
    311000   311000         306.86585     -1027.0836      28.988665      28.988665      28.988665      0.99538087     24360.414     -10089.998      1468.1077    
    312000   312000         291.42674     -516.15988      29.095879      29.095879      29.095879      0.98441787     24631.704     -10189.446      1394.2439    
    313000   313000         300.36412     -652.11977      28.96416       28.96416       28.96416       0.99790949     24298.687     -10159.328      1437.0021    
    314000   314000         297.11019     -355.83521      28.978489      28.978489      28.978489      0.9964299      24334.768     -10181.946      1421.4346    
    315000   315000         300.88416      14.555375      28.891304      28.891304      28.891304      1.0054778      24115.788     -10260.73       1439.49      
    316000   316000         304.81651      155.43912      28.915817      28.915817      28.915817      1.0029229      24177.223     -10134.59       1458.3032    
    317000   317000         298.0877      -427.42697      29.132489      29.132489      29.132489      0.98071126     24724.8       -10202.706      1426.1112    
    318000   318000         289.07044      57.043691      28.880911      28.880911      28.880911      1.0065637      24089.772     -10240.221      1382.9708    
    319000   319000         283.2621      -78.360648      28.994879      28.994879      28.994879      0.99474103     24376.083     -10177.973      1355.1826    
    320000   320000         289.19365      130.21119      28.962399      28.962399      28.962399      0.99809145     24294.257     -10134.686      1383.5603    
    321000   321000         298.26843     -542.2524       29.044546      29.044546      29.044546      0.98964666     24501.563     -10195.212      1426.9759    
    322000   322000         300.29089     -228.44801      28.936736      28.936736      28.936736      1.0007494      24229.733     -10156.996      1436.6517    
    323000   323000         297.29749      223.71718      28.736337      28.736337      28.736337      1.0218325      23729.808     -10173.445      1422.3307    
    324000   324000         287.44319      612.261        28.893748      28.893748      28.893748      1.0052228      24121.906     -10187.128      1375.1858    
    325000   325000         295.62678      390.02637      28.862223      28.862223      28.862223      1.0085203      24043.036     -10229.971      1414.3377    
    326000   326000         300.77259     -700.06769      28.865122      28.865122      28.865122      1.0082164      24050.284     -10206.294      1438.9563    
    327000   327000         303.98003     -326.82665      28.959221      28.959221      28.959221      0.99842014     24286.259     -10114.756      1454.3013    
    328000   328000         286.59029      628.08349      28.863795      28.863795      28.863795      1.0083555      24046.965     -10121.834      1371.1053    
    329000   329000         298.58535     -65.179203      28.947926      28.947926      28.947926      0.99958929     24257.853     -10147.323      1428.4921    
    330000   330000         296.26513     -699.28343      28.907322      28.907322      28.907322      1.0038074      24155.919     -10180.744      1417.3917    
    331000   331000         291.96246     -456.25442      28.843023      28.843023      28.843023      1.0105356      23995.087     -10260.8        1396.8068    
    332000   332000         293.85945     -572.12452      28.888065      28.888065      28.888065      1.0058161      24107.678     -10192.179      1405.8824    
    333000   333000         294.34335     -640.92073      28.999681      28.999681      28.999681      0.99424698     24388.196     -10130.711      1408.1975    
    334000   334000         301.60274     -263.31216      28.97014       28.97014       28.97014       0.99729161     24313.741     -10197.072      1442.9279    
    335000   335000         297.34047      580.00768      28.807265      28.807265      28.807265      1.0143033      23905.955     -10214.326      1422.5363    
    336000   336000         296.46654     -509.37122      28.908948      28.908948      28.908948      1.003638       24159.997     -10208.088      1418.3552    
    337000   337000         285.19058     -98.533595      28.858903      28.858903      28.858903      1.0088684      24034.74      -10191.885      1364.4088    
    338000   338000         291.29845     -906.34518      28.880945      28.880945      28.880945      1.0065602      24089.856     -10159.755      1393.6301    
    339000   339000         298.37724     -339.03428      28.870929      28.870929      28.870929      1.0076082      24064.8       -10177.594      1427.4964    
    340000   340000         291.92375     -341.38745      28.849812      28.849812      28.849812      1.0098223      24012.036     -10268.197      1396.6217    
    341000   341000         300.43441      183.57775      28.903765      28.903765      28.903765      1.004178       24147.004     -10232.077      1437.3384    
    342000   342000         292.9669      -340.81385      28.884462      28.884462      28.884462      1.0061926      24098.658     -10196.104      1401.6123    
    343000   343000         295.46027      785.70874      28.811613      28.811613      28.811613      1.0138442      23916.781     -10170.252      1413.541     
    344000   344000         292.80305     -290.774        28.904261      28.904261      28.904261      1.0041263      24148.247     -10268.362      1400.8284    
    345000   345000         305.16113      206.59786      28.844241      28.844241      28.844241      1.0104076      23998.127     -10201.697      1459.9519    
    346000   346000         303.6571       660.70405      28.822957      28.822957      28.822957      1.0126476      23945.042     -10277.879      1452.7563    
    347000   347000         295.47631      406.81786      28.866512      28.866512      28.866512      1.0080708      24053.757     -10174.065      1413.6178    
    348000   348000         303.69953      309.64263      28.820275      28.820275      28.820275      1.0129304      23938.358     -10225.387      1452.9593    
    349000   349000         292.14222     -967.18118      28.86874       28.86874       28.86874       1.0078374      24059.329     -10224.586      1397.6668    
    350000   350000         285.95816     -503.42143      28.934667      28.934667      28.934667      1.0009641      24224.536     -10139.577      1368.081     
    351000   351000         289.8377       379.66436      28.834169      28.834169      28.834169      1.0114668      23972.998     -10186.05       1386.6415    
    352000   352000         298.06827      705.32471      28.879454      28.879454      28.879454      1.0067161      24086.124     -10169.955      1426.0182    
    353000   353000         297.3573      -83.740353      28.784458      28.784458      28.784458      1.0167163      23849.22      -10259.656      1422.6169    
    354000   354000         297.26078      288.98421      28.88053       28.88053       28.88053       1.0066036      24088.818     -10232.564      1422.1551    
    355000   355000         298.67708     -20.453224      28.957168      28.957168      28.957168      0.99863251     24281.094     -10111.292      1428.9309    
    356000   356000         296.4818      -406.73433      28.854853      28.854853      28.854853      1.0092932      24024.624     -10304.747      1418.4283    
    357000   357000         296.37039     -641.22437      28.973533      28.973533      28.973533      0.9969413      24322.285     -10250.015      1417.8953    
    358000   358000         292.26959      165.59167      28.858441      28.858441      28.858441      1.0089168      24033.588     -10158.793      1398.2762    
    359000   359000         296.10931      909.11418      28.726091      28.726091      28.726091      1.0229264      23704.433     -10154.931      1416.6462    
    360000   360000         295.86277     -171.96934      28.782529      28.782529      28.782529      1.0169207      23844.425     -10256.611      1415.4667    
    361000   361000         309.69121      149.93863      28.945424      28.945424      28.945424      0.99984854     24251.563     -10140.807      1481.6247    
    362000   362000         302.69112     -685.66046      28.930502      28.930502      28.930502      1.0013965      24214.075     -10147.664      1448.1349    
    363000   363000         306.04404      811.95111      28.900246      28.900246      28.900246      1.0045449      24138.186     -10089.098      1464.1759    
    364000   364000         299.00806     -514.25992      28.971702      28.971702      28.971702      0.99713028     24317.675     -10202.026      1430.5144    
    365000   365000         307.73347      1307.3173      28.788396      28.788396      28.788396      1.0162992      23859.008     -10129.457      1472.2585    
    366000   366000         301.74157      8.4917473      28.850146      28.850146      28.850146      1.0097873      24012.869     -10153.446      1443.5921    
    367000   367000         289.90736     -127.71964      28.818473      28.818473      28.818473      1.0131204      23933.867     -10257.445      1386.9748    
    368000   368000         306.9416       823.46561      28.83032       28.83032       28.83032       1.0118719      23963.398     -10245.751      1468.47      
    369000   369000         310.69529      109.49104      28.923433      28.923433      28.923433      1.0021309      24196.33      -10177.009      1486.4284    
    370000   370000         288.95674      219.8052       28.963584      28.963584      28.963584      0.997969       24297.238     -10209.901      1382.4269    
    371000   371000         303.30134     -445.14631      29.005549      29.005549      29.005549      0.99364369     24403.003     -10183.643      1451.0543    
    372000   372000         293.85923      460.78435      28.845686      28.845686      28.845686      1.0102558      24001.733     -10162.479      1405.8814    
    373000   373000         296.78982     -178.44268      28.857793      28.857793      28.857793      1.0089847      24031.969     -10215.587      1419.9019    
    374000   374000         299.96065      199.43952      28.769611      28.769611      28.769611      1.0182912      23812.334     -10201.789      1435.0718    
    375000   375000         295.27549     -48.959641      28.872724      28.872724      28.872724      1.0074202      24069.291     -10158.74       1412.657     
    376000   376000         288.30448      349.4024       28.829805      28.829805      28.829805      1.0119262      23962.113     -10181.809      1379.3063    
    377000   377000         314.85163      505.50405      28.739867      28.739867      28.739867      1.0214561      23738.553     -10238.926      1506.3132    
    378000   378000         299.13283     -480.63529      28.996107      28.996107      28.996107      0.99461472     24379.179     -10124.396      1431.1113    
    379000   379000         296.30503     -494.77935      28.99695       28.99695       28.99695       0.99452797     24381.305     -10180.807      1417.5826    
    380000   380000         291.96011      446.78014      28.915804      28.915804      28.915804      1.0029243      24177.188     -10230.088      1396.7956    
    381000   381000         298.89089      277.45478      28.866659      28.866659      28.866659      1.0080554      24054.125     -10261.776      1429.9538    
    382000   382000         295.206       -683.97447      28.918477      28.918477      28.918477      1.0026462      24183.895     -10151.001      1412.3246    
    383000   383000         299.75281     -418.57317      28.859996      28.859996      28.859996      1.0087537      24037.474     -10200.722      1434.0774    
    384000   384000         296.32175      69.645627      28.927717      28.927717      28.927717      1.0016857      24207.084     -10234.82       1417.6625    
    385000   385000         287.00638     -263.17844      28.815245      28.815245      28.815245      1.0134609      23925.826     -10213.303      1373.096     
    386000   386000         293.5301      -118.29318      28.964478      28.964478      28.964478      0.99787655     24299.489     -10206.223      1404.3068    
    387000   387000         293.09859     -316.96979      29.003159      29.003159      29.003159      0.9938894      24396.97      -10282.745      1402.2423    
    388000   388000         301.2449      -598.45216      28.942651      28.942651      28.942651      1.0001359      24244.595     -10219.758      1441.2159    
    389000   389000         303.98187     -177.75614      28.833227      28.833227      28.833227      1.011566       23970.646     -10191.7        1454.3101    
    390000   390000         292.16693      730.91688      28.686802      28.686802      28.686802      1.027135       23607.305     -10194.413      1397.785     
    391000   391000         297.98771      168.1752       28.968079      28.968079      28.968079      0.99750454     24308.551     -10173.476      1425.6328    
    392000   392000         307.82679      467.78452      28.885862      28.885862      28.885862      1.0060463      24102.162     -10200.638      1472.705     
    393000   393000         292.35287      275.22374      28.905269      28.905269      28.905269      1.0040213      24150.773     -10216.463      1398.6746    
    394000   394000         285.47811     -265.58281      28.97903       28.97903       28.97903       0.99637411     24336.13      -10193.519      1365.7844    
    395000   395000         298.24589     -870.77867      29.055747      29.055747      29.055747      0.98850261     24529.92      -10170.424      1426.868     
    396000   396000         302.38015     -678.70207      28.996493      28.996493      28.996493      0.994575       24380.153     -10169.976      1446.6472    
    397000   397000         294.70081      28.892575      28.969241      28.969241      28.969241      0.99738451     24311.477     -10232.735      1409.9076    
    398000   398000         297.93333      782.80192      28.881748      28.881748      28.881748      1.0064762      24091.866     -10198.127      1425.3727    
    399000   399000         316.66558     -270.98207      29.025769      29.025769      29.025769      0.99156853     24454.074     -10200.867      1514.9915    
    400000   400000         289.14161     -1533.3005      29.069679      29.069679      29.069679      0.98708208     24565.222     -10236.21       1383.3113    
    401000   401000         319.23895      377.79664      28.84989       28.84989       28.84989       1.0098142      24012.23      -10187.998      1527.303     
    402000   402000         293.31025      45.588494      28.834722      28.834722      28.834722      1.0114086      23974.376     -10236.915      1403.2549    
    403000   403000         288.18989     -249.30149      28.87275       28.87275       28.87275       1.0074175      24069.355     -10201.393      1378.7581    
    404000   404000         294.12986      83.720106      28.806741      28.806741      28.806741      1.0143588      23904.649     -10291.958      1407.1761    
    405000   405000         306.25579     -791.20743      29.008195      29.008195      29.008195      0.99337179     24409.682     -10218.228      1465.189     
    406000   406000         299.82724     -474.50402      28.854341      28.854341      28.854341      1.0093469      24023.346     -10189.156      1434.4335    
    407000   407000         298.52026     -220.63261      29.004572      29.004572      29.004572      0.99374413     24400.537     -10180.736      1428.1807    
    408000   408000         308.56772      145.25817      28.971598      28.971598      28.971598      0.99714104     24317.413     -10148.904      1476.2497    
    409000   409000         302.64678     -522.61333      29.037753      29.037753      29.037753      0.99034144     24484.374     -10175.042      1447.9228    
    410000   410000         293.74088     -478.77936      28.982141      28.982141      28.982141      0.99605329     24343.969     -10122.303      1405.3152    
    411000   411000         302.07649     -388.89882      28.959983      28.959983      28.959983      0.99834137     24288.175     -10091.597      1445.1944    
    412000   412000         286.51313     -422.31949      28.935922      28.935922      28.935922      1.0008338      24227.689     -10112.898      1370.7362    
    413000   413000         301.20435     -643.2005       28.86632       28.86632       28.86632       1.0080909      24053.277     -10175.858      1441.0219    
    414000   414000         296.99385     -12.535649      28.892376      28.892376      28.892376      1.005366       24118.471     -10231.963      1420.878     
    415000   415000         295.73593     -577.49209      28.900653      28.900653      28.900653      1.0045024      24139.205     -10187.061      1414.8599    
    416000   416000         302.53765      410.66515      28.840939      28.840939      28.840939      1.0107547      23989.886     -10262.097      1447.4007    
    417000   417000         280.1145      -342.98422      28.93458       28.93458       28.93458       1.0009731      24224.319     -10175.159      1340.1238    
    418000   418000         300.02783      434.11308      28.756623      28.756623      28.756623      1.0196716      23780.097     -10213.035      1435.3932    
    419000   419000         291.86815     -518.8407       28.887443      28.887443      28.887443      1.0058811      24106.119     -10171.443      1396.3556    
    420000   420000         293.01356     -729.06382      28.98599       28.98599       28.98599       0.99565651     24353.67      -10140.381      1401.8355    
    421000   421000         299.28069     -184.165        28.828361      28.828361      28.828361      1.0120783      23958.512     -10150.2        1431.8187    
    422000   422000         307.22812      689.83383      28.803055      28.803055      28.803055      1.0147482      23895.476     -10173.724      1469.8408    
    423000   423000         302.0221       283.91743      28.945995      28.945995      28.945995      0.99978939     24252.998     -10220.686      1444.9342    
    424000   424000         301.37212      17.299225      28.871395      28.871395      28.871395      1.0075594      24065.965     -10199.111      1441.8246    
    425000   425000         310.12947     -121.59974      29.022229      29.022229      29.022229      0.9919314      24445.128     -10150.216      1483.7215    
    426000   426000         311.08966     -123.39695      28.872443      28.872443      28.872443      1.0074497      24068.587     -10158.003      1488.3152    
    427000   427000         301.3462       443.32546      28.907234      28.907234      28.907234      1.0038166      24155.698     -10243.248      1441.7005    
    428000   428000         295.8533      -58.530622      28.902695      28.902695      28.902695      1.0042896      24144.321     -10159.747      1415.4214    
    429000   429000         298.3186      -299.0709       29.059131      29.059131      29.059131      0.9881573      24538.492     -10128.765      1427.2159    
    430000   430000         308.25746     -110.62842      29.015324      29.015324      29.015324      0.99263981     24427.683     -10117.141      1474.7654    
    431000   431000         299.84778      555.7599       28.920259      28.920259      28.920259      1.0024609      24188.366     -10111.774      1434.5318    
    432000   432000         299.75521      128.94788      28.873558      28.873558      28.873558      1.007333       24071.375     -10153.569      1434.0889    
    433000   433000         304.82299      411.13856      28.802602      28.802602      28.802602      1.014796       23894.348     -10197.371      1458.3342    
    434000   434000         291.13253     -212.70119      28.74708       28.74708       28.74708       1.0206874      23756.431     -10196.384      1392.8363    
    435000   435000         294.39495     -81.837133      28.922228      28.922228      28.922228      1.0022561      24193.306     -10131.42       1408.4444    
    436000   436000         291.73834      485.87112      28.827683      28.827683      28.827683      1.0121497      23956.822     -10276.725      1395.7346    
    437000   437000         295.63199     -101.21698      29.019144      29.019144      29.019144      0.99224786     24437.332     -10275.228      1414.3626    
    438000   438000         299.84808     -363.60292      28.867308      28.867308      28.867308      1.0079874      24055.748     -10258.589      1434.5332    
    439000   439000         297.62801      592.40161      28.80748       28.80748       28.80748       1.0142807      23906.489     -10293.102      1423.9119    
    440000   440000         305.71868      613.85412      29.027769      29.027769      29.027769      0.99136361     24459.129     -10248.536      1462.6194    
    441000   441000         281.8326       1063.3301      28.818148      28.818148      28.818148      1.0131547      23933.058     -10256.62       1348.3436    
    442000   442000         296.27941      1207.8228      28.791577      28.791577      28.791577      1.0159623      23866.92      -10228.629      1417.46      
    443000   443000         291.99246     -19.457428      28.839974      28.839974      28.839974      1.0108562      23987.478     -10236.402      1396.9504    
    444000   444000         288.03825     -22.63634       28.829656      28.829656      28.829656      1.0119419      23961.741     -10141.219      1378.0326    
    445000   445000         300.49111      327.64464      28.898198      28.898198      28.898198      1.0047584      24133.055     -10123.583      1437.6096    
    446000   446000         297.85021      17.435059      28.950767      28.950767      28.950767      0.99929508     24264.995     -10112.028      1424.975     
    447000   447000         291.3249       480.43635      28.858912      28.858912      28.858912      1.0088674      24034.763     -10211.772      1393.7566    
    448000   448000         295.05975     -595.68071      28.902827      28.902827      28.902827      1.0042758      24144.653     -10150.959      1411.6249    
    449000   449000         299.26115      626.86921      28.818057      28.818057      28.818057      1.0131643      23932.831     -10161.909      1431.7253    
    450000   450000         296.63649      215.36391      28.81261       28.81261       28.81261       1.013739       23919.264     -10157.423      1419.1683    
    451000   451000         285.06946      31.104339      28.964515      28.964515      28.964515      0.99787282     24299.58      -10161.603      1363.8294    
    452000   452000         297.78969     -111.75903      28.921289      28.921289      28.921289      1.0023537      24190.951     -10166.222      1424.6855    
    453000   453000         305.44901      389.87532      28.778527      28.778527      28.778527      1.017345       23834.48      -10237.111      1461.3292    
    454000   454000         290.85841      356.0336       28.68345       28.68345       28.68345       1.0274952      23599.031     -10205.84       1391.5248    
    455000   455000         310.95937      319.7656       28.839439      28.839439      28.839439      1.0109124      23986.144     -10216.475      1487.6919    
    456000   456000         302.17958     -945.91224      28.997581      28.997581      28.997581      0.99446298     24382.899     -10139.111      1445.6876    
    457000   457000         301.9493      -443.69718      29.018987      29.018987      29.018987      0.99226398     24436.935     -10156.413      1444.5859    
    458000   458000         300.5555       347.72621      28.8593        28.8593        28.8593        1.0088268      24035.732     -10209.047      1437.9176    
    459000   459000         294.3322      -308.73236      28.836291      28.836291      28.836291      1.0112435      23978.289     -10230.578      1408.1441    
    460000   460000         302.78029      16.971438      29.000178      29.000178      29.000178      0.99419589     24389.449     -10203.392      1448.5615    
    461000   461000         306.5437       876.63877      28.80021       28.80021       28.80021       1.0150489      23888.395     -10194.946      1466.5664    
    462000   462000         300.49044      127.31209      28.828358      28.828358      28.828358      1.0120786      23958.506     -10197.59       1437.6064    
    463000   463000         303.30111      47.690282      28.875508      28.875508      28.875508      1.0071289      24076.252     -10229.027      1451.0532    
    464000   464000         291.09329     -58.307813      28.988042      28.988042      28.988042      0.99544509     24358.842     -10242.812      1392.6486    
    465000   465000         299.18124     -321.85815      29.0285        29.0285        29.0285        0.99128875     24460.976     -10155.157      1431.3429    
    466000   466000         290.41809     -349.09011      29.042869      29.042869      29.042869      0.98981818     24497.317     -10148.813      1389.4183    
    467000   467000         294.05847      75.897986      28.85215       28.85215       28.85215       1.009577       24017.872     -10165.003      1406.8346    
    468000   468000         300.58235     -370.16901      29.02996       29.02996       29.02996       0.99113919     24464.667     -10213.692      1438.0461    
    469000   469000         294.66917     -18.139172      29.003156      29.003156      29.003156      0.99388969     24396.963     -10181.816      1409.7563    
    470000   470000         299.02384      119.26289      28.867542      28.867542      28.867542      1.0079628      24056.334     -10206.305      1430.5899    
    471000   471000         296.18095     -180.92439      28.882699      28.882699      28.882699      1.0063768      24094.245     -10204.416      1416.9889    
    472000   472000         289.63257      357.70725      29.01405       29.01405       29.01405       0.99277059     24424.465     -10185.028      1385.6602    
    473000   473000         312.61627     -112.00447      28.982752      28.982752      28.982752      0.99599026     24345.509     -10161.785      1495.6188    
    474000   474000         296.63025     -400.96334      28.891481      28.891481      28.891481      1.0054595      24116.229     -10195.75       1419.1385    
    475000   475000         307.95686      88.84642       28.932         28.932         28.932         1.0012409      24217.838     -10225.845      1473.3272    
    476000   476000         303.25839      416.96137      28.834794      28.834794      28.834794      1.0114011      23974.555     -10195.233      1450.8488    
    477000   477000         290.33519      102.69509      28.866515      28.866515      28.866515      1.0080705      24053.764     -10279.824      1389.0217    
    478000   478000         296.65872     -300.31222      29.027024      29.027024      29.027024      0.99143995     24457.245     -10194.326      1419.2747    
    479000   479000         305.26357     -461.3275       28.992352      28.992352      28.992352      0.99500123     24369.709     -10272.593      1460.442     
    480000   480000         314.54503     -149.65357      28.835136      28.835136      28.835136      1.0113651      23975.407     -10193.742      1504.8464    
    481000   481000         285.39669     -42.484292      28.843164      28.843164      28.843164      1.0105208      23995.439     -10187.478      1365.3949    
    482000   482000         297.42168      544.73058      28.884762      28.884762      28.884762      1.0061612      24099.408     -10237.606      1422.9248    
    483000   483000         283.97809     -68.243261      29.015756      29.015756      29.015756      0.99259551     24428.773     -10123.726      1358.608     
    484000   484000         297.70825     -651.23376      29.026506      29.026506      29.026506      0.99149304     24455.936     -10192.841      1424.2958    
    485000   485000         297.89144     -468.1138       28.860154      28.860154      28.860154      1.0087371      24037.868     -10291.72       1425.1723    
    486000   486000         285.21615     -261.9778       28.914006      28.914006      28.914006      1.0031114      24172.68      -10216.563      1364.5311    
    487000   487000         302.57466     -111.64665      28.868305      28.868305      28.868305      1.0078829      24058.241     -10208.273      1447.5777    
    488000   488000         289.79319     -343.47704      28.863948      28.863948      28.863948      1.0083394      24047.349     -10207.252      1386.4286    
    489000   489000         301.61244     -941.44412      28.861836      28.861836      28.861836      1.0085608      24042.07      -10185.564      1442.9743    
    490000   490000         293.726       -293.52399      28.882095      28.882095      28.882095      1.00644        24092.733     -10255.947      1405.244     
    491000   491000         301.28848     -208.26887      28.863991      28.863991      28.863991      1.0083349      24047.457     -10231.994      1441.4244    
    492000   492000         302.59022     -222.07409      28.923076      28.923076      28.923076      1.0021679      24195.436     -10198.112      1447.6522    
    493000   493000         290.03236     -529.58102      28.925767      28.925767      28.925767      1.0018883      24202.188     -10224.812      1387.5728    
    494000   494000         295.33265      601.73605      28.870808      28.870808      28.870808      1.0076208      24064.5       -10262.021      1412.9305    
    495000   495000         303.84527      431.40126      28.80791       28.80791       28.80791       1.0142353      23907.559     -10246.324      1453.6566    
    496000   496000         296.48257     -69.474478      28.856254      28.856254      28.856254      1.0091462      24028.124     -10242.178      1418.432     
    497000   497000         296.31806      567.35925      28.785799      28.785799      28.785799      1.0165742      23852.553     -10213.105      1417.6449    
    498000   498000         306.36137      216.73004      29.014307      29.014307      29.014307      0.99274413     24425.115     -10198.992      1465.6941    
    499000   499000         296.68013     -280.24591      28.970844      28.970844      28.970844      0.99721892     24315.513     -10320.063      1419.3771    
    500000   500000         294.75831     -511.16834      29.089741      29.089741      29.089741      0.9850412      24616.118     -10221.118      1410.1827    
    501000   501000         299.46972     -485.48212      29.040586      29.040586      29.040586      0.99005163     24491.541     -10243.972      1432.7231    
    502000   502000         288.96451      205.73099      28.886382      28.886382      28.886382      1.005992       24103.463     -10229.581      1382.464     
    503000   503000         297.23894      1218.347       28.744098      28.744098      28.744098      1.0210051      23749.039     -10216.605      1422.0506    
    504000   504000         298.0147       389.10501      28.735029      28.735029      28.735029      1.0219721      23726.567     -10206.371      1425.7619    
    505000   505000         304.6389       454.7403       28.891391      28.891391      28.891391      1.0054688      24116.005     -10180.877      1457.4535    
    506000   506000         306.82836      407.296        28.763136      28.763136      28.763136      1.018979       23796.26      -10214.124      1467.9283    
    507000   507000         297.84491      144.73451      28.890419      28.890419      28.890419      1.0055702      24113.572     -10113.184      1424.9496    
    508000   508000         286.57082     -752.94992      29.063892      29.063892      29.063892      0.98767178     24550.555     -10176.229      1371.0121    
    509000   509000         306.59938      760.8085       28.856478      28.856478      28.856478      1.0091227      24028.684     -10157.428      1466.8328    
    510000   510000         297.24872      2.3295881      28.852319      28.852319      28.852319      1.0095592      24018.294     -10109.006      1422.0974    
    511000   511000         295.28591     -20.18916       29.036042      29.036042      29.036042      0.9905165      24480.047     -10176.567      1412.7069    
    512000   512000         299.62627     -199.06298      28.950883      28.950883      28.950883      0.99928308     24265.286     -10230.546      1433.472     
    513000   513000         303.48769      152.41052      28.799241      28.799241      28.799241      1.0151514      23885.984     -10184.049      1451.9458    
    514000   514000         302.03264      385.1083       28.891814      28.891814      28.891814      1.0054247      24117.063     -10157.065      1444.9846    
    515000   515000         298.61032     -459.377        28.965438      28.965438      28.965438      0.99777736     24301.904     -10247.796      1428.6115    
    516000   516000         299.27545     -8.9894481      28.923031      28.923031      28.923031      1.0021727      24195.321     -10203.329      1431.7936    
    517000   517000         294.79558      1067.5203      28.670958      28.670958      28.670958      1.0288389      23568.21      -10222.833      1410.3611    
    518000   518000         290.21169     -379.82136      28.760498      28.760498      28.760498      1.0192594      23789.714     -10246.976      1388.4308    
    519000   519000         305.23729     -496.23467      28.773016      28.773016      28.773016      1.0179297      23820.79      -10177.413      1460.3163    
    520000   520000         300.54223     -90.747404      28.883921      28.883921      28.883921      1.0062492      24097.302     -10180.755      1437.8542    
    521000   521000         292.82349     -492.12935      28.880892      28.880892      28.880892      1.0065657      24089.724     -10200.844      1400.9262    
    522000   522000         293.19277     -216.58148      28.898194      28.898194      28.898194      1.0047589      24133.044     -10275.145      1402.6929    
    523000   523000         292.04012      29.521506      28.950665      28.950665      28.950665      0.99930555     24264.741     -10121.279      1397.1784    
    524000   524000         296.8111      -474.14552      29.126135      29.126135      29.126135      0.9813533      24708.624     -10142.11       1420.0037    
    525000   525000         295.74525     -0.023160984    28.857396      28.857396      28.857396      1.0090264      24030.977     -10214.604      1414.9045    
    526000   526000         302.89259     -91.930678      28.914447      28.914447      28.914447      1.0030654      24173.787     -10228.26       1449.0987    
    527000   527000         285.24006     -301.93043      29.045347      29.045347      29.045347      0.9895648      24503.59      -10179.127      1364.6455    
    528000   528000         294.82088     -348.08582      28.960032      28.960032      28.960032      0.99833623     24288.3       -10203.403      1410.4821    
    529000   529000         301.24713     -714.13731      28.932324      28.932324      28.932324      1.0012072      24218.652     -10220.549      1441.2266    
    530000   530000         297.88879      292.23826      28.820495      28.820495      28.820495      1.0129071      23938.907     -10243.555      1425.1596    
    531000   531000         301.62524     -331.72028      28.820432      28.820432      28.820432      1.0129139      23938.749     -10296.594      1443.0355    
    532000   532000         294.36274      430.79501      28.937567      28.937567      28.937567      1.0006631      24231.821     -10172.251      1408.2903    
    533000   533000         300.48593     -407.76191      28.895345      28.895345      28.895345      1.0050561      24125.907     -10149.086      1437.5848    
    534000   534000         299.49953      775.54409      28.718973      28.718973      28.718973      1.0236872      23686.817     -10285.697      1432.8657    
    535000   535000         294.70639     -158.36143      28.851506      28.851506      28.851506      1.0096445      24016.265     -10218.756      1409.9343    
    536000   536000         308.84718     -46.905156      29.031301      29.031301      29.031301      0.99100181     24468.058     -10246.527      1477.5867    
    537000   537000         294.54821      236.78953      29.000289      29.000289      29.000289      0.99418447     24389.729     -10181.283      1409.1776    
    538000   538000         287.37661      123.44259      28.862557      28.862557      28.862557      1.0084853      24043.872     -10164.374      1374.8672    
    539000   539000         303.96504     -344.08733      29.023445      29.023445      29.023445      0.99180676     24448.2       -10216.907      1454.2296    
    540000   540000         293.03201     -46.621762      28.926828      28.926828      28.926828      1.001778       24204.853     -10183.857      1401.9238    
    541000   541000         294.37927      97.654568      28.808619      28.808619      28.808619      1.0141604      23909.325     -10207.671      1408.3694    
    542000   542000         302.51013      281.66671      28.999575      28.999575      28.999575      0.99425792     24387.927     -10171.082      1447.269     
    543000   543000         302.25854     -575.7881       28.887345      28.887345      28.887345      1.0058914      24105.874     -10202.831      1446.0654    
    544000   544000         292.9016       179.06627      28.89138       28.89138       28.89138       1.0054699      24115.977     -10126.07       1401.2999    
    545000   545000         295.84432      1087.3942      28.813045      28.813045      28.813045      1.013693       23920.348     -10239.032      1415.3784    
    546000   546000         303.35193     -153.16418      28.933653      28.933653      28.933653      1.0010693      24221.99      -10199.699      1451.2963    
    547000   547000         294.26439     -376.52255      29.026782      29.026782      29.026782      0.99146479     24456.633     -10220.689      1407.8197    
    548000   548000         296.18058      373.39837      28.882114      28.882114      28.882114      1.006438       24092.782     -10214.979      1416.9871    
    549000   549000         303.66157     -249.57492      28.815489      28.815489      28.815489      1.0134351      23926.435     -10195.627      1452.7777    
    550000   550000         299.88446      681.49664      28.777291      28.777291      28.777291      1.0174762      23831.408     -10231.776      1434.7073    
    551000   551000         288.39813     -952.33461      28.810657      28.810657      28.810657      1.0139452      23914.399     -10217.487      1379.7544    
    552000   552000         307.70893     -204.88452      28.799151      28.799151      28.799151      1.0151609      23885.76      -10241.036      1472.1411    
    553000   553000         301.06113     -504.59683      28.984728      28.984728      28.984728      0.99578654     24350.49      -10286.888      1440.3367    
    554000   554000         301.55528     -455.44389      28.869384      28.869384      28.869384      1.0077699      24060.939     -10217.193      1442.7008    
    555000   555000         295.16606     -438.40364      28.906552      28.906552      28.906552      1.0038876      24153.99      -10205.365      1412.1335    
    556000   556000         295.70461      131.22289      28.919969      28.919969      28.919969      1.002491       24187.638     -10242.237      1414.71      
    557000   557000         308.52262     -562.01264      29.014165      29.014165      29.014165      0.99275875     24424.756     -10188.233      1476.0339    
    558000   558000         288.39575      571.68767      28.872197      28.872197      28.872197      1.0074754      24067.971     -10162.698      1379.743     
    559000   559000         299.5756      -51.779949      28.836477      28.836477      28.836477      1.011224       23978.753     -10133.945      1433.2296    
    560000   560000         298.3319       121.75065      28.81046       28.81046       28.81046       1.0139659      23913.91      -10200.695      1427.2795    
    561000   561000         298.52549      609.31387      28.947599      28.947599      28.947599      0.99962311     24257.032     -10127.946      1428.2057    
    562000   562000         294.5631       312.44562      28.898054      28.898054      28.898054      1.0047734      24132.694     -10173.894      1409.2488    
    563000   563000         296.90147     -22.354458      29.003153      29.003153      29.003153      0.99388994     24396.957     -10205.662      1420.4361    
    564000   564000         309.08896      167.33641      28.892258      28.892258      28.892258      1.0053783      24118.176     -10224.425      1478.7434    
    565000   565000         290.97466     -530.11062      28.895048      28.895048      28.895048      1.0050871      24125.164     -10194.558      1392.081     
    566000   566000         301.97842     -875.24552      28.970899      28.970899      28.970899      0.99721321     24315.653     -10117.845      1444.7252    
    567000   567000         295.68848      59.945876      28.813668      28.813668      28.813668      1.0136273      23921.899     -10178.761      1414.6329    
    568000   568000         311.04817     -129.79145      28.726815      28.726815      28.726815      1.022849       23706.228     -10177.448      1488.1167    
    569000   569000         295.35462      108.66447      28.923262      28.923262      28.923262      1.0021487      24195.901     -10184.258      1413.0356    
    570000   570000         294.56843     -432.43786      28.822837      28.822837      28.822837      1.0126603      23944.743     -10176.442      1409.2743    
    571000   571000         294.24219     -847.61046      28.804224      28.804224      28.804224      1.0146247      23898.384     -10249.702      1407.7135    
    572000   572000         291.17687      209.69294      28.860024      28.860024      28.860024      1.0087508      24037.542     -10160.761      1393.0484    
    573000   573000         301.97926      472.61352      28.745592      28.745592      28.745592      1.0208459      23752.742     -10193.985      1444.7292    
    574000   574000         299.53832     -87.878958      28.870116      28.870116      28.870116      1.0076933      24062.769     -10224.676      1433.0513    
    575000   575000         281.93188     -407.28469      28.920317      28.920317      28.920317      1.0024549      24188.511     -10165.334      1348.8185    
    576000   576000         296.34996     -146.35798      28.799554      28.799554      28.799554      1.0151183      23886.762     -10268.338      1417.7975    
    577000   577000         294.60137      74.519867      28.909838      28.909838      28.909838      1.0035453      24162.227     -10225.25       1409.4319    
    578000   578000         294.92833     -402.40894      28.928183      28.928183      28.928183      1.0016373      24208.255     -10158.021      1410.9961    
    579000   579000         299.15009     -991.69423      29.037587      29.037587      29.037587      0.99035838     24483.955     -10093.99       1431.1939    
    580000   580000         300.32253     -117.56537      29.040431      29.040431      29.040431      0.99006746     24491.149     -10062.849      1436.8031    
    581000   581000         299.1871       205.95412      28.987586      28.987586      28.987586      0.99549203     24357.694     -10170.276      1431.371     
    582000   582000         296.20769     -686.94051      28.964931      28.964931      28.964931      0.99782975     24300.628     -10192.213      1417.1169    
    583000   583000         288.1182      -90.507631      28.910594      28.910594      28.910594      1.0034666      24164.123     -10167.892      1378.4151    
    584000   584000         290.90283     -338.10771      28.977863      28.977863      28.977863      0.99649451     24333.19      -10181.183      1391.7374    
    585000   585000         310.78062      946.8523       28.808814      28.808814      28.808814      1.0141398      23909.81      -10200.767      1486.8367    
    586000   586000         296.23172     -611.93155      28.903108      28.903108      28.903108      1.0042465      24145.358     -10144.157      1417.2318    
    587000   587000         290.70772     -273.93445      28.890692      28.890692      28.890692      1.0055418      24114.253     -10142.385      1390.8039    
    588000   588000         306.92236      906.12338      28.737619      28.737619      28.737619      1.0216958      23732.984     -10175.064      1468.378     
    589000   589000         294.37991     -89.831388      28.819465      28.819465      28.819465      1.0130158      23936.339     -10207.128      1408.3724    
    590000   590000         294.10073      287.52811      28.817407      28.817407      28.817407      1.0132329      23931.212     -10119.208      1407.0368    
    591000   591000         286.07068     -834.92277      28.929855      28.929855      28.929855      1.0014637      24212.451     -10183.106      1368.6194    
    592000   592000         299.18889     -587.25154      28.834017      28.834017      28.834017      1.0114828      23972.618     -10164.702      1431.3795    
    593000   593000         306.36834     -1073.9241      29.047145      29.047145      29.047145      0.98938105     24508.141     -10190.366      1465.7274    
    594000   594000         296.94162      538.07451      28.952177      28.952177      28.952177      0.99914908     24268.541     -10256.734      1420.6281    
    595000   595000         303.46838     -516.15803      28.834016      28.834016      28.834016      1.0114829      23972.615     -10229.877      1451.8535    
    596000   596000         290.81015     -256.75872      28.845671      28.845671      28.845671      1.0102573      24001.697     -10208.665      1391.294     
    597000   597000         304.96739     -691.66666      29.029079      29.029079      29.029079      0.99122945     24462.439     -10137.541      1459.025     
    598000   598000         314.97241     -360.14479      28.896867      28.896867      28.896867      1.0048973      24129.72      -10137.921      1506.891     
    599000   599000         299.12672      771.57185      28.858056      28.858056      28.858056      1.0089572      24032.625     -10165.901      1431.0821    
    600000   600000         306.52594      620.45607      28.822429      28.822429      28.822429      1.0127033      23943.725     -10151.829      1466.4815    
    601000   601000         297.60683      93.271951      28.913974      28.913974      28.913974      1.0031147      24172.599     -10177.387      1423.8106    
    602000   602000         301.04144      821.74356      28.894893      28.894893      28.894893      1.0051033      24124.775     -10115.212      1440.2425    
    603000   603000         303.38209     -135.0193       28.918252      28.918252      28.918252      1.0026696      24183.331     -10194.2        1451.4406    
    604000   604000         291.40233      560.62914      28.825159      28.825159      28.825159      1.0124155      23950.531     -10160.663      1394.1271    
    605000   605000         292.92533      185.97538      28.867221      28.867221      28.867221      1.0079965      24055.529     -10142.195      1401.4134    
    606000   606000         297.00432     -375.42466      28.913517      28.913517      28.913517      1.0031622      24171.454     -10245.339      1420.9281    
    607000   607000         302.8205      -164.54148      29.015651      29.015651      29.015651      0.99260625     24428.508     -10149.208      1448.7539    
    608000   608000         296.85323      76.579993      29.061293      29.061293      29.061293      0.98793676     24543.97      -10107.672      1420.2053    
    609000   609000         286.75245      494.30289      28.867236      28.867236      28.867236      1.0079949      24055.569     -10207.58       1371.8811    
    610000   610000         302.5646       74.04965       28.956966      28.956966      28.956966      0.99865341     24280.586     -10206.84       1447.5296    
    611000   611000         293.65991      205.49283      28.813625      28.813625      28.813625      1.0136319      23921.791     -10156.654      1404.9278    
    612000   612000         298.53467     -426.2729       29.011371      29.011371      29.011371      0.99304566     24417.699     -10204.085      1428.2496    
    613000   613000         300.38237      13.231681      29.106354      29.106354      29.106354      0.98335549     24658.316     -10157.452      1437.0894    
    614000   614000         297.95338      644.78528      28.976764      28.976764      28.976764      0.9966079      24330.421     -10178.838      1425.4686    
    615000   615000         299.36415      167.13738      29.014264      29.014264      29.014264      0.99274863     24425.005     -10141.125      1432.218     
    616000   616000         294.5283      -447.56249      28.826043      28.826043      28.826043      1.0123225      23952.733     -10161.615      1409.0823    
    617000   617000         307.93651      391.84639      28.867464      28.867464      28.867464      1.007971       24056.139     -10137.528      1473.2299    
    618000   618000         292.72274     -256.11939      28.896625      28.896625      28.896625      1.0049226      24129.112     -10212.85       1400.4442    
    619000   619000         288.60873     -197.7462       28.852086      28.852086      28.852086      1.0095836      24017.714     -10212.492      1380.7619    
    620000   620000         304.89317     -14.571944      28.798017      28.798017      28.798017      1.0152808      23882.939     -10183.134      1458.6699    
    621000   621000         289.97519      428.24079      28.948141      28.948141      28.948141      0.999567       24258.394     -10093.702      1387.2993    
    622000   622000         289.69943      123.8499       28.812771      28.812771      28.812771      1.013722       23919.665     -10189.877      1385.9801    
    623000   623000         301.21482     -183.93353      28.929439      28.929439      28.929439      1.0015068      24211.408     -10214.204      1441.072     
    624000   624000         303.22104     -13.759119      28.873744      28.873744      28.873744      1.0073135      24071.841     -10137.26       1450.6701    
    625000   625000         296.57259     -369.84716      28.921819      28.921819      28.921819      1.0022986      24192.281     -10228.515      1418.8626    
    626000   626000         295.87679     -738.48508      29.033278      29.033278      29.033278      0.99079938     24473.057     -10178.324      1415.5338    
    627000   627000         292.48855     -813.81484      28.969079      28.969079      28.969079      0.99740117     24311.07      -10075.659      1399.3237    
    628000   628000         303.05484      276.6749       28.758537      28.758537      28.758537      1.019468       23784.847     -10206.48       1449.875     
    629000   629000         296.75113     -870.92327      29.013168      29.013168      29.013168      0.99286107     24422.239     -10171.24       1419.7168    
    630000   630000         298.05289     -703.19063      28.818955      28.818955      28.818955      1.0130696      23935.069     -10224.368      1425.9447    
    631000   631000         297.50513     -797.45567      29.017039      29.017039      29.017039      0.99246378     24432.015     -10119.894      1423.3241    
    632000   632000         292.99063     -1192.315       29.070393      29.070393      29.070393      0.98700929     24567.033     -10166.713      1401.7258    
    633000   633000         297.33412     -183.37455      28.910284      28.910284      28.910284      1.0034988      24163.347     -10173.067      1422.5059    
    634000   634000         299.41177     -736.01226      28.84169       28.84169       28.84169       1.0106757      23991.761     -10124.959      1432.4459    
    635000   635000         293.1644       2.0078803      29.059429      29.059429      29.059429      0.98812695     24539.246     -10164.638      1402.5572    
    636000   636000         292.57051     -335.10848      28.945287      28.945287      28.945287      0.99986268     24251.22      -10142.709      1399.7159    
    637000   637000         285.99943     -387.70771      28.887935      28.887935      28.887935      1.0058297      24107.351     -10160.604      1368.2785    
    638000   638000         290.85395      162.21227      28.979438      28.979438      28.979438      0.99633205     24337.158     -10140.769      1391.5035    
    639000   639000         306.08226     -38.14996       28.888963      28.888963      28.888963      1.0057224      24109.924     -10182.886      1464.3588    
    640000   640000         297.49516      213.32483      28.834645      28.834645      28.834645      1.0114167      23974.185     -10157.39       1423.2764    
    641000   641000         291.96677     -378.55422      28.905841      28.905841      28.905841      1.0039617      24152.207     -10154.196      1396.8275    
    642000   642000         298.42828      128.90125      28.856729      28.856729      28.856729      1.0090964      24029.31      -10211.857      1427.7406    
    643000   643000         302.79387      353.95787      28.802225      28.802225      28.802225      1.014836       23893.408     -10224.124      1448.6265    
    644000   644000         283.75298     -419.3125       28.891623      28.891623      28.891623      1.0054446      24116.586     -10230          1357.5311    
    645000   645000         290.53597      545.1382       28.814136      28.814136      28.814136      1.0135779      23923.065     -10237.268      1389.9822    
    646000   646000         289.76309     -242.66985      28.97006       28.97006       28.97006       0.99729987     24313.54      -10261.762      1386.2846    
    647000   647000         297.4606      -494.386        28.963751      28.963751      28.963751      0.99795173     24297.658     -10223.269      1423.1111    
    648000   648000         310.66375     -218.12512      28.920995      28.920995      28.920995      1.0023843      24190.214     -10132.244      1486.2776    
    649000   649000         301.32274     -835.65394      28.912085      28.912085      28.912085      1.0033113      24167.862     -10179.194      1441.5883    
    650000   650000         299.97273      122.91976      28.950059      28.950059      28.950059      0.99936839     24263.215     -10155.848      1435.1296    
    651000   651000         294.36525      42.595599      28.936266      28.936266      28.936266      1.0007982      24228.551     -10251.254      1408.3023    
    652000   652000         297.22299      1210.4949      28.753182      28.753182      28.753182      1.0200376      23771.564     -10244.851      1421.9743    
    653000   653000         300.81001     -182.97565      28.904853      28.904853      28.904853      1.0040646      24149.731     -10210.479      1439.1353    
    654000   654000         297.76482      494.93854      28.755745      28.755745      28.755745      1.0197649      23777.921     -10236.224      1424.5665    
    655000   655000         295.70988     -102.61266      28.909823      28.909823      28.909823      1.0035469      24162.19      -10200.746      1414.7352    
    656000   656000         299.51301     -606.3398       28.872918      28.872918      28.872918      1.0073999      24069.776     -10179.747      1432.9302    
    657000   657000         297.95177     -468.79468      28.917871      28.917871      28.917871      1.0027093      24182.374     -10136.713      1425.4609    
    658000   658000         293.46155     -445.26285      29.067265      29.067265      29.067265      0.98732794     24559.105     -10168.368      1403.9788    
    659000   659000         305.86294     -12.796842      28.975646      28.975646      28.975646      0.99672324     24327.606     -10178.494      1463.3095    
    660000   660000         303.10673      470.86283      28.884367      28.884367      28.884367      1.0062025      24098.42      -10258.485      1450.1232    
    661000   661000         301.99274     -27.983262      28.975247      28.975247      28.975247      0.99676436     24326.602     -10210.752      1444.7937    
    662000   662000         293.01136     -110.27323      28.905067      28.905067      28.905067      1.0040423      24150.268     -10196.196      1401.825     
    663000   663000         291.36074     -227.78591      28.957136      28.957136      28.957136      0.99863577     24281.015     -10143.259      1393.9281    
    664000   664000         297.68391      620.98962      28.742832      28.742832      28.742832      1.02114        23745.902     -10217.287      1424.1794    
    665000   665000         301.53446      76.783013      28.744213      28.744213      28.744213      1.0209928      23749.325     -10141.874      1442.6012    
    666000   666000         309.53881     -511.67765      28.944292      28.944292      28.944292      0.99996581     24248.719     -10169.721      1480.8956    
    667000   667000         283.95184     -22.847884      28.844501      28.844501      28.844501      1.0103802      23998.777     -10145.197      1358.4824    
    668000   668000         301.18967      1326.4692      28.722552      28.722552      28.722552      1.0233045      23695.674     -10181.19       1440.9517    
    669000   669000         302.0695       683.39155      28.719507      28.719507      28.719507      1.02363        23688.139     -10218.748      1445.161     
    670000   670000         302.30618      252.26537      28.819582      28.819582      28.819582      1.0130034      23936.632     -10151.779      1446.2933    
    671000   671000         296.91958      258.84254      28.824334      28.824334      28.824334      1.0125025      23948.475     -10167.046      1420.5227    
    672000   672000         295.84359     -395.46999      28.8362        28.8362        28.8362        1.0112531      23978.063     -10167.794      1415.375     
    673000   673000         293.8569      -609.90272      28.791967      28.791967      28.791967      1.015921       23867.888     -10240.271      1405.8702    
    674000   674000         293.71744     -244.90127      28.82736       28.82736       28.82736       1.0121837      23956.016     -10219.03       1405.203     
    675000   675000         296.01033      635.19195      28.860742      28.860742      28.860742      1.0086755      24039.336     -10213.988      1416.1727    
    676000   676000         302.53075      171.13611      28.923709      28.923709      28.923709      1.0021021      24197.024     -10215.791      1447.3676    
    677000   677000         306.867       -368.86709      29.025768      29.025768      29.025768      0.99156867     24454.071     -10167.041      1468.1132    
    678000   678000         303.06196      311.03967      28.91186       28.91186       28.91186       1.0033348      24167.298     -10213.664      1449.9091    
    679000   679000         303.74101     -192.50603      29.032679      29.032679      29.032679      0.99086073     24471.542     -10165.21       1453.1578    
    680000   680000         303.3376       456.06218      28.935513      28.935513      28.935513      1.0008763      24226.661     -10189.13       1451.2278    
    681000   681000         292.06708     -399.1603       29.129935      29.129935      29.129935      0.98096926     24718.297     -10202.714      1397.3074    
    682000   682000         289.85118     -77.977595      29.027653      29.027653      29.027653      0.99137555     24458.834     -10118.632      1386.7061    
    683000   683000         297.08507     -275.54322      28.989059      28.989059      28.989059      0.99534038     24361.405     -10253.908      1421.3144    
    684000   684000         297.51806      244.63134      28.86937       28.86937       28.86937       1.0077715      24060.902     -10154.184      1423.386     
    685000   685000         303.45556      236.73692      28.950288      28.950288      28.950288      0.99934465     24263.791     -10208.556      1451.7921    
    686000   686000         291.87918      173.79943      28.867104      28.867104      28.867104      1.0080087      24055.238     -10229.311      1396.4084    
    687000   687000         300.65209     -94.274857      28.817316      28.817316      28.817316      1.0132425      23930.985     -10215.239      1438.3798    
    688000   688000         291.66934     -43.432685      28.771716      28.771716      28.771716      1.0180677      23817.561     -10272.042      1395.4045    
    689000   689000         302.97485      377.50562      28.787978      28.787978      28.787978      1.0163434      23857.969     -10180.229      1449.4923    
    690000   690000         299.51575      544.57581      28.835699      28.835699      28.835699      1.0113058      23976.813     -10140.621      1432.9433    
    691000   691000         301.95397     -96.856627      28.874883      28.874883      28.874883      1.0071943      24074.689     -10202.689      1444.6082    
    692000   692000         305.36782     -1081.7946      28.924171      28.924171      28.924171      1.0020542      24198.183     -10226.024      1460.9408    
    693000   693000         293.1356      -547.19181      28.931478      28.931478      28.931478      1.0012951      24216.527     -10166.439      1402.4194    
    694000   694000         297.64765     -410.75328      28.932879      28.932879      28.932879      1.0011496      24220.047     -10160.832      1424.0059    
    695000   695000         291.98965      992.01451      28.815949      28.815949      28.815949      1.0133866      23927.58      -10187.405      1396.9369    
    696000   696000         292.38385      621.18724      28.839993      28.839993      28.839993      1.0108542      23987.525     -10183.034      1398.8229    
    697000   697000         286.3968      -85.811172      28.870182      28.870182      28.870182      1.0076863      24062.934     -10151.985      1370.1796    
    698000   698000         299.6638      -20.345651      28.933201      28.933201      28.933201      1.0011162      24220.854     -10250.175      1433.6516    
    699000   699000         300.48242      187.93261      28.863448      28.863448      28.863448      1.0083918      24046.099     -10210.373      1437.568     
    700000   700000         295.85297     -554.6655       28.81193       28.81193       28.81193       1.0138107      23917.571     -10230.361      1415.4198    
    701000   701000         301.21214      10.420833      28.922493      28.922493      28.922493      1.0022286      24193.971     -10201.06       1441.0592    
    702000   702000         302.07348      156.21233      28.944319      28.944319      28.944319      0.99996302     24248.787     -10181.106      1445.18      
    703000   703000         290.94004      648.18118      28.835739      28.835739      28.835739      1.0113016      23976.912     -10251.111      1391.9154    
    704000   704000         290.187       -139.80973      28.810758      28.810758      28.810758      1.0139345      23914.65      -10169.918      1388.3127    
    705000   705000         294.99529     -919.73717      28.881108      28.881108      28.881108      1.0065431      24090.265     -10186.699      1411.3165    
    706000   706000         301.52317     -943.34325      28.810082      28.810082      28.810082      1.0140059      23912.968     -10243.353      1442.5472    
    707000   707000         296.79902      548.26088      28.957921      28.957921      28.957921      0.99855463     24282.988     -10154.303      1419.9459    
    708000   708000         302.38914     -417.06386      28.893318      28.893318      28.893318      1.0052676      24120.831     -10251.509      1446.6902    
    709000   709000         290.94169     -442.2006       29.081042      29.081042      29.081042      0.98592546     24594.04      -10203.864      1391.9233    
    710000   710000         294.40008     -140.44082      29.006569      29.006569      29.006569      0.99353889     24405.577     -10217.143      1408.4689    
    711000   711000         302.0229      -134.07658      28.964111      28.964111      28.964111      0.99791451     24298.564     -10202.376      1444.938     
    712000   712000         296.38717      535.18667      28.824222      28.824222      28.824222      1.0125143      23948.195     -10182.298      1417.9755    
    713000   713000         294.63964     -469.72663      29.00955       29.00955       29.00955       0.99323266     24413.102     -10248.886      1409.615     
    714000   714000         307.54244      583.68732      28.93005       28.93005       28.93005       1.0014434      24212.941     -10255.576      1471.3446    
    715000   715000         293.05746      337.26835      28.840441      28.840441      28.840441      1.010807       23988.644     -10279.617      1402.0455    
    716000   716000         305.60533      128.67396      29.000472      29.000472      29.000472      0.99416564     24390.191     -10250.714      1462.0771    
    717000   717000         309.3658       400.65584      29.04492       29.04492       29.04492       0.98960847     24502.509     -10135.15       1480.0679    
    718000   718000         308.23827      70.533089      28.813536      28.813536      28.813536      1.0136413      23921.569     -10174.062      1474.6736    
    719000   719000         301.16187      196.8244       28.916962      28.916962      28.916962      1.0028038      24180.094     -10229.494      1440.8187    
    720000   720000         299.45348      606.29795      28.808815      28.808815      28.808815      1.0141396      23909.814     -10130.061      1432.6454    
    721000   721000         295.55083     -399.34036      28.845883      28.845883      28.845883      1.0102351      24002.226     -10273.194      1413.9743    
    722000   722000         297.33737     -59.090231      28.795401      28.795401      28.795401      1.0155576      23876.431     -10256.528      1422.5215    
    723000   723000         292.65667     -846.02495      28.862685      28.862685      28.862685      1.0084718      24044.193     -10214.488      1400.1281    
    724000   724000         292.93452     -409.67694      28.929147      28.929147      28.929147      1.0015371      24210.675     -10171.567      1401.4574    
    725000   725000         296.97683     -481.86493      28.992505      28.992505      28.992505      0.99498541     24370.096     -10209.083      1420.7966    
    726000   726000         311.24803      774.9961       28.927132      28.927132      28.927132      1.0017465      24205.614     -10189.284      1489.0729    
    727000   727000         296.78148     -126.54096      28.866066      28.866066      28.866066      1.0081175      24052.643     -10150.929      1419.862     
    728000   728000         305.31105     -243.6618       28.895697      28.895697      28.895697      1.0050194      24126.789     -10195.341      1460.6692    
    729000   729000         301.60982      569.22957      28.962952      28.962952      28.962952      0.99803436     24295.646     -10132.264      1442.9618    
    730000   730000         307.88471      832.66413      28.750444      28.750444      28.750444      1.0203292      23764.772     -10173.398      1472.9821    
    731000   731000         291.12776      119.96129      28.851671      28.851671      28.851671      1.0096272      24016.676     -10218.71       1392.8135    
    732000   732000         306.8908       615.2829       28.85629       28.85629       28.85629       1.0091425      24028.213     -10202.707      1468.227     
    733000   733000         301.25557      573.79747      28.659446      28.659446      28.659446      1.0300791      23539.832     -10286.387      1441.2669    
    734000   734000         290.99104      365.32832      28.764014      28.764014      28.764014      1.0188857      23798.44      -10153.865      1392.1593    
    735000   735000         293.60346      583.43032      28.786682      28.786682      28.786682      1.0164807      23854.748     -10246.523      1404.6577    
    736000   736000         306.58862     -84.841231      28.853662      28.853662      28.853662      1.0094182      24021.65      -10213.296      1466.7813    
    737000   737000         300.44472      550.82255      28.821893      28.821893      28.821893      1.0127597      23942.391     -10197.036      1437.3877    
    738000   738000         294.90377     -21.31788       29.023853      29.023853      29.023853      0.99176492     24449.231     -10145.823      1410.8787    
    739000   739000         298.0719       47.532294      28.866674      28.866674      28.866674      1.0080538      24054.163     -10172.502      1426.0356    
    740000   740000         303.14875      904.98898      28.858279      28.858279      28.858279      1.0089338      24033.182     -10155.91       1450.3243    
    741000   741000         301.20932     -390.73174      29.099281      29.099281      29.099281      0.9840727      24640.344     -10226.351      1441.0456    
    742000   742000         299.97426     -367.48152      29.096567      29.096567      29.096567      0.98434811     24633.45      -10241.042      1435.1369    
    743000   743000         294.85045      175.69466      28.892645      28.892645      28.892645      1.0053379      24119.144     -10198.876      1410.6235    
    744000   744000         303.29131      222.06867      28.959492      28.959492      28.959492      0.99839211     24286.941     -10218.271      1451.0063    
    745000   745000         292.87476     -393.35176      28.852242      28.852242      28.852242      1.0095673      24018.103     -10185.379      1401.1715    
    746000   746000         298.73024      406.31842      28.874408      28.874408      28.874408      1.007244       24073.501     -10206.77       1429.1852    
    747000   747000         302.1171       597.02281      28.954236      28.954236      28.954236      0.99893587     24273.72      -10102.429      1445.3887    
    748000   748000         296.05987     -644.53584      29.095256      29.095256      29.095256      0.98448117     24630.121     -10151.236      1416.4097    
    749000   749000         292.39122     -152.40338      28.977914      28.977914      28.977914      0.99648917     24333.32      -10175.588      1398.8581    
    750000   750000         299.63283      35.711962      28.962978      28.962978      28.962978      0.9980316      24295.714     -10124.294      1433.5034    
    751000   751000         303.22666     -407.3037       28.905397      28.905397      28.905397      1.0040079      24151.095     -10240.075      1450.697     
    752000   752000         298.03321     -733.67326      29.10063       29.10063       29.10063       0.98393588     24643.771     -10220.56       1425.8505    
    753000   753000         293.83824     -464.79954      28.875044      28.875044      28.875044      1.0071774      24075.092     -10094.768      1405.7809    
    754000   754000         293.5683       187.67758      28.8253        28.8253        28.8253        1.0124007      23950.883     -10219.891      1404.4895    
    755000   755000         299.99928      348.94086      28.882232      28.882232      28.882232      1.0064256      24093.077     -10192.479      1435.2566    
    756000   756000         294.58663      382.3803       28.779051      28.779051      28.779051      1.0172894      23835.783     -10220.471      1409.3614    
    757000   757000         294.86263      1002.0736      28.834833      28.834833      28.834833      1.0113969      23974.654     -10267.182      1410.6818    
    758000   758000         291.51901     -16.426415      28.858665      28.858665      28.858665      1.0088933      24034.148     -10160.713      1394.6853    
    759000   759000         298.75037      56.266225      28.768846      28.768846      28.768846      1.0183724      23810.435     -10246.412      1429.2816    
    760000   760000         302.05702     -700.22202      28.931392      28.931392      28.931392      1.0013041      24216.31      -10148.52       1445.1013    
    761000   761000         294.67357      186.82602      29.07525       29.07525       29.07525       0.98651475     24579.349     -10132.191      1409.7773    
    762000   762000         296.10466     -395.0045       28.954123      28.954123      28.954123      0.99894761     24273.435     -10157.036      1416.624     
    763000   763000         294.93683     -76.962548      28.833917      28.833917      28.833917      1.0114934      23972.367     -10250.388      1411.0368    
    764000   764000         310.17856      419.06207      28.852773      28.852773      28.852773      1.0095116      24019.428     -10190.338      1483.9563    
    765000   765000         294.08011      429.70659      28.87183       28.87183       28.87183       1.0075138      24067.055     -10172.21       1406.9381    
    766000   766000         290.75887      36.499687      28.849525      28.849525      28.849525      1.0098525      24011.319     -10162.45       1391.0486    
    767000   767000         308.56784     -498.05947      28.931872      28.931872      28.931872      1.0012542      24217.516     -10118.017      1476.2503    
    768000   768000         303.68762     -295.07772      28.885792      28.885792      28.885792      1.0060536      24101.987     -10268.003      1452.9024    
    769000   769000         295.17616     -843.99757      28.990866      28.990866      28.990866      0.99515424     24365.962     -10243.02       1412.1818    
    770000   770000         293.72527      422.32818      28.912326      28.912326      28.912326      1.0032862      24168.468     -10152.473      1405.2405    
    771000   771000         278.27124     -507.44649      29.017432      29.017432      29.017432      0.99242343     24433.008     -10190.207      1331.3053    
    772000   772000         299.71439      516.27476      28.929286      28.929286      28.929286      1.0015227      24211.023     -10131.587      1433.8936    
    773000   773000         306.26997     -45.593484      28.83265       28.83265       28.83265       1.0116267      23969.207     -10212.321      1465.2568    
    774000   774000         298.08001      937.16553      28.772586      28.772586      28.772586      1.0179754      23819.722     -10143.346      1426.0744    
    775000   775000         305.95656      984.01444      28.760476      28.760476      28.760476      1.0192618      23789.658     -10184.64       1463.7574    
    776000   776000         297.68742      549.12675      28.844887      28.844887      28.844887      1.0103397      23999.74      -10178.064      1424.1962    
    777000   777000         300.58462     -63.370332      28.928823      28.928823      28.928823      1.0015708      24209.861     -10192.266      1438.057     
    778000   778000         295.31189      65.924056      28.966346      28.966346      28.966346      0.99768357     24304.189     -10159.866      1412.8312    
    779000   779000         297.25987      88.566586      29.036496      29.036496      29.036496      0.99047007     24481.194     -10205.178      1422.1507    
    780000   780000         303.51607      671.74074      28.978833      28.978833      28.978833      0.99639436     24335.636     -10198.504      1452.0816    
    781000   781000         301.05595      703.02009      28.783367      28.783367      28.783367      1.0168319      23846.508     -10227.207      1440.3119    
    782000   782000         300.72947     -217.11488      28.979469      28.979469      28.979469      0.99632881     24337.237     -10177.435      1438.75      
    783000   783000         293.66513     -666.63253      28.899713      28.899713      28.899713      1.0046004      24136.85      -10215.977      1404.9527    
    784000   784000         295.68591      883.32981      28.748299      28.748299      28.748299      1.0205576      23759.453     -10203.195      1414.6206    
    785000   785000         289.09376     -1472.8162      28.901277      28.901277      28.901277      1.0044374      24140.769     -10123.021      1383.0824    
    786000   786000         290.66438      151.41985      28.964985      28.964985      28.964985      0.99782418     24300.764     -10213.046      1390.5966    
    787000   787000         298.63589     -273.22866      28.899632      28.899632      28.899632      1.0046089      24136.646     -10148.597      1428.7338    
    788000   788000         312.43666      205.15179      28.650079      28.650079      28.650079      1.0310898      23516.758     -10282.239      1494.7595    
    789000   789000         294.47479      806.74453      28.674127      28.674127      28.674127      1.0284977      23576.028     -10232.361      1408.8263    
    790000   790000         302.95694      754.1286       28.913296      28.913296      28.913296      1.0031853      24170.899     -10190.602      1449.4067    
    791000   791000         289.59127      636.00343      28.842341      28.842341      28.842341      1.0106073      23993.385     -10200.45       1385.4626    
    792000   792000         299.30052     -27.644541      28.906517      28.906517      28.906517      1.0038912      24153.902     -10213.982      1431.9136    
    793000   793000         301.43094     -128.23604      28.846466      28.846466      28.846466      1.0101738      24003.681     -10206.643      1442.1059    
    794000   794000         289.01313     -210.33175      28.855559      28.855559      28.855559      1.0092191      24026.387     -10183.401      1382.6967    
    795000   795000         298.27761      692.77754      28.841209      28.841209      28.841209      1.0107263      23990.561     -10255.265      1427.0198    
    796000   796000         306.33841     -841.17469      29.058473      29.058473      29.058473      0.98822446     24536.824     -10236.772      1465.5843    
    797000   797000         306.73607      56.699387      28.976675      28.976675      28.976675      0.99661702     24330.199     -10195.763      1467.4867    
    798000   798000         298.3387       307.18328      28.894263      28.894263      28.894263      1.005169       24123.196     -10213.093      1427.312     
    799000   799000         297.73762     -204.75233      28.886455      28.886455      28.886455      1.0059843      24103.646     -10250.575      1424.4363    
    800000   800000         306.33082     -196.08466      28.98155       28.98155       28.98155       0.99611421     24342.48      -10221.89       1465.5479    
    801000   801000         297.61462      521.68009      28.803888      28.803888      28.803888      1.0146602      23897.547     -10202.691      1423.8479    
    802000   802000         306.77484      458.61396      28.970121      28.970121      28.970121      0.99729357     24313.693     -10203.898      1467.6722    
    803000   803000         294.36738     -297.61971      28.891499      28.891499      28.891499      1.0054575      24116.275     -10209.885      1408.3124    
    804000   804000         293.82314     -57.074868      28.980423      28.980423      28.980423      0.99623038     24339.641     -10235.021      1405.7087    
    805000   805000         303.48455     -561.90696      28.998481      28.998481      28.998481      0.99437042     24385.168     -10191.31       1451.9308    
    806000   806000         295.42968      139.30599      28.948974      28.948974      28.948974      0.99948075     24260.487     -10194.197      1413.3947    
    807000   807000         290.27374     -305.1896       28.843473      28.843473      28.843473      1.0104883      23996.21      -10161.263      1388.7277    
    808000   808000         309.36112      68.139434      28.837778      28.837778      28.837778      1.0110872      23981.998     -10213.515      1480.0455    
    809000   809000         297.39082     -491.4706       28.909095      28.909095      28.909095      1.0036227      24160.365     -10257.981      1422.7772    
    810000   810000         301.3411       29.890522      28.897692      28.897692      28.897692      1.0048112      24131.787     -10095.454      1441.6761    
    811000   811000         302.86568     -1032.7411      28.868879      28.868879      28.868879      1.0078228      24059.675     -10199.433      1448.97      
    812000   812000         295.49139     -12.28481       28.893257      28.893257      28.893257      1.005274       24120.678     -10190.429      1413.6899    
    813000   813000         299.157        737.94483      29.043778      29.043778      29.043778      0.98972516     24499.62      -10211.908      1431.2269    
    814000   814000         299.55583      335.98072      28.919926      28.919926      28.919926      1.0024954      24187.531     -10198.219      1433.135     
    815000   815000         298.67058     -1154.6263      29.018964      29.018964      29.018964      0.9922663      24436.877     -10244.676      1428.8998    
    816000   816000         297.79607      622.27178      28.926007      28.926007      28.926007      1.0018634      24202.791     -10234.734      1424.716     
    817000   817000         295.99887      393.44214      29.019015      29.019015      29.019015      0.99226104     24437.007     -10195.25       1416.1178    
    818000   818000         294.55276     -73.470085      28.85119       28.85119       28.85119       1.0096777      24015.475     -10135.218      1409.1994    
    819000   819000         304.126        439.08878      28.757964      28.757964      28.757964      1.019529       23783.424     -10157.585      1454.9997    
    820000   820000         297.17244      130.30472      28.758655      28.758655      28.758655      1.0194554      23785.14      -10093.346      1421.7324    
    821000   821000         294.82971     -231.5573       28.860278      28.860278      28.860278      1.0087242      24038.177     -10194.846      1410.5243    
    822000   822000         295.06235     -758.59896      28.908853      28.908853      28.908853      1.0036479      24159.758     -10229.724      1411.6373    
    823000   823000         291.33985     -30.595483      28.841938      28.841938      28.841938      1.0106497      23992.379     -10242.539      1393.8282    
    824000   824000         296.92837      253.78606      28.805608      28.805608      28.805608      1.0144784      23901.829     -10186.871      1420.5647    
    825000   825000         289.78369     -66.856568      28.91484       28.91484       28.91484       1.0030246      24174.772     -10210.829      1386.3832    
    826000   826000         306.09275     -574.05194      28.94203       28.94203       28.94203       1.0002004      24243.033     -10179.066      1464.409     
    827000   827000         292.4514       743.49731      28.783291      28.783291      28.783291      1.0168399      23846.319     -10131.432      1399.146     
    828000   828000         303.36167      537.75595      28.696643      28.696643      28.696643      1.0260787      23631.609     -10141.7        1451.3429    
    829000   829000         298.48736      116.26625      28.862579      28.862579      28.862579      1.0084829      24043.927     -10236.373      1428.0233    
    830000   830000         299.39611      808.43643      28.880339      28.880339      28.880339      1.0066236      24088.339     -10290.038      1432.3709    
    831000   831000         303.57984      547.82539      28.81532       28.81532       28.81532       1.013453       23926.012     -10213.026      1452.3867    
    832000   832000         303.1774      -328.33423      28.994642      28.994642      28.994642      0.99476545     24375.485     -10204.863      1450.4613    
    833000   833000         301.64705     -93.663546      28.903769      28.903769      28.903769      1.0041776      24147.015     -10145.891      1443.1399    
    834000   834000         289.13283      142.41235      28.863417      28.863417      28.863417      1.0083951      24046.022     -10150.488      1383.2693    
    835000   835000         301.4777      -862.7957       28.937516      28.937516      28.937516      1.0006685      24231.691     -10164.187      1442.3297    
    836000   836000         292.76266     -62.186078      28.793632      28.793632      28.793632      1.0157448      23872.03      -10185.813      1400.6352    
    837000   837000         293.8703       226.41006      28.826134      28.826134      28.826134      1.0123128      23952.961     -10203.347      1405.9343    
    838000   838000         306.95106      435.82539      29.000438      29.000438      29.000438      0.99416914     24390.105     -10176.419      1468.5153    
    839000   839000         303.95082     -972.12902      28.989292      28.989292      28.989292      0.99531628     24361.995     -10198.111      1454.1615    
    840000   840000         287.16803     -510.38742      28.856933      28.856933      28.856933      1.009075       24029.82      -10196.341      1373.8693    
    841000   841000         309.95514      117.82461      28.801386      28.801386      28.801386      1.0149246      23891.322     -10201.088      1482.8874    
    842000   842000         299.99561      110.43501      28.806223      28.806223      28.806223      1.0144135      23903.359     -10212.878      1435.239     
    843000   843000         312.51375     -829.16428      28.923578      28.923578      28.923578      1.0021158      24196.695     -10179.119      1495.1283    
    844000   844000         290.23199      477.9034       28.846122      28.846122      28.846122      1.01021        24002.821     -10215.393      1388.5279    
    845000   845000         299.34282      327.06844      28.82392       28.82392       28.82392       1.0125461      23947.443     -10201.004      1432.116     
    846000   846000         300.90497     -22.276817      28.980491      28.980491      28.980491      0.99622339     24339.812     -10190.74       1439.5896    
    847000   847000         311.94028      594.7604       28.913009      28.913009      28.913009      1.0032151      24170.181     -10150.117      1492.3847    
    848000   848000         307.964        514.21424      28.839852      28.839852      28.839852      1.010869       23987.173     -10216.57       1473.3614    
    849000   849000         290.28622     -357.6538       28.861073      28.861073      28.861073      1.0086408      24040.163     -10208.046      1388.7874    
    850000   850000         296.24917      773.95355      28.746611      28.746611      28.746611      1.0207373      23755.269     -10229.832      1417.3153    
    851000   851000         286.60982     -697.5829       28.845442      28.845442      28.845442      1.0102814      24001.124     -10192.244      1371.1988    
    852000   852000         295.94547     -259.76445      28.84719       28.84719       28.84719       1.0100977      24005.489     -10230.919      1415.8623    
    853000   853000         303.36674      546.35031      28.801373      28.801373      28.801373      1.014926       23891.29      -10231.619      1451.3672    
    854000   854000         297.39341     -124.15367      29.021438      29.021438      29.021438      0.99201257     24443.128     -10239.615      1422.7896    
    855000   855000         288.20498     -112.35783      28.878707      28.878707      28.878707      1.0067943      24084.255     -10180.104      1378.8303    
    856000   856000         296.1576      -126.36236      28.939036      28.939036      28.939036      1.0005108      24235.512     -10191.761      1416.8772    
    857000   857000         295.28897      170.07618      28.920614      28.920614      28.920614      1.002424       24189.256     -10274.745      1412.7215    
    858000   858000         292.91719     -520.34956      28.837815      28.837815      28.837815      1.0110833      23982.09      -10135.667      1401.3745    
    859000   859000         302.99092      11.816398      28.905811      28.905811      28.905811      1.0039648      24152.132     -10171.195      1449.5692    
    860000   860000         293.6608      -329.84858      29.02299       29.02299       29.02299       0.99185339     24447.051     -10261.477      1404.9321    
    861000   861000         300.57691      296.03219      28.966195      28.966195      28.966195      0.9976992      24303.808     -10197.917      1438.0201    
    862000   862000         305.97847     -432.66578      28.920015      28.920015      28.920015      1.0024862      24187.755     -10185.273      1463.8622    
    863000   863000         295.22368     -621.8019       28.906462      28.906462      28.906462      1.003897       24153.764     -10187.957      1412.4092    
    864000   864000         302.8765       270.47167      28.929367      28.929367      28.929367      1.0015143      24211.227     -10173.82       1449.0218    
    865000   865000         305.39658      278.58961      28.862867      28.862867      28.862867      1.0084527      24044.648     -10201.412      1461.0783    
    866000   866000         291.30199      143.35573      28.845346      28.845346      28.845346      1.0102915      24000.885     -10260.967      1393.647     
    867000   867000         309.44603      132.63227      28.781439      28.781439      28.781439      1.0170363      23841.716     -10180.165      1480.4517    
    868000   868000         294.61356     -96.319715      28.796892      28.796892      28.796892      1.0153998      23880.14      -10191.844      1409.4902    
    869000   869000         289.74624     -990.71903      28.901303      28.901303      28.901303      1.0044346      24140.835     -10168.203      1386.204     
    870000   870000         295.12526     -674.56823      28.910266      28.910266      28.910266      1.0035008      24163.3       -10209.83       1411.9383    
    871000   871000         296.69944      499.22134      28.788322      28.788322      28.788322      1.016307       23858.824     -10118.853      1419.4695    
    872000   872000         299.01343     -119.74205      28.754404      28.754404      28.754404      1.0199077      23774.593     -10200.657      1430.5401    
    873000   873000         301.39729      212.99571      28.879337      28.879337      28.879337      1.0067284      24085.832     -10164.438      1441.9449    
    874000   874000         303.49422      1004.3423      28.828323      28.828323      28.828323      1.0120823      23958.418     -10220.749      1451.9771    
    875000   875000         297.19019     -674.65724      28.830498      28.830498      28.830498      1.0118533      23963.84      -10258.244      1421.8174    
    876000   876000         292.79936     -264.62532      28.918038      28.918038      28.918038      1.0026918      24182.794     -10237.729      1400.8107    
    877000   877000         292.92519      563.86852      28.889355      28.889355      28.889355      1.0056814      24110.905     -10187.801      1401.4128    
    878000   878000         287.31217     -468.47658      28.946812      28.946812      28.946812      0.9997047      24255.053     -10162.823      1374.5589    
    879000   879000         294.64095      269.3275       28.879122      28.879122      28.879122      1.0067509      24085.293     -10162.441      1409.6213    
    880000   880000         301.83466      230.31421      28.863543      28.863543      28.863543      1.0083819      24046.336     -10223.72       1444.0374    
    881000   881000         291.48107     -301.89431      28.859456      28.859456      28.859456      1.0088104      24036.123     -10140.042      1394.5038    
    882000   882000         290.43031     -197.98108      28.966033      28.966033      28.966033      0.99771588     24303.402     -10158.447      1389.4767    
    883000   883000         299.31821     -67.557222      28.847943      28.847943      28.847943      1.0100187      24007.367     -10253.895      1431.9982    
    884000   884000         297.62363      137.17198      28.812722      28.812722      28.812722      1.0137272      23919.543     -10208.557      1423.891     
    885000   885000         294.54129      403.20106      28.80096       28.80096       28.80096       1.0149697      23890.261     -10179.009      1409.1445    
    886000   886000         288.22123      746.02801      28.751738      28.751738      28.751738      1.0201914      23767.981     -10156.309      1378.908     
    887000   887000         296.35125     -283.82176      28.909091      28.909091      28.909091      1.0036231      24160.354     -10185.703      1417.8037    
    888000   888000         302.24895     -372.09765      28.889778      28.889778      28.889778      1.0056372      24111.967     -10236.686      1446.0195    
    889000   889000         297.58079     -426.96966      28.944996      28.944996      28.944996      0.99989292     24250.487     -10197.81       1423.6861    
    890000   890000         296.67765      202.85835      28.932465      28.932465      28.932465      1.0011926      24219.006     -10230.729      1419.3653    
    891000   891000         293.16684     -163.16775      28.917447      28.917447      28.917447      1.0027533      24181.311     -10153.633      1402.5689    
    892000   892000         291.97409      498.13118      28.83385       28.83385       28.83385       1.0115004      23972.2       -10187.82       1396.8625    
    893000   893000         300.10652      235.3783       28.831854      28.831854      28.831854      1.0117105      23967.221     -10149.085      1435.7696    
    894000   894000         305.03292     -560.7803       28.816855      28.816855      28.816855      1.0132911      23929.837     -10216.557      1459.3385    
    895000   895000         302.37076     -452.09615      28.763419      28.763419      28.763419      1.018949       23796.962     -10246.476      1446.6022    
    896000   896000         286.68354      159.58408      28.894369      28.894369      28.894369      1.0051579      24123.463     -10216.626      1371.5514    
    897000   897000         294.33867     -85.7617        28.926346      28.926346      28.926346      1.0018282      24203.642     -10129.269      1408.1751    
    898000   898000         299.39113      187.69907      28.927119      28.927119      28.927119      1.0017478      24205.584     -10181.712      1432.3471    
    899000   899000         292.19554      441.84325      28.793601      28.793601      28.793601      1.0157481      23871.953     -10108.396      1397.922     
    900000   900000         303.16501     -338.3602       28.803139      28.803139      28.803139      1.0147393      23895.683     -10197.113      1450.4021    
    901000   901000         297.40598     -405.5859       28.784189      28.784189      28.784189      1.0167448      23848.551     -10264.035      1422.8497    
    902000   902000         296.26779     -228.00773      28.827097      28.827097      28.827097      1.0122114      23955.363     -10233.302      1417.4044    
    903000   903000         296.45315      93.415457      28.868122      28.868122      28.868122      1.0079021      24057.784     -10170.841      1418.2912    
    904000   904000         294.39932     -408.86457      28.925685      28.925685      28.925685      1.0018968      24201.983     -10118.746      1408.4653    
    905000   905000         290.09411      57.834548      28.790044      28.790044      28.790044      1.0161247      23863.106     -10249.578      1387.8683    
    906000   906000         301.33674      396.06575      28.88699       28.88699       28.88699       1.0059284      24104.986     -10193.86       1441.6553    
    907000   907000         289.66458      325.2707       28.82767       28.82767       28.82767       1.012151       23956.791     -10268.341      1385.8133    
    908000   908000         291.21424      454.44615      29.009142      29.009142      29.009142      0.99327458     24412.072     -10227.26       1393.2272    
    909000   909000         293.20218      100.82229      28.82659       28.82659       28.82659       1.0122648      23954.097     -10190.406      1402.7379    
    910000   910000         294.66725      626.1682       28.913095      28.913095      28.913095      1.0032061      24170.396     -10199.041      1409.7471    
    911000   911000         296.67015      250.41115      28.934517      28.934517      28.934517      1.0009797      24224.159     -10254.092      1419.3294    
    912000   912000         309.22217     -114.30836      28.893353      28.893353      28.893353      1.005264       24120.919     -10233.967      1479.3808    
    913000   913000         299.61837     -1119.6557      28.902335      28.902335      28.902335      1.004327       24143.421     -10154.103      1433.4343    
    914000   914000         300.64813     -116.84686      28.952136      28.952136      28.952136      0.99915327     24268.439     -10125.575      1438.3608    
    915000   915000         301.47499     -137.36191      28.878521      28.878521      28.878521      1.0068137      24083.789     -10239.603      1442.3167    
    916000   916000         306.80154      459.36969      28.773617      28.773617      28.773617      1.0178659      23822.284     -10248.219      1467.8       
    917000   917000         313.07034      451.02345      28.967582      28.967582      28.967582      0.99755582     24307.301     -10265.618      1497.7911    
    918000   918000         305.05002      560.53786      29.00387       29.00387       29.00387       0.99381632     24398.764     -10246.507      1459.4203    
    919000   919000         291.15466      466.04741      28.794397      28.794397      28.794397      1.0156638      23873.933     -10237.1        1392.9422    
    920000   920000         293.82264     -323.48304      28.959613      28.959613      28.959613      0.99837962     24287.245     -10202.275      1405.7063    
    921000   921000         299.50896     -52.69963       28.889674      28.889674      28.889674      1.0056481      24111.704     -10261.964      1432.9108    
    922000   922000         295.87316     -1008.0973      28.826861      28.826861      28.826861      1.0122363      23954.773     -10180.551      1415.5164    
    923000   923000         301.82958     -492.47495      28.801575      28.801575      28.801575      1.0149046      23891.793     -10120.505      1444.0131    
    924000   924000         299.28684      180.87765      28.782858      28.782858      28.782858      1.0168858      23845.244     -10086.206      1431.8482    
    925000   925000         289.59713     -764.06959      28.966512      28.966512      28.966512      0.99766638     24304.608     -10198.033      1385.4906    
    926000   926000         301.09014     -203.45323      28.905968      28.905968      28.905968      1.0039484      24152.526     -10194.125      1440.4755    
    927000   927000         301.60968     -142.9348       28.935829      28.935829      28.935829      1.0008435      24227.455     -10165.918      1442.9611    
    928000   928000         303.60381     -42.700106      28.929643      28.929643      28.929643      1.0014856      24211.92      -10182.708      1452.5014    
    929000   929000         295.09097     -133.4363       29.056111      29.056111      29.056111      0.98846541     24530.843     -10174.175      1411.7743    
    930000   930000         294.25194      362.13865      28.846502      28.846502      28.846502      1.01017        24003.772     -10167.299      1407.7602    
    931000   931000         304.57025      300.55366      28.838698      28.838698      28.838698      1.0109903      23984.295     -10218.673      1457.125     
    932000   932000         289.02876      93.025032      28.936196      28.936196      28.936196      1.0008054      24228.376     -10171.769      1382.7714    
    933000   933000         299.27281     -20.140713      28.746302      28.746302      28.746302      1.0207702      23754.504     -10222.983      1431.781     
    934000   934000         300.92868     -461.85666      28.994544      28.994544      28.994544      0.99477557     24375.237     -10080.986      1439.703     
    935000   935000         284.71871      1152.0563      28.94722       28.94722       28.94722       0.99966241     24256.079     -10109.042      1362.1513    
    936000   936000         312.29991      728.80114      29.044486      29.044486      29.044486      0.98965284     24501.41      -10158.152      1494.1053    
    937000   937000         300.84733      212.25121      28.868472      28.868472      28.868472      1.0078655      24058.657     -10187.952      1439.3139    
    938000   938000         301.92459      852.67062      28.817361      28.817361      28.817361      1.0132377      23931.098     -10148.795      1444.4677    
    939000   939000         294.83028      627.89718      28.824486      28.824486      28.824486      1.0124865      23948.853     -10277.201      1410.5271    
    940000   940000         300.38294      516.68866      28.945573      28.945573      28.945573      0.99983311     24251.937     -10195.559      1437.0921    
    941000   941000         295.78873     -490.2782       28.873542      28.873542      28.873542      1.0073347      24071.335     -10298.684      1415.1125    
    942000   942000         300.37611      718.34272      28.766712      28.766712      28.766712      1.0185991      23805.136     -10155.723      1437.0594    
    943000   943000         302.31307      624.90274      28.772282      28.772282      28.772282      1.0180076      23818.967     -10244.076      1446.3262    
    944000   944000         300.88763      308.29775      28.890501      28.890501      28.890501      1.0055617      24113.777     -10209.077      1439.5066    
    945000   945000         299.54495      407.08615      28.839387      28.839387      28.839387      1.0109179      23986.013     -10254.08       1433.083     
    946000   946000         292.12502      123.27678      28.912609      28.912609      28.912609      1.0032567      24169.177     -10231.323      1397.5845    
    947000   947000         298.24631     -964.12777      28.861541      28.861541      28.861541      1.0085917      24041.333     -10262.368      1426.87      
    948000   948000         287.30629      664.28584      28.852212      28.852212      28.852212      1.0095704      24018.028     -10146.534      1374.5308    
    949000   949000         303.81981     -666.19656      28.97641       28.97641       28.97641       0.99664437     24329.531     -10147.938      1453.5348    
    950000   950000         297.16716     -454.42075      28.883521      28.883521      28.883521      1.0062909      24096.302     -10160.337      1421.7072    
    951000   951000         297.6078       478.59263      28.833185      28.833185      28.833185      1.0115704      23970.542     -10183.011      1423.8153    
    952000   952000         295.6177       660.20111      28.881998      28.881998      28.881998      1.0064501      24092.49      -10179.736      1414.2942    
    953000   953000         312.56763     -0.27805933     28.851348      28.851348      28.851348      1.0096611      24015.869     -10234.17       1495.3861    
    954000   954000         296.56942     -266.69529      28.859712      28.859712      28.859712      1.0087835      24036.763     -10205.297      1418.8475    
    955000   955000         291.73883     -296.64259      28.827898      28.827898      28.827898      1.012127       23957.359     -10178.482      1395.737     
    956000   956000         289.55416      368.63421      28.824864      28.824864      28.824864      1.0124467      23949.794     -10195.131      1385.285     
    957000   957000         303.51954      234.35618      28.893426      28.893426      28.893426      1.0052563      24121.102     -10246.8        1452.0982    
    958000   958000         302.10252     -26.200633      28.894017      28.894017      28.894017      1.0051947      24122.58      -10181.712      1445.3189    
    959000   959000         307.30148     -421.08983      28.942914      28.942914      28.942914      1.0001087      24245.255     -10150.074      1470.1918    
    960000   960000         290.17761     -112.06189      28.96569       28.96569       28.96569       0.99775129     24302.539     -10222.193      1388.2678    
    961000   961000         293.89784      173.36426      28.90142       28.90142       28.90142       1.0044224      24141.127     -10175.983      1406.0661    
    962000   962000         301.31057     -150.78012      28.861521      28.861521      28.861521      1.0085938      24041.283     -10183.223      1441.5301    
    963000   963000         308.66039     -42.077661      28.905213      28.905213      28.905213      1.004027       24150.634     -10237.762      1476.6931    
    964000   964000         301.15298     -125.04675      28.995728      28.995728      28.995728      0.99465372     24378.223     -10125.35       1440.7761    
    965000   965000         297.19803      474.03388      28.960631      28.960631      28.960631      0.99827427     24289.808     -10110.863      1421.8549    
    966000   966000         297.82635      399.18963      28.837636      28.837636      28.837636      1.011102       23981.645     -10131.182      1424.8609    
    967000   967000         295.12526      22.115943      28.850931      28.850931      28.850931      1.0097048      24014.83      -10195.119      1411.9383    
    968000   968000         284.71933     -893.87286      29.070025      29.070025      29.070025      0.98704678     24566.1       -10187.431      1362.1543    
    969000   969000         290.02829      87.648367      28.774223      28.774223      28.774223      1.0178016      23823.788     -10250.926      1387.5534    
    970000   970000         296.73136     -376.69198      28.811316      28.811316      28.811316      1.0138756      23916.041     -10185.058      1419.6222    
    971000   971000         293.50622      317.54674      28.800032      28.800032      28.800032      1.0150678      23887.952     -10204.429      1404.1925    
    972000   972000         285.53858      203.40397      28.817807      28.817807      28.817807      1.0131907      23932.209     -10204.888      1366.0737    
    973000   973000         297.13045     -184.40819      29.040845      29.040845      29.040845      0.99002514     24492.196     -10153.78       1421.5315    
    974000   974000         302.38869     -734.17832      28.957846      28.957846      28.957846      0.99856237     24282.8       -10180.769      1446.688     
    975000   975000         302.31242     -102.10042      28.896335      28.896335      28.896335      1.0049528      24128.386     -10181.777      1446.3231    
    976000   976000         291.20325      1742.4426      28.639661      28.639661      28.639661      1.0322154      23491.115     -10144.809      1393.1746    
    977000   977000         294.26181     -149.72377      28.820733      28.820733      28.820733      1.0128821      23939.499     -10119.95       1407.8074    
    978000   978000         296.83333      391.71961      28.879151      28.879151      28.879151      1.0067478      24085.367     -10174.085      1420.11      
    979000   979000         291.84421     -573.30711      28.919621      28.919621      28.919621      1.0025272      24186.764     -10240.074      1396.2411    
    980000   980000         296.83991      809.42002      28.855896      28.855896      28.855896      1.0091838      24027.23      -10210.712      1420.1415    
    981000   981000         298.73742     -225.1084       28.909437      28.909437      28.909437      1.0035871      24161.222     -10189.487      1429.2196    
    982000   982000         291.61536      317.17697      28.843323      28.843323      28.843323      1.0105041      23995.835     -10275.628      1395.1463    
    983000   983000         289.91401     -92.9996        28.971592      28.971592      28.971592      0.99714168     24317.397     -10145.807      1387.0066    
    984000   984000         303.56271      298.96438      28.967232      28.967232      28.967232      0.99759206     24306.419     -10217.319      1452.3048    
    985000   985000         303.80138      122.07705      28.845559      28.845559      28.845559      1.0102691      24001.416     -10188.679      1453.4466    
    986000   986000         301.29567     -139.19936      28.896467      28.896467      28.896467      1.004939       24128.718     -10231.03       1441.4588    
    987000   987000         303.28351     -415.69836      28.862288      28.862288      28.862288      1.0085134      24043.2       -10223.663      1450.969     
    988000   988000         300.35317     -584.85488      28.915317      28.915317      28.915317      1.002975       24175.968     -10172.311      1436.9497    
    989000   989000         289.5735       112.03977      28.889447      28.889447      28.889447      1.0056718      24111.136     -10232.463      1385.3776    
    990000   990000         294.39337      40.564033      28.721971      28.721971      28.721971      1.0233666      23694.237     -10161.769      1408.4368    
    991000   991000         297.25084      378.6435       28.873445      28.873445      28.873445      1.0073448      24071.092     -10153.782      1422.1075    
    992000   992000         309.39042      576.46378      28.921895      28.921895      28.921895      1.0022908      24192.471     -10115.555      1480.1857    
    993000   993000         294.89927     -249.83699      28.979591      28.979591      28.979591      0.99631622     24337.544     -10142.733      1410.8571    
    994000   994000         290.16511     -119.26673      28.912424      28.912424      28.912424      1.0032761      24168.711     -10178.006      1388.208     
    995000   995000         307.70653      363.93222      28.950424      28.950424      28.950424      0.9993306      24264.133     -10140.741      1472.1296    
    996000   996000         294.82355      512.57469      28.831817      28.831817      28.831817      1.0117144      23967.13      -10246.22       1410.4949    
    997000   997000         297.17141      424.23609      28.871564      28.871564      28.871564      1.0075416      24066.39      -10123.159      1421.7275    
    998000   998000         297.57404     -177.73711      28.977031      28.977031      28.977031      0.99658029     24331.095     -10181.891      1423.6538    
    999000   999000         302.52352      144.29106      28.701541      28.701541      28.701541      1.0255535      23643.711     -10296.149      1447.3331    
   1000000   1000000        292.59487      405.08866      28.889633      28.889633      28.889633      1.0056524      24111.602     -10189.178      1399.8324    
Loop time of 2977.85 on 4 procs for 1000000 steps with 2406 atoms

Performance: 29.014 ns/day, 0.827 hours/ns, 335.813 timesteps/s, 807.965 katom-step/s
99.9% CPU use with 4 MPI tasks x no OpenMP threads

MPI task timing breakdown:
Section |  min time  |  avg time  |  max time  |%varavg| %total
---------------------------------------------------------------
Pair    | 2197.2     | 2213.8     | 2226.6     |  22.5 | 74.34
Bond    | 0.041082   | 0.050921   | 0.059524   |   3.1 |  0.00
Kspace  | 345.24     | 358.16     | 374.57     |  55.7 | 12.03
Neigh   | 212.7      | 212.74     | 212.77     |   0.2 |  7.14
Comm    | 63.216     | 63.426     | 63.631     |   2.2 |  2.13
Output  | 0.21351    | 0.22533    | 0.24839    |   2.9 |  0.01
Modify  | 124.98     | 125.17     | 125.44     |   1.7 |  4.20
Other   |            | 4.291      |            |       |  0.14

Nlocal:          601.5 ave         611 max         590 min
Histogram: 1 0 0 1 0 0 0 0 1 1
Nghost:          11018 ave       11055 max       10988 min
Histogram: 1 1 0 0 0 0 1 0 0 1
Neighs:         344804 ave      355173 max      336131 min
Histogram: 1 0 1 0 0 1 0 0 0 1

Total # of neighbors = 1379216
Ave neighs/atom = 573.24023
Ave special neighs/atom = 1.9950125
Neighbor list builds = 45237
Dangerous builds = 0

print           """
Finished C07 MgCl2(aq) 12-6-4 run.
  Pre:  ${nvt_pre_steps} steps @ 0.5 fs (~2 ps)
  Eq:   NVT ${nvt_steps} + NPT ${npt_eq_steps} steps @ 1 fs (500 ps)
  Prod: NPT ${prod_steps} steps (1 ns) @ T=${mytemp} K, P=${mypress} atm
  C4:   overlay C4_Mg_Ow.table / C4_Cl_Ow.table (C4_POT)
  Traj: result_atoms.lammpstrj — 500 frames, unwrap (xsu ysu zsu)
"""
WARNING: Detected non-ASCII characters in input. Will try to continue by replacing with ASCII equivalents where known. (src/input.cpp:482)

Finished C07 MgCl2(aq) 12-6-4 run.
  Pre:  4000 steps @ 0.5 fs (~2 ps)
  Eq:   NVT 100000 + NPT 400000 steps @ 1 fs (500 ps)
  Prod: NPT 1000000 steps (1 ns) @ T=298 K, P=1 atm
  C4:   overlay C4_Mg_Ow.table / C4_Cl_Ow.table (C4_POT)
  Traj: result_atoms.lammpstrj �� 500 frames, unwrap (xsu ysu zsu)


undump          mydump
unfix           mynpt
unfix           myshake

write_data      result_atoms.final.data  nofix
System init for write_data ...
PPPM initialization ...
  using 12-bit tables for long-range coulomb
  G vector (1/distance) = 0.25135309
  grid = 20 20 20
  stencil order = 5
  estimated absolute RMS force accuracy = 0.0034821156
  estimated relative force accuracy = 1.0486288e-05
  using double precision KISS FFT
  3d grid and FFT values/proc = 7803 2000
Generated 0 of 6 mixed pair_coeff terms from geometric mixing rule
Total wall time: 1:16:52
