        2406
Built with Packmol cell 35.000000 35.000000 35.000000 90.0000 90.0000 90.0000
  Mg          -0.287350        1.296116       16.314786
  Mg          -8.389392       -6.456086       -8.345492
  Cl          -1.814290        3.837060       15.436935
  Cl         -15.800842      -15.204565       -7.029539
  Cl           4.515106       -6.938313        1.460382
  Cl          -9.857946      -15.023412       -6.576101
  H           -3.215822       -5.139365        8.896582
  O           -3.105594       -5.811617        9.628653
  H           -2.679586       -6.638174        9.260793
  H            8.970030      -10.337336       14.602313
  O            9.493027      -10.135516       15.430409
  H           10.456213      -10.357444       15.278686
  H            8.472305       16.254245      -16.250982
  O            8.425609       15.269949      -16.080739
  H            8.989082       15.041923      -15.286698
  H           -6.437044       12.006945       14.505762
  O           -6.746678       12.813492       15.009358
  H           -6.682294       13.619151       14.420488
  H          -12.676241        8.116307       -5.373076
  O          -13.133688        7.510870       -6.024373
  H          -13.036992        7.881136       -6.948251
  H           11.124939       12.090826        2.533033
  O           11.288913       12.981678        2.956702
  H           12.269406       13.178144        2.950837
  H           12.661887       -2.115355        1.909327
  O           11.967901       -2.609230        1.385428
  H           11.069663       -2.460750        1.799098
  H           -3.637192       -5.236689       -4.606593
  O           -4.594745       -5.191004       -4.321977
  H           -4.684997       -5.557044       -3.395765
  H            2.399366       14.875473       13.459276
  O            2.631412       14.328797       14.263826
  H            1.909366       13.657213       14.430033
  H          -13.948702      -16.254189      -16.262698
  O          -14.126464      -15.529868      -15.596545
  H          -15.009047      -15.103692      -15.795093
  H          -14.717792       -9.160073       -9.072503
  O          -15.567790       -8.666615       -8.888106
  H          -15.354476       -7.747770       -8.556113
  H           14.404812       -4.989081      -12.656224
  O           14.280287       -5.888980      -13.074165
  H           14.763499       -5.919878      -13.949123
  H           11.653417        6.369332      -10.377841
  O           10.660614        6.429551      -10.274323
  H           10.283079        6.997523      -11.005675
  H          -11.335608      -12.797061       15.199565
  O          -11.143832      -13.732226       15.497372
  H          -11.754715      -13.973820       16.251331
  H           11.771271      -14.030410       -5.068380
  O           11.514321      -13.064013       -5.075702
  H           10.542388      -12.979195       -5.295137
  H           12.952313       -4.023229       -3.069826
  O           13.719475       -3.382965       -3.030781
  H           14.577665       -3.893765       -2.979855
  H            3.430650       -4.270910        5.223993
  O            2.908516       -3.986335        4.420007
  H            2.960170       -4.698436        3.719833
  H           -3.517098        4.355989      -12.816652
  O           -3.868433        5.022661      -13.474004
  H           -3.211950        5.770399      -13.573590
  H           -6.795620       -8.569362        3.418474
  O           -7.307406       -7.748996        3.673573
  H           -8.206984       -8.012266        4.022066
  H           -6.246766        0.553107       12.389177
  O           -6.168541        1.262350       11.688566
  H           -6.148443        0.836519       10.783987
  H           -8.020660       -5.886396       13.756920
  O           -7.806076       -5.031890       13.283874
  H           -8.596348       -4.420526       13.325143
  H          -15.773010        4.705676        6.800054
  O          -15.510017        3.745649        6.895875
  H          -14.646836        3.684949        7.397109
  H           -8.612581       -9.004586       -4.544431
  O           -8.802279       -8.059106       -4.279703
  H           -8.128158       -7.453088       -4.701962
  H            4.682679      -10.563533        7.546591
  O            5.247089      -10.829055        6.764965
  H            4.970757      -11.736027        6.447094
  H          -12.170144       14.479321       12.212111
  O          -11.884534       15.437343       12.237055
  H          -10.887867       15.489757       12.174544
  H           -7.018302       14.900073       10.021585
  O           -7.657668       15.281914       10.688975
  H           -7.451658       16.249970       10.831898
  H           -3.654607       12.648231       -6.441877
  O           -4.551681       12.227324       -6.307357
  H           -4.500045       11.253972       -6.530783
  H           -5.898532       13.170729      -12.930417
  O           -6.481489       12.986993      -12.138962
  H           -5.913740       12.895647      -11.320845
  H           -0.700630      -15.559228        3.789292
  O           -1.004649      -16.248764        3.131941
  H           -1.876293      -15.966105        2.731515
  H           11.081857       11.086977       12.511879
  O           10.275488       11.675948       12.565564
  H           10.313631       12.360453       11.837555
  H           -2.591436      -11.287409       -6.498620
  O           -2.909321      -10.722143       -5.737422
  H           -2.582520       -9.784910       -5.859055
  H            8.569165        3.301167       -0.183582
  O            8.525062        2.314865       -0.024643
  H            9.418035        1.906490       -0.213931
  H           -1.558326        1.109648      -11.064517
  O           -1.258826        1.945792      -11.524043
  H           -1.916038        2.678017      -11.345386
  H            8.193359       -2.018157       -1.543573
  O            8.873649       -1.302212       -1.386639
  H            9.714501       -1.712910       -1.034083
  H            8.608268        6.821430        4.904928
  O            9.320224        7.056650        4.243272
  H            8.962967        6.946168        3.315823
  H            6.271911       13.918715       -1.498654
  O            6.408803       13.107055       -2.066518
  H            5.878923       13.197022       -2.909805
  H            9.801738       -7.293824        2.921669
  O           10.392744       -6.774040        2.304792
  H           10.906052       -6.094446        2.828879
  H           -6.627786       -7.660904       -0.804112
  O           -7.609205       -7.500754       -0.909793
  H           -7.988020       -8.165698       -1.553493
  H          -14.120325      -12.676413       -7.319934
  O          -13.613404      -11.980914       -6.810708
  H          -13.661280      -11.109424       -7.298777
  H           13.492609       11.168451        0.453162
  O           12.614234       10.915197        0.047800
  H           12.039450       11.729052       -0.037430
  H           15.256016       -9.039703        9.331080
  O           15.650777       -9.599674        8.602660
  H           16.249807       -9.034613        8.035325
  H           -9.910743        0.888011        9.033763
  O           -9.423711        1.612421        9.521646
  H           -8.791515        1.204044       10.180095
  H           -6.829715        3.964592        3.939009
  O           -6.684586        4.890813        4.286933
  H           -6.896282        4.916853        5.263921
  H           -7.401590       -2.171602        7.654222
  O           -6.542184       -1.661606        7.690615
  H           -6.730895       -0.683659        7.601122
  H           12.360431       -9.333132      -10.427719
  O           13.145865       -9.560696      -11.003313
  H           13.946366       -9.722275      -10.426174
  H            0.979387      -12.268352       -4.386245
  O            1.656333      -12.867985       -3.959414
  H            2.568507      -12.473783       -4.071410
  H           -9.442010       -0.722226        3.971305
  O           -8.895179       -0.923239        3.158550
  H           -8.666671       -0.069319        2.690997
  H            6.196874      -16.149765       -8.450617
  O            7.172337      -16.289091       -8.621092
  H            7.687826      -15.510685       -8.262826
  H           -7.612903      -11.014547      -12.651266
  O           -6.637856      -11.214376      -12.554565
  H           -6.330615      -11.760383      -13.333975
  H            3.227247       11.930033      -14.676676
  O            3.239580       12.927133      -14.751770
  H            2.753924       13.205003      -15.580581
  H            2.466579       13.554972       -2.176923
  O            2.216848       13.751208       -1.228700
  H            1.349123       14.247843       -1.208497
  H           13.254941       13.691979       -2.904655
  O           13.791550       13.710483       -2.061027
  H           13.932511       12.775660       -1.735089
  H           13.389209      -11.247356        9.079560
  O           12.880357      -10.840103        9.837989
  H           12.061811      -11.384706       10.020717
  H          -10.278422        7.503820        3.086057
  O           -9.837859        6.732442        2.626839
  H           -8.909142        6.989720        2.359835
  H           13.963169        2.729811        0.683720
  O           14.198743        1.805690        0.382879
  H           13.387244        1.223153        0.428929
  H            7.713355       11.423045       -7.247470
  O            7.248343       12.106552       -6.684813
  H            6.839560       11.660616       -5.888548
  H            5.576001        8.439387       12.343597
  O            5.502794        7.449927       12.218663
  H            6.410038        7.036304       12.294975
  H          -10.778394       -8.170151       -1.595526
  O          -11.054257       -7.272681       -1.251365
  H          -10.244874       -6.767070       -0.952606
  H           -9.996291      -10.702185       13.240963
  O           -9.203590      -11.311611       13.225936
  H           -9.514102      -12.262059       13.210779
  H           13.985011        4.324645        4.602400
  O           14.556389        5.124222        4.787344
  H           14.025860        5.956904        4.628665
  H            2.450231        2.179564       14.096617
  O            2.213581        1.571556       13.338775
  H            2.424213        0.627072       13.590932
  H           -3.952132        5.751656      -16.250105
  O           -3.594348        4.819129      -16.201275
  H           -4.355093        4.170101      -16.195957
  H           -7.173346      -12.791498       -1.842503
  O           -7.161407      -13.791340       -1.829337
  H           -8.016305      -14.129735       -1.436095
  H            3.184866      -14.159387        5.067017
  O            3.344518      -15.120175        4.840307
  H            3.003634      -15.698605        5.581399
  H          -12.628663        9.808812       13.545342
  O          -12.940416        9.174617       12.837806
  H          -13.743552        9.555230       12.379433
  H           13.698926      -13.470188       13.469903
  O           13.297480      -14.221849       13.993205
  H           13.613936      -15.094019       13.620144
  H            7.955602       -6.213136        1.256168
  O            7.416031       -6.251311        2.097242
  H            7.145361       -7.197057        2.276968
  H           -5.952265      -11.979377        3.384826
  O           -5.850110      -11.117905        3.882248
  H           -5.226987      -11.250003        4.653136
  H          -11.426667        1.428843        6.519832
  O          -10.443128        1.583479        6.426352
  H           -9.978755        0.707305        6.297215
  H           -0.355373        1.293632       11.184944
  O            0.506529        0.786604       11.191845
  H            0.315817       -0.195032       11.187622
  H          -13.468004        2.797519       10.661081
  O          -13.758472        1.875561       10.404913
  H          -14.731565        1.884584       10.174678
  H          -12.259914       10.606007       -6.473405
  O          -11.303061       10.317068       -6.504174
  H          -10.721186       11.053742       -6.159597
  H           -4.060896        4.161489       -8.054785
  O           -3.231533        3.714515       -8.390005
  H           -3.471310        3.065139       -9.111682
  H            5.725527       -4.628229        0.052887
  O            5.521174       -4.874942       -0.894410
  H            6.181610       -5.555602       -1.211468
  H            4.584842       -2.302424        2.773928
  O            4.247585       -1.364433        2.854115
  H            3.282683       -1.333723        2.593307
  H            0.822945        1.412460        2.366722
  O            1.681923        1.902773        2.514206
  H            1.622246        2.811425        2.100940
  H            1.080365       -0.824849        4.264221
  O            0.772825       -1.738249        4.530904
  H           -0.214936       -1.810886        4.392873
  H            8.716667      -13.108966       -7.417193
  O            8.628263      -12.932426       -8.397508
  H            7.664813      -12.791317       -8.625219
  H           12.884956      -15.383141      -11.803774
  O           13.581306      -15.039718      -11.173569
  H           13.560802      -15.575998      -10.329778
  H           -9.982243        6.190402       -5.196833
  O          -10.143986        6.092263       -6.178773
  H          -10.476938        6.959057       -6.550004
  H           14.454739        1.840676      -10.863032
  O           15.217694        2.421187      -11.147472
  H           15.198765        3.275079      -10.627366
  H          -16.187258       11.473810        7.509447
  O          -15.703862       11.188736        8.337131
  H          -16.249915       10.506929        8.823921
  H            5.368861       15.383440       11.941236
  O            5.947878       16.116547       11.584455
  H            5.755592       16.249918       10.612221
  H           13.211022       10.692290        3.652937
  O           12.663835       10.645006        4.488612
  H           12.051390        9.855881        4.441798
  H            1.222515       10.255409        8.420662
  O            0.552960        9.512650        8.423154
  H            0.762290        8.877697        9.166803
  H           11.115017       16.250109       -1.971087
  O           11.379418       15.698049       -2.761861
  H           11.936297       16.250024       -3.382514
  H           11.073846        6.340479        6.237239
  O           10.747739        5.724839        6.954624
  H           10.594677        4.815017        6.568883
  H            4.508678      -15.749561      -13.686528
  O            4.341569      -16.223118      -12.821763
  H            3.430656      -15.987285      -12.483207
  H          -13.491621        0.732310      -14.268566
  O          -13.489896       -0.258876      -14.136095
  H          -12.554304       -0.571623      -13.972218
  H           -8.813304       16.249987        5.453390
  O           -8.612434       16.142641        6.427109
  H           -8.346231       15.196267        6.610171
  H          -12.187063        8.581614       -1.834995
  O          -11.694398        9.421076       -1.605683
  H          -12.016835        9.766632       -0.724419
  H           -5.521303       -3.933792      -12.065149
  O           -4.564137       -4.223211      -12.073488
  H           -4.500405       -5.172933      -11.766948
  H           -3.396617        1.322100       -1.047952
  O           -3.509481        0.372497       -1.340382
  H           -2.610680       -0.037860       -1.494536
  H           11.071071       -2.777530        6.796307
  O           10.071300       -2.795191        6.784205
  H            9.756458       -3.729115        6.614911
  H            8.751438        3.478083       -6.436809
  O            8.596818        2.523603       -6.691881
  H            7.900645        2.478635       -7.408346
  H           -0.598493       12.106603      -15.291992
  O           -0.728732       11.642916      -14.415617
  H           -0.988980       10.691057      -14.577586
  H            5.720901       16.250028      -16.249921
  O            4.835288       15.842576      -16.027046
  H            4.897923       14.847363      -16.102057
  H           13.235106      -15.322472        3.535115
  O           12.315044      -15.699880        3.429992
  H           11.639197      -14.982300        3.598247
  H          -14.180143       11.068147       16.249996
  O          -14.354813       12.009215       15.960370
  H          -15.263417       12.067474       15.546796
  H            3.686024        5.757707       -0.101786
  O            2.845005        5.397636       -0.505563
  H            2.188311        6.141954       -0.626988
  H          -12.253611        5.557994      -11.005973
  O          -13.026614        4.931602      -10.905474
  H          -12.954017        4.200974      -11.584379
  H           -3.824243       -7.047428       -7.274879
  O           -3.422241       -6.328501       -7.841922
  H           -3.376698       -5.477582       -7.318603
  H            6.987286        7.023437       -1.023090
  O            6.406240        7.834302       -1.092964
  H            6.979639        8.648078       -1.187734
  H            8.407290       10.492758       -3.954469
  O            7.979398       10.400745       -3.055335
  H            7.010659       10.639930       -3.121169
  H           16.251605       14.386817        8.095584
  O           15.278024       14.614040        8.118152
  H           14.739337       13.790471        7.940526
  H           -7.595953      -11.603650       10.694710
  O           -6.983347      -12.375631       10.525124
  H           -6.931014      -12.549854        9.541809
  H           -5.107205       15.749875      -11.832259
  O           -4.223145       15.324749      -11.638079
  H           -4.220506       14.973932      -10.701639
  H           -7.137946       10.038157      -11.623977
  O           -7.202451        9.088165      -11.929516
  H           -8.045998        8.681692      -11.578507
  H            0.939708        3.802328       -8.846004
  O            0.539475        2.892834       -8.958407
  H           -0.455097        2.972322       -9.025539
  H           13.935890        8.377642        0.419594
  O           14.015931        7.528703        0.941989
  H           13.182204        6.988143        0.829323
  H           -6.957729       15.111703       -4.637065
  O           -7.549140       14.346649       -4.891872
  H           -8.473449       14.684573       -5.069245
  H            5.365352        5.280855      -10.133337
  O            4.428738        5.604420       -9.998950
  H            4.433860        6.596168       -9.870849
  H          -10.227079      -14.425243        7.526127
  O           -9.871989      -15.020559        8.246898
  H          -10.301829      -14.782381        9.117822
  H          -16.250340       16.250033       -9.665274
  O          -15.434257       15.672657       -9.690673
  H          -14.617628       16.249804       -9.694924
  H          -10.249156      -11.753299        8.601157
  O          -11.078025      -12.146385        8.999229
  H          -11.814607      -11.470665        8.970087
  H            1.890697        6.299161      -10.869118
  O            2.035890        6.364732      -11.856347
  H            2.686752        7.098950      -12.049483
  H           12.828276       16.250133       13.464298
  O           13.660326       15.755060       13.214109
  H           14.139714       16.252772       12.491288
  H           13.389298        5.059100       16.250000
  O           14.286110        4.616689       16.249617
  H           15.002141        5.314756       16.248093
  H           -0.672469       -5.365560        7.877709
  O            0.222980       -5.385913        8.322408
  H            0.626446       -4.471160        8.301379
  H            5.008958       14.074540        5.181824
  O            4.024066       13.969245        5.044348
  H            3.835502       13.063710        4.664282
  H           12.151033        8.059978      -12.721736
  O           12.000082        9.047290      -12.771024
  H           11.245268        9.238154      -13.398580
  H           -2.319649      -12.978541      -11.325084
  O           -2.718291      -12.662861      -12.186147
  H           -3.356899      -13.351305      -12.529985
  H           -0.819941       13.954737       14.266022
  O           -0.800094       14.708363       14.923026
  H           -1.142074       14.389140       15.806850
  H          -15.425815        1.033251        7.435790
  O          -16.255602        0.487383        7.551900
  H          -16.056412       -0.470257        7.343934
  H           15.530172       -4.139039       -9.696588
  O           15.879500       -3.319262       -9.242785
  H           15.410764       -3.197231       -8.367917
  H           16.249711      -10.009666       -8.051234
  O           16.216445      -10.992764       -7.871200
  H           15.818387      -11.152923       -6.967929
  H           -3.545015       15.883107       12.387523
  O           -3.216618       14.971618       12.139845
  H           -3.970398       14.438912       11.755087
  H           -9.759401       15.974605      -13.737288
  O          -10.563482       16.277667      -14.248764
  H          -10.946501       15.505526      -14.755809
  H          -13.723623      -13.545841        2.367952
  O          -14.295503      -13.780621        3.153974
  H          -14.605495      -12.942505        3.602826
  H            4.488304        7.439899        7.143994
  O            4.589492        6.544393        6.710601
  H            4.290060        5.831471        7.344701
  H           14.886519       10.980318       13.367916
  O           13.968921       11.104270       13.745605
  H           13.558179       11.930088       13.359191
  H            4.643253        9.484497       16.235634
  O            5.080485        8.589945       16.142867
  H            5.788455        8.636458       15.438158
  H           -1.574602        5.691957      -11.365045
  O           -1.374659        6.141255      -10.494324
  H           -1.795585        5.624994       -9.748472
  H            6.747885      -11.555037       10.252092
  O            6.484955      -12.501681       10.065726
  H            6.334176      -12.618649        9.084103
  H           14.658132       10.630874       10.030220
  O           14.010082       11.354913       10.266439
  H           13.097197       10.962030       10.377269
  H          -15.665260       -1.809289       -0.217791
  O          -15.087637       -0.996727       -0.295867
  H          -14.182961       -1.193305        0.082177
  H            0.560507       -0.064342       -2.074008
  O            1.498963       -0.288768       -2.336560
  H            1.685209        0.073352       -3.249895
  H            4.409147       -4.979393        8.757459
  O            3.413074       -4.890948        8.753613
  H            2.997712       -5.800562        8.744886
  H            3.946684      -14.959647       -4.148963
  O            3.499372      -15.849771       -4.236089
  H            3.726330      -16.251439       -5.123306
  H           -8.117802      -11.208240        5.435201
  O           -8.785279      -11.950909        5.381188
  H           -8.900803      -12.361661        6.285586
  H            8.287352       12.524780      -16.161134
  O            7.538011       12.294528      -15.540269
  H            6.897534       13.060998      -15.492177
  H            2.149832      -16.140578        1.516919
  O            1.168082      -16.244080        1.357375
  H            0.755014      -15.342988        1.225443
  H           11.434946       -6.874348      -15.540731
  O           11.493497       -5.976931      -15.103451
  H           11.852311       -5.310485      -15.756982
  H          -13.829467      -13.638949       -2.221527
  O          -12.898448      -14.003704       -2.209025
  H          -12.903312      -14.941790       -2.555394
  H          -15.319864       13.791314       -7.491706
  O          -14.968678       13.255323       -8.259418
  H          -13.969812       13.230112       -8.219054
  H            8.192442       -2.370798       16.247368
  O            8.001682       -1.453881       15.896835
  H            8.861396       -1.003902       15.655152
  H           15.882536       13.128840       -3.749715
  O           16.250693       12.199125       -3.759221
  H           15.496815       11.542193       -3.769586
  H           11.715694       -6.629413       -8.536348
  O           12.568250       -6.120816       -8.416029
  H           12.408119       -5.152136       -8.605813
  H           -8.944538       15.454472       -2.039112
  O           -7.978054       15.198792       -2.062238
  H           -7.897925       14.207502       -2.166747
  H           -8.914210        3.312378      -16.249485
  O           -7.950685        3.413235      -16.001602
  H           -7.838172        3.238886      -15.023367
  H           -5.662733       15.778526        5.103330
  O           -5.522585       14.789804        5.050533
  H           -6.396705       14.338354        4.871347
  H            0.296221       -9.181986        7.706952
  O            1.218798       -9.041812        7.347504
  H            1.332450       -8.083417        7.085660
  H           16.065632       -3.147419        5.956590
  O           15.874746       -3.225600        6.935084
  H           14.886947       -3.187444        7.086071
  H            7.716933       -8.698454       -1.895315
  O            7.295761       -8.070489       -1.240888
  H            6.959155       -8.586399       -0.453149
  H          -12.279561        6.933133       11.388777
  O          -13.254002        6.953906       11.165095
  H          -13.698892        6.139392       11.537437
  H           -1.371666      -13.437035       -5.188708
  O           -1.333196      -14.371033       -4.833507
  H           -2.182982      -14.848138       -5.057636
  H            0.120935       -2.780955       -0.908992
  O            0.455551       -3.635064       -0.510834
  H            0.305223       -4.384683       -1.155405
  H           -3.940773       13.907108       14.921703
  O           -3.782546       14.865310       15.160059
  H           -4.630704       15.267435       15.504911
  H          -13.687062       -4.137652        7.563143
  O          -13.829038       -3.153904        7.673063
  H          -14.650819       -2.877980        7.174524
  H           13.362042       -1.545470       -1.015684
  O           14.224929       -1.093523       -0.789477
  H           14.609756       -1.504423        0.037003
  H           11.249279        0.282947        1.863053
  O           10.258619        0.308235        1.997040
  H            9.996357        1.194724        2.378295
  H           13.482853        4.004231      -14.163650
  O           14.365510        4.333967      -14.498599
  H           14.893222        4.707264      -13.735599
  H           -5.498344      -11.008732       -7.440789
  O           -4.761273      -10.759098       -8.068809
  H           -4.452825       -9.829305       -7.867949
  H            0.546628      -14.244003        5.856579
  O           -0.333927      -14.186642        6.327039
  H           -0.928071      -13.542751        5.844964
  H           -4.204581        3.481802       -3.980699
  O           -3.967059        2.782244       -3.306753
  H           -3.148907        2.292815       -3.608557
  H            3.721150        8.232646       -1.529396
  O            3.315262        8.824743       -0.833209
  H            2.488572        9.251765       -1.199589
  H            7.935965      -16.167405        9.412752
  O            7.128950      -15.633571        9.665239
  H            6.357411      -16.249984        9.822597
  H          -13.421720        1.347627       13.452511
  O          -14.035451        1.949668       13.963277
  H          -13.679141        2.883814       13.942910
  H           -3.910744      -12.338922       10.455097
  O           -3.771953      -12.843173        9.602765
  H           -4.142291      -13.767170        9.698049
  H           -6.686765       -0.339967       -8.217501
  O           -6.715172       -1.013397       -7.478796
  H           -7.662157       -1.291002       -7.317075
  H           -0.137141       12.305981        0.828056
  O           -1.001601       11.809003        0.903703
  H           -1.310090       11.819701        1.854870
  H           15.172869      -12.995807       11.194785
  O           15.793803      -13.775327       11.112394
  H           15.422188      -14.552590       11.620100
  H            8.036625       -3.402218        1.224814
  O            7.976043       -3.521446        2.215831
  H            8.838923       -3.891155        2.560436
  H          -11.775688      -12.075722       11.656841
  O          -12.520999      -11.409678       11.626902
  H          -12.141869      -10.489287       11.531296
  H           -0.106888       -3.290088       -8.193905
  O           -1.049588       -3.616249       -8.123642
  H           -1.324553       -4.030373       -8.991337
  H            1.509717        8.996921       15.178448
  O            1.763446        8.066408       15.442582
  H            1.239800        7.794611       16.249998
  H           -9.093502        2.285917       -8.222096
  O           -8.557191        1.667168       -7.648057
  H           -9.170052        1.026880       -7.184988
  H           -9.658667        3.119257        4.284756
  O           -9.510535        2.372277        3.636622
  H          -10.375897        2.139556        3.192790
  H          -15.313887        5.402546        9.437416
  O          -15.464364        4.526270        9.895123
  H          -16.249242        4.601919       10.510138
  H           -6.365091        8.616572       -8.868506
  O           -7.067351        7.952697       -8.611405
  H           -6.654398        7.045673       -8.529089
  H          -13.933978      -10.740690       13.886594
  O          -14.532674      -11.447403       13.509607
  H          -15.414613      -11.042855       13.267690
  H            4.287662      -12.016969       -8.343820
  O            4.877514      -12.034074       -9.151151
  H            4.969077      -11.107811       -9.516736
  H            3.958086        5.161801      -13.760662
  O            4.351369        4.755893      -14.585627
  H            4.209832        5.372149      -15.360350
  H           13.057239      -14.874189       -1.093205
  O           13.854424      -15.468409       -0.986440
  H           13.686857      -16.121437       -0.247877
  H           -0.894269       12.667730      -10.319031
  O           -1.655962       12.032921      -10.448804
  H           -1.302097       11.140478      -10.728668
  H           -2.462895       -7.742583        5.234170
  O           -2.542226       -7.193585        6.066220
  H           -1.969254       -7.590448        6.783298
  H            0.095408       13.629938        3.372784
  O            1.073331       13.481443        3.519804
  H            1.339126       12.600224        3.128899
  H          -15.918769       -0.358303       13.550080
  O          -15.147223       -0.699723       14.086875
  H          -15.484848       -1.303198       14.809251
  H           13.051006       -4.480119       -5.828343
  O           14.027731       -4.693623       -5.807771
  H           14.186254       -5.470916       -5.198931
  H           -1.325706        7.990827      -12.852831
  O           -0.435189        8.355781      -12.581192
  H           -0.412501        8.474907      -11.588573
  H          -15.818175        0.495504      -12.362059
  O          -15.639088       -0.485521      -12.436340
  H          -15.035543       -0.771460      -11.692047
  H          -13.218219       -0.404149        5.528126
  O          -14.032665        0.053906        5.171947
  H          -14.726735       -0.629203        4.944725
  H           -8.849931       -5.094397      -12.729593
  O           -9.117152       -5.850799      -13.326627
  H          -10.007152       -5.652834      -13.737369
  H            7.025912       -0.552881        0.509850
  O            6.299333       -1.142347        0.862853
  H            6.055928       -1.822102        0.170981
  H           16.132137        5.721700        1.798156
  O           15.654890        4.888021        1.520278
  H           15.516300        4.301554        2.318306
  H            9.494747      -10.523060       -6.897217
  O            8.950834       -9.808227       -7.336731
  H            8.240776      -10.229250       -7.901139
  H            3.282350        9.905563        4.720500
  O            3.351043        8.908812        4.762563
  H            4.309438        8.636809        4.676001
  H           -7.941471        2.719525        6.539339
  O           -7.791631        2.622339        7.523261
  H           -6.972325        2.071643        7.682855
  H          -13.231425       -3.842356       10.490178
  O          -12.409493       -3.273845       10.525157
  H          -11.824079       -3.485775        9.742612
  H           -7.192178        3.718477      -11.933995
  O           -6.872411        2.934948      -12.466754
  H           -5.975677        3.141615      -12.858107
  H           -1.916139       12.590695       10.528843
  O           -1.470700       12.470188        9.641678
  H           -0.646749       11.914992        9.755087
  H            3.969436       -5.130642       -6.685442
  O            4.915356       -5.017547       -6.381394
  H            5.158617       -5.765444       -5.763759
  H          -15.406272       13.207924      -10.973904
  O          -16.167396       12.953672      -11.570600
  H          -16.270145       13.640014      -12.290585
  H           -9.780372       -6.936260      -10.789080
  O           -9.819736       -7.704141      -11.428462
  H           -8.916517       -8.127900      -11.496452
  H          -10.577266       -6.255045        6.419123
  O          -11.532143       -6.075097        6.655405
  H          -12.008450       -6.942151        6.801515
  H            1.649604       -2.707115       -3.786671
  O            0.690059       -2.891762       -3.574115
  H            0.130873       -2.110582       -3.851727
  H           -0.150094       12.031098       -7.748984
  O           -0.652886       11.166698       -7.745431
  H           -1.634771       11.352064       -7.784683
  H           10.872633      -11.836073        7.082386
  O           11.768068      -12.270687        6.985920
  H           11.656015      -13.264203        6.966712
  H            3.181663      -14.961566       10.975269
  O            3.905557      -14.472391       10.488766
  H            4.006105      -13.555545       10.875139
  H            8.124914       -2.480044       10.199552
  O            9.084868       -2.668176        9.991959
  H            9.323811       -3.582244       10.319657
  H            5.890475       -4.381773        4.010195
  O            6.085034       -5.179586        4.580845
  H            6.979418       -5.069216        5.014312
  H            5.602835        5.272957        9.808098
  O            6.554523        5.409209       10.083282
  H            7.161186        5.040012        9.379255
  H           -6.623089        6.950311        0.728090
  O           -5.754207        6.456916        0.688020
  H           -5.009841        7.105217        0.527944
  H            3.345979       13.696335       11.151370
  O            2.946048       12.791602       11.004699
  H            2.030345       12.891090       10.615353
  H          -14.691045      -13.058566      -10.474441
  O          -15.666427      -13.071134      -10.254279
  H          -15.984280      -12.136442      -10.095156
  H            9.678718       -6.680104       13.653674
  O            9.020911       -7.337810       13.286640
  H            8.145435       -6.880992       13.128970
  H            2.437506       -9.123951       13.058987
  O            1.511863       -9.101197       12.681274
  H            1.385016       -9.876822       12.062958
  H          -10.398074       11.649903       -3.152569
  O           -9.928358       12.361039       -2.629451
  H          -10.298093       12.390830       -1.700792
  H           -3.952281        9.127030      -10.428492
  O           -3.469190        8.580481       -9.744454
  H           -2.583583        9.000766       -9.546818
  H            8.886443        9.496254        5.479165
  O            7.950811        9.837322        5.570082
  H            7.346286        9.085811        5.834242
  H            1.725922       15.433715        9.166366
  O            2.130370       15.863729        9.973527
  H            3.091020       16.074620        9.792761
  H            0.307731        5.289737        7.245077
  O            0.600983        6.245631        7.228651
  H            1.581793        6.296661        7.416821
  H          -15.854250        7.235810       -6.314665
  O          -16.253946        6.514247       -5.749343
  H          -15.733512        6.429752       -4.899632
  H            3.460358       -1.401464        5.488032
  O            3.198085       -0.746351        6.196579
  H            3.128224        0.167381        5.796312
  H            8.166051      -16.249878       13.128313
  O            8.229512      -16.081641       12.144611
  H            9.179143      -15.884919       11.900683
  H            0.234740       -6.237680       -9.446836
  O            0.797665       -5.826926       -8.729621
  H            1.645096       -5.478062       -9.129813
  H           -8.722480       -8.929408       11.569728
  O           -8.573800       -7.970471       11.328205
  H           -7.688103       -7.670882       11.682869
  H          -15.745331      -15.528959      -11.885445
  O          -15.312015      -16.252972      -12.422140
  H          -15.647494      -16.216332      -13.363475
  H            2.700049        5.620289       -3.510087
  O            1.855666        6.143240       -3.393729
  H            2.062853        7.121167       -3.420796
  H           -9.750016       13.228826      -13.793627
  O           -8.802457       13.418307      -14.050976
  H           -8.305389       12.556334      -14.150606
  H           -5.057307        4.077022        9.300558
  O           -5.293168        3.147724        9.584766
  H           -4.546971        2.526485        9.345489
  H            3.856556       14.867260      -10.224551
  O            4.692359       15.160485       -9.760383
  H            4.751794       16.158528       -9.779802
  H           -4.564944      -11.196222      -10.776342
  O           -4.232178      -10.253452      -10.755089
  H           -4.469594       -9.796778      -11.612459
  H           14.477767        0.225741       -4.883524
  O           15.294516        0.046893       -4.334949
  H           16.110509        0.252417       -4.875240
  H           -2.834105        0.506256      -14.210790
  O           -2.456024       -0.411034      -14.335830
  H           -3.188271       -1.087246      -14.254896
  H           -6.392011       -5.197049       10.934489
  O           -5.773858       -5.610508       10.265956
  H           -6.259711       -6.321846        9.758073
  H           11.189221       -5.931698        5.780707
  O           10.347292       -6.369736        6.095791
  H            9.617721       -6.206025        5.431770
  H           -6.108019        1.015240       -0.489584
  O           -6.826611        1.012501        0.205843
  H           -7.008824        0.072154        0.493150
  H           -6.288926       -7.510707      -11.059489
  O           -6.400366       -6.724304      -10.451910
  H           -7.171725       -6.169245      -10.763222
  H            5.356568        2.170773      -14.546961
  O            4.461418        2.026989      -14.125022
  H            4.479242        2.362164      -13.183035
  H           -5.741166       12.074379        6.285542
  O           -4.784059       12.359535        6.234247
  H           -4.198685       11.551561        6.167054
  H          -13.695666       -1.851030        2.709337
  O          -13.203838       -0.982779        2.644174
  H          -12.225920       -1.142744        2.778662
  H          -11.408841       -2.963086       -1.615379
  O          -10.910783       -3.362168       -2.385230
  H          -11.554881       -3.822069       -2.996482
  H            2.731433       12.023345       -9.893054
  O            2.270780       12.247623       -9.034276
  H            2.005712       13.211834       -9.040148
  H          -10.414628        8.761681       -3.949732
  O           -9.649670        8.408176       -3.411333
  H           -8.962638        9.125785       -3.297216
  H           -5.763098       16.131329       -0.724374
  O           -5.178776       16.251627        0.078182
  H           -4.713388       15.390712        0.283704
  H          -10.909767       -0.546878      -11.574278
  O          -11.173573        0.373825      -11.286679
  H          -12.166167        0.415836      -11.172695
  H           -4.274031       15.195412       -7.272444
  O           -5.009388       15.035093       -6.614000
  H           -5.772631       14.578669       -7.071316
  H          -14.393188       -6.525878       -3.184280
  O          -14.456084       -6.325951       -2.206490
  H          -13.709117       -6.783406       -1.724022
  H           11.814749       -3.748741        4.110168
  O           12.813170       -3.765083        4.163912
  H           13.093799       -3.883680        5.116372
  H           11.651502       -8.069644       -2.057784
  O           11.986549       -7.130049       -1.987749
  H           11.403548       -6.614204       -1.360044
  H          -11.557547        0.424213       11.186838
  O          -11.389330       -0.207977       11.943171
  H          -12.133354       -0.874314       11.992381
  H            6.062948       11.104945       10.193629
  O            6.906392       11.498346       10.559467
  H            6.714076       11.945674       11.432916
  H            4.400618      -10.509000        1.943683
  O            4.842117       -9.658140        1.658875
  H            5.815492       -9.695790        1.884980
  H            1.257168      -14.652232       -9.554494
  O            1.876673      -13.867644       -9.579708
  H            2.815629      -14.179546       -9.434524
  H           15.620368       -5.093882        2.527935
  O           15.879243       -5.548835        3.379992
  H           15.398111       -5.121594        4.145483
  H            7.428523       -4.398324       -7.262267
  O            7.156804       -3.500974       -7.610020
  H            7.680795       -2.789445       -7.141875
  H          -14.526508      -10.248617        6.380278
  O          -14.839832       -9.302712        6.296065
  H          -15.747239       -9.214331        6.706921
  H          -14.995821       14.068119        6.074125
  O          -14.158748       13.536462        5.945087
  H          -13.529971       13.715879        6.701691
  H           -2.899832        8.727952        1.209373
  O           -2.771229        9.494165        1.838959
  H           -3.661846        9.877025        2.084354
  H           15.518127        1.840230      -14.622048
  O           16.250589        1.221185      -14.905389
  H           15.869440        0.491775      -15.473443
  H           13.739853       -5.911108        7.561462
  O           13.750656       -6.818465        7.981684
  H           13.530324       -6.738217        8.953803
  H           -2.299517       -2.954972        2.948119
  O           -3.170400       -3.426120        2.808175
  H           -3.059540       -4.130123        2.106684
  H           11.377071       -9.072656      -13.495939
  O           12.128548       -9.730023      -13.552080
  H           11.791909      -10.641942      -13.317392
  H            0.432580      -11.186044        1.448363
  O           -0.058164      -10.406114        1.059930
  H           -1.042472      -10.577803        1.100669
  H          -14.426985       -3.728459       13.030704
  O          -13.843426       -2.922224       13.127885
  H          -12.891657       -3.210397       13.233198
  H          -12.583574        6.040375       15.244333
  O          -13.274197        5.461858       14.810331
  H          -14.155304        5.934760       14.814059
  H          -15.049237      -11.690161        0.843674
  O          -14.111398      -11.355750        0.750789
  H          -13.992680      -10.536249        1.311434
  H           -4.061016      -13.938761        3.763387
  O           -4.504114      -14.646671        3.213360
  H           -4.736963      -14.273872        2.315139
  H           -6.234791        5.495008       -1.842526
  O           -5.725681        4.649651       -2.004321
  H           -6.357488        3.874527       -2.002565
  H           -9.809903       -1.432882      -15.853771
  O           -8.966018       -1.965196      -15.786698
  H           -8.180269       -1.346702      -15.794684
  H           -1.313288       12.608918        5.531362
  O           -0.777188       11.778694        5.684083
  H           -0.798444       11.542185        6.655479
  H            7.967036      -11.888132        3.335198
  O            7.972474      -11.198934        2.610645
  H            8.614855      -10.470376        2.848448
  H           15.869958        4.898424       -2.091677
  O           15.390670        5.744344       -1.857793
  H           15.705078        6.069969       -0.966100
  H           -9.654018        8.884019       -8.644481
  O           -9.632171        9.829073       -8.970666
  H           -8.710383       10.050650       -9.288803
  H           -6.649351       -4.913834        7.422442
  O           -5.652062       -4.985647        7.406409
  H           -5.252049       -4.069219        7.394219
  H           -4.829592       14.862347        8.296950
  O           -4.428775       15.203536        9.147207
  H           -3.434848       15.255085        9.049992
  H            6.213101       -8.539710       12.090150
  O            6.633170       -9.443697       12.010464
  H            7.628768       -9.350984       12.024214
  H          -12.382537       -9.337861        3.860733
  O          -11.758285       -8.701673        4.314136
  H          -10.844117       -8.793383        3.919312
  H            4.901588        2.736918       12.984902
  O            4.846808        3.235003       12.119506
  H            5.034324        4.204029       12.280210
  H           -8.593921        5.982351      -15.262152
  O           -9.149284        6.681250      -14.811472
  H           -8.971236        6.665188      -13.827582
  H            5.927403        0.349116       -5.301904
  O            6.631866        1.058389       -5.276131
  H            6.199242        1.959285       -5.311078
  H            1.126895       -5.699685        5.711102
  O            0.270383       -5.392949        5.296014
  H            0.297135       -4.401194        5.170691
  H           -8.761717        6.935499        5.308061
  O           -9.353174        6.146486        5.474304
  H          -10.282012        6.461427        5.669424
  H           -2.744595       -4.467230        6.281605
  O           -2.371336       -3.818938        5.617982
  H           -2.912332       -2.978046        5.632898
  H          -10.327865       -8.263219      -16.245248
  O          -10.110632       -9.237048      -16.178414
  H          -10.957553       -9.768721      -16.185394
  H            3.286530      -12.802303        8.325824
  O            3.073696      -13.715444        7.978153
  H            3.920287      -14.176622        7.712454
  H          -15.914857        7.575432        7.863343
  O          -15.113219        8.170132        7.924231
  H          -14.310412        7.623960        8.163388
  H           13.757086        7.005855      -14.729543
  O           13.980480        6.913770      -15.699911
  H           13.177765        7.143985      -16.250047
  H            9.587608        5.986921       -4.845318
  O            8.605160        6.168203       -4.801355
  H            8.128986        5.348835       -4.482147
  H            2.763733       -5.160836       -4.281790
  O            3.257299       -5.317470       -3.426303
  H            3.653439       -4.456375       -3.107574
  H           16.250177       -1.018770       13.456290
  O           15.431326       -1.589530       13.395334
  H           14.673329       -1.047317       13.032783
  H          -12.672626       13.482581      -10.873759
  O          -12.103283       14.304216      -10.901438
  H          -12.650756       15.078564      -11.218702
  H            9.591787        8.431185       -6.145478
  O            8.889736        9.127975       -6.292478
  H            7.985021        8.704410       -6.246842
  H           -1.926855        6.512399       -7.061162
  O           -2.147221        5.604307       -6.705062
  H           -1.308999        5.155084       -6.395899
  H           -8.730456       -1.150660       14.128981
  O           -9.311349       -1.948512       14.290212
  H          -10.122316       -1.893546       13.707708
  H           -2.818667      -15.569182        6.206524
  O           -3.701719      -15.100283        6.225278
  H           -3.577208      -14.168606        6.566563
  H            8.226544        0.813435      -15.219734
  O            8.680062        0.124453      -15.785089
  H            8.358680       -0.785615      -15.523385
  H           16.250342       -3.700610        0.240853
  O           15.781901       -4.492004       -0.151905
  H           16.252809       -4.777694       -0.986546
  H           -0.611627        1.145146        6.185801
  O           -0.988947        0.644893        5.406458
  H           -0.800582        1.149312        4.563795
  H           11.880622        9.610803        7.339388
  O           12.089752        8.875748        7.984337
  H           12.979521        9.046739        8.407508
  H          -12.988669      -12.602927        6.115777
  O          -12.457571      -12.866396        5.310470
  H          -11.489549      -12.925418        5.554293
  H            2.550461        8.755097       -9.827362
  O            2.370644        9.416474       -9.099182
  H            1.396356        9.641416       -9.086345
  H           -0.483455       -9.997014       -2.218926
  O            0.339219      -10.544961       -2.067397
  H            1.149426       -9.981025       -2.227207
  H           11.890717        5.748707       -7.397082
  O           10.993091        5.313770       -7.468483
  H           10.287226        6.017477       -7.549414
  H            9.126185        5.986731        0.359531
  O           10.121713        5.984311        0.265099
  H           10.459876        6.925332        0.276327
  H            0.363973       -6.376149       -4.021321
  O            0.606656       -6.962320       -3.248334
  H            1.487694       -7.400673       -3.426150
  H          -16.238754        0.610068       -7.572429
  O          -15.977953        0.045373       -8.355438
  H          -16.232098       -0.905721       -8.179855
  H           11.802962       13.242113        8.075398
  O           12.303240       12.378019        8.020045
  H           12.633476       12.243323        7.085807
  H           -7.654707        4.490880        1.373969
  O           -8.271337        3.703633        1.370848
  H           -9.216075        4.019889        1.457165
  H          -11.370184       -9.009110       -6.446599
  O          -10.669599       -8.855697       -7.143481
  H          -10.164174       -8.019745       -6.929633
  H           -1.508165        3.223948       12.749045
  O           -2.200365        3.610891       12.139838
  H           -2.556116        2.893269       11.541124
  H            2.503783      -14.824450       -1.834556
  O            1.754776      -15.253727       -1.329870
  H            1.882607      -16.245501       -1.323305
  H           11.494532      -16.248954        6.149202
  O           10.675165      -15.681273        6.069349
  H            9.902069      -16.249597        5.787694
  H           11.050465       -2.828310       14.707708
  O           10.625500       -3.525603       14.130484
  H            9.632071       -3.412473       14.147764
  H            0.077474       -9.765913       -5.051363
  O            0.139255      -10.182740       -5.958247
  H            1.064646      -10.062908       -6.317820
  H           -2.063204       -4.407052      -14.832326
  O           -1.925067       -4.454914      -15.821582
  H           -2.153128       -3.572486      -16.233054
  H           -3.804073      -13.165614       -0.012491
  O           -3.503613      -13.914562       -0.603084
  H           -3.516002      -14.771239       -0.087380
  H          -11.105046        3.540635       -5.467768
  O          -10.240028        3.046594       -5.380206
  H           -9.714281        3.427284       -4.619506
  H          -10.234521       -1.973678        6.881538
  O          -10.325693       -2.681958        7.581557
  H          -10.769384       -3.486206        7.186180
  H           15.469324      -11.740846      -12.077228
  O           16.070145      -11.104338      -11.593627
  H           16.091892      -10.231203      -12.080619
  H            6.802789      -13.527698       13.297723
  O            6.312088      -14.297522       13.705869
  H            5.827588      -14.800961       12.990461
  H            8.059638       -3.868462       -3.598070
  O            8.888464       -4.072260       -4.119139
  H            9.436613       -4.745913       -3.623435
  H           12.418962        6.817949       -4.614600
  O           13.313889        6.375389       -4.557629
  H           13.741491        6.370554       -5.461583
  H            0.325115       -9.803213      -12.654539
  O           -0.069883      -10.626157      -12.246201
  H            0.441244      -11.428912      -12.553339
  H           -2.879108        0.545588       12.918678
  O           -3.646454        0.871407       13.470967
  H           -3.820026        0.225484       14.214375
  H           -7.927578        7.835375       -6.003283
  O           -7.729300        8.812047       -6.085731
  H           -8.586138        9.327616       -6.081646
  H          -11.046334        6.941602        0.084218
  O          -11.970377        6.888831        0.462847
  H          -12.131457        7.674917        1.059605
  H          -10.522635       13.528706        6.401505
  O          -10.040239       13.129358        5.621880
  H          -10.702913       12.725579        4.991146
  H            2.056066      -13.315410       -6.801611
  O            1.801198      -14.282242       -6.818326
  H            0.804655      -14.364038       -6.832843
  H            6.872472       -7.439204      -11.824863
  O            6.818545       -8.437179      -11.858586
  H            5.861311       -8.716954      -11.932260
  H            9.190185       -5.029343       -0.884073
  O            9.929092       -4.440985       -0.555666
  H           10.248145       -4.771048        0.332739
  H            3.539270       -3.114397       13.104964
  O            4.322968       -2.493773       13.130323
  H            4.251476       -1.835804       12.380680
  H           -1.401223        9.157031        5.141607
  O           -1.619648        8.976712        6.100656
  H           -2.509940        9.375561        6.320426
  H           10.681626        8.755993       15.020244
  O            9.994318        8.130543       15.389593
  H           10.324563        7.742961       16.250243
  H           10.621099      -16.251537      -10.486970
  O           10.279415      -16.155479       -9.552077
  H           10.178922      -15.185192       -9.331975
  H           -0.770206        9.868701       13.911931
  O           -0.948273       10.745913       14.357791
  H           -1.897179       10.773484       14.672145
  H            7.825195       -9.135855       -4.637932
  O            7.873703      -10.131987       -4.711197
  H            7.438499      -10.546568       -3.911998
  H          -16.055587        0.707232        2.354234
  O          -15.116122        1.021483        2.217662
  H          -15.044448        1.983054        2.482698
  H           -5.385644       -7.742562       -4.956331
  O           -4.789458       -8.539859       -4.862099
  H           -5.220770       -9.331562       -5.294737
  H           -5.583870       10.017933       -1.012304
  O           -4.717473        9.518628       -1.005187
  H           -3.969533       10.145808       -1.222512
  H          -16.236956      -10.330888       -6.738239
  O          -16.246837      -11.243860       -6.330337
  H          -15.884434      -11.196983       -5.399496
  H           15.944202       -7.530124      -10.393737
  O           15.449973       -6.707691      -10.675412
  H           14.509760       -6.751754      -10.337686
  H            8.933369       -9.268825      -14.739544
  O            8.565408       -8.787314      -13.944087
  H            8.038045       -7.994291      -14.249051
  H          -13.775835      -12.110364       16.265593
  O          -14.768245      -12.013990       16.189211
  H          -15.179595      -12.912544       16.036266
  H           -2.995104      -10.269739       13.396307
  O           -2.656283      -11.092731       12.940363
  H           -3.184060      -11.884858       13.246936
  H          -12.407599        4.027230       -1.831979
  O          -11.901336        4.846127       -2.102356
  H          -12.466927        5.655330       -1.943308
  H            2.293313       15.858954        2.554352
  O            3.245981       16.153148        2.477714
  H            3.850104       15.386198        2.694098
  H           -6.424226      -14.190686       -8.524691
  O           -6.744848      -13.280733       -8.261656
  H           -7.699119      -13.335618       -7.967796
  H           12.420252       -4.387918        9.846069
  O           11.754604       -4.159801        9.135524
  H           11.398201       -5.001573        8.730065
  H            3.344855       -3.805499      -14.996197
  O            3.034805       -3.278138      -14.205148
  H            2.618780       -3.894120      -13.536202
  H           11.711397        4.197708       -5.060339
  O           11.442625        3.437616       -4.468713
  H           11.779210        2.579050       -4.855464
  H           -1.533889       15.399744       -7.413808
  O           -0.850066       14.693520       -7.597202
  H            0.035292       14.984717       -7.234784
  H           -0.323242       -4.857451       12.153433
  O           -0.282887       -3.864405       12.264023
  H            0.613523       -3.605228       12.623574
  H           12.421963       14.976581        0.246971
  O           13.415486       15.080172        0.293675
  H           13.664819       16.017021        0.048427
  H          -10.810109       -0.831433       -6.006569
  O          -10.123468       -1.458986       -5.639550
  H          -10.426152       -1.801025       -4.749948
  H          -12.413333      -11.881345      -13.048623
  O          -12.563445      -10.973203      -13.439446
  H          -13.543274      -10.773795      -13.452594
  H            9.814030      -13.043566        9.306627
  O            9.246020      -12.686666       10.048239
  H            9.145443      -13.385127       10.756784
  H           -3.195478        8.510122       16.205570
  O           -3.851240        7.780137       16.012960
  H           -3.486228        7.184412       15.297504
  H            0.370106       -8.004478        4.435990
  O           -0.263261       -8.184086        3.683270
  H           -0.339944       -7.368117        3.110283
  H          -10.632943       -5.751661       14.606339
  O          -10.689005       -6.369937       15.390298
  H          -10.407454       -5.884826       16.218185
  H          -11.571250        3.115988        8.685398
  O          -11.417282        4.058420        8.982243
  H          -10.551487        4.114007        9.479545
  H            3.920755       -8.042779       -4.873752
  O            3.490623       -8.899792       -5.157506
  H            3.150354       -9.384689       -4.351844
  H           14.212712       -8.203884       -7.683422
  O           13.400176       -8.736922       -7.919335
  H           13.546854       -9.694906       -7.672853
  H           13.479581      -11.227830       -3.078338
  O           13.204242      -10.299536       -3.328255
  H           12.860767      -10.295194       -4.267407
  H            1.284252       -0.399484        8.369554
  O            0.997625       -1.164948        7.793439
  H           -0.000941       -1.191483        7.746945
  H            1.965888        7.772068       11.377960
  O            2.826830        7.313513       11.598202
  H            3.204517        6.898256       10.770607
  H            1.581356       -1.656838      -11.102504
  O            1.570426       -0.780286      -10.621320
  H            0.637743       -0.574142      -10.325335
  H           -5.529983      -14.458417      -15.897992
  O           -6.471194      -14.178211      -16.086688
  H           -6.782599      -13.552852      -15.371180
  H          -12.086783       -3.010992      -11.306881
  O          -12.004696       -3.855407      -10.777520
  H          -12.249059       -3.676440       -9.824495
  H            2.163522        3.616737      -11.634256
  O            1.237174        3.241436      -11.602194
  H            0.575039        3.990217      -11.572146
  H            6.800566       -0.405365       12.378326
  O            7.317828       -1.248595       12.524621
  H            6.988919       -1.701908       13.353069
  H            2.002401       13.287714       -6.027630
  O            1.675048       13.348416       -5.084680
  H            1.824770       12.474127       -4.622942
  H           -8.792263        5.265014       -2.816391
  O           -9.249524        5.536497       -1.969509
  H           -8.894851        6.421595       -1.668166
  H           -8.023100       -3.060690       -0.169359
  O           -8.431184       -3.859896       -0.610649
  H           -9.309692       -4.066273       -0.179799
  H           14.687762        9.668487       16.095048
  O           15.287064       10.468722       16.073560
  H           16.241267       10.170136       16.055103
  H            6.102024        0.936279        3.638278
  O            6.448448        1.485440        4.398812
  H            7.168982        0.980168        4.873713
  H            7.728833       14.213512       12.751305
  O            8.598279       14.455570       12.320640
  H            8.422388       14.921578       11.453519
  H           14.236814       -8.524172       -1.254181
  O           15.175126       -8.397622       -1.575981
  H           15.446272       -7.443889       -1.446081
  H            7.453037      -11.581550       -1.366073
  O            6.999670      -11.350417       -0.505239
  H            7.007587      -12.146513        0.099880
  H           12.628728        4.577809        2.222632
  O           11.749942        4.376281        1.790056
  H           11.564864        3.395538        1.852422
  H            3.610956        6.601713        2.518531
  O            3.083938        5.783394        2.747891
  H            3.709531        5.032138        2.958239
  H            4.081569        1.776635       -9.189448
  O            3.968719        2.299284      -10.034494
  H            4.865449        2.587241      -10.370581
  H          -12.586671      -16.249853        8.684147
  O          -13.224704      -16.110395        7.926873
  H          -14.163130      -16.195392        8.261732
  H            0.536049      -11.721603       -8.442843
  O           -0.448093      -11.777490       -8.611191
  H           -0.770078      -12.700894       -8.402265
  H           16.118612        8.569900        2.374849
  O           16.259752        9.550993        2.242420
  H           15.376409        9.999364        2.105790
  H            0.448201        7.094062       -8.668816
  O            0.660499        6.398209       -7.982726
  H            1.408003        6.720143       -7.401697
  H            4.212647        9.837522      -11.730610
  O            4.551026       10.757800      -11.534172
  H            4.644115       11.268234      -12.389036
  H           -2.756785       -8.897827       -0.730369
  O           -3.548372       -9.508452       -0.707384
  H           -3.241599      -10.445772       -0.542095
  H           -7.380921       -9.055398       -7.326346
  O           -7.849271       -9.685706       -7.945506
  H           -8.365127       -9.163847       -8.624885
  H           -7.891287       11.670722       -4.360238
  O           -7.196896       10.951181       -4.351178
  H           -6.286999       11.365997       -4.354882
  H           13.294942      -13.051781      -16.250044
  O           12.970495      -13.083827      -15.304683
  H           13.385571      -12.337523      -14.784354
  H           -1.087670        7.082617       12.136022
  O           -1.521957        6.262381       11.763724
  H           -2.513052        6.328240       11.879455
  H            7.362506      -13.122425        6.293992
  O            6.933093      -13.349111        5.419797
  H            6.433787      -14.211107        5.507304
  H           12.227297      -15.554547       11.282128
  O           11.921876      -15.045817       10.477198
  H           12.088748      -14.069754       10.616680
  H          -15.483825        4.392066      -12.680027
  O          -16.191448        4.078918      -12.046618
  H          -16.249882        4.710437      -11.273463
  H          -14.860205       11.531529       -2.369564
  O          -14.027436       10.979044       -2.404995
  H          -13.228173       11.579972       -2.396972
  H           14.853878      -11.197974        4.843231
  O           15.644862      -11.478782        5.386822
  H           16.037295      -10.679455        5.841873
  H            7.579311        7.156496      -11.513054
  O            6.655343        7.439129      -11.255367
  H            6.686222        8.355516      -10.856268
  H           -2.010524       -7.972619      -14.917828
  O           -1.861401       -8.046697      -13.931788
  H           -1.022601       -7.561819      -13.684184
  H            0.217119       -1.710547      -13.832895
  O           -0.262924       -2.333402      -14.450642
  H            0.393244       -2.965586      -14.862694
  H           -4.968250      -15.970660       -2.208534
  O           -4.707349      -16.275597       -3.124473
  H           -3.713934      -16.219176       -3.224190
  H           -0.989250      -15.287311       -1.468705
  O           -0.851049      -14.335037       -1.196538
  H           -1.099853      -13.732237       -1.954647
  H            2.481472       -8.573760        0.792769
  O            2.230036       -8.873155        1.713173
  H            2.185553       -8.080366        2.321042
  H            4.315933       -0.609440       -1.598967
  O            4.333503        0.390019       -1.571162
  H            5.104393        0.694394       -1.011624
  H          -11.443316       -7.703328       11.905130
  O          -11.875885       -6.801756       11.912277
  H          -11.170311       -6.093373       11.893326
  H          -14.113436        9.569748        1.248618
  O          -14.481119        9.029748        0.491513
  H          -15.182459        9.559207        0.014234
  H            6.965434        2.301362        9.503177
  O            6.691397        1.341352        9.560488
  H            7.494343        0.776273        9.750126
  H           -2.722782        5.385620       -0.181534
  O           -3.388795        4.737683       -0.551134
  H           -2.915393        4.052189       -1.104296
  H           -7.559332      -16.258123        0.456513
  O           -6.752044      -16.176861       -0.128024
  H           -6.198433      -15.400868        0.174215
  H           -5.191937       -8.278025      -13.784319
  O           -4.869875       -7.391385      -13.452437
  H           -4.422786       -6.898462      -14.198854
  H            9.792009      -12.838998       -0.486819
  O           10.385541      -13.410194       -1.053789
  H            9.825070      -14.021237       -1.612804
  H            9.699564        8.850800       -1.533679
  O            9.930684        8.139350       -2.197322
  H            9.123782        7.920502       -2.745969
  H          -12.744358       -0.527767        8.501990
  O          -13.700621       -0.639028        8.772513
  H          -13.749427       -0.833050        9.752296
  H          -15.384944       -8.863057       -0.979325
  O          -15.824415       -8.379837       -0.222118
  H          -16.251241       -7.542597       -0.563948
  H          -11.771445       13.413713       15.890018
  O          -12.263495       13.531893       15.027509
  H          -12.550777       14.485318       14.935591
  H            4.743403        3.329892       -3.191869
  O            5.239041        4.051164       -3.675718
  H            4.809836        4.212008       -4.564488
  H          -11.662718       11.487713       10.141731
  O          -11.719081       11.329832       11.127579
  H          -12.491559       11.841668       11.503481
  H            5.430845        0.427362        7.295642
  O            6.194028       -0.205293        7.164115
  H            5.846478       -1.082576        6.833082
  H           -5.352548        5.261219      -10.219042
  O           -4.647438        5.951561      -10.057030
  H           -4.237518        6.220257      -10.928676
  H           -2.614521       -4.445265       -1.783497
  O           -2.144983       -3.639730       -2.144947
  H           -1.839495       -3.823263       -3.079288
  H            5.093088        9.160985       -7.807995
  O            5.907986        8.759665       -8.226186
  H            5.987950        7.802285       -7.948645
  H            7.986050      -14.333040       -3.631546
  O            7.043255      -14.633979       -3.774986
  H            7.001997      -15.632250       -3.733128
  H           13.509160       -9.455682        3.174502
  O           13.198609       -8.511721        3.062716
  H           13.140911       -8.292955        2.088646
  H            1.778827        2.366515       -1.755678
  O            2.466372        2.352270       -1.029676
  H            2.221460        1.658659       -0.352239
  H          -11.921595       11.011397       -9.932084
  O          -11.953840       11.494883       -9.057325
  H          -11.184226       12.130756       -8.999374
  H            2.257260        3.067098        4.940989
  O            1.647967        3.561290        5.561099
  H            0.697339        3.377250        5.311230
  H            0.539599        6.587763      -15.949762
  O            1.207287        5.854010      -15.824066
  H            0.865897        5.016136      -16.250000
  H            0.603036       11.214884       -1.586017
  O            0.228404       11.086428       -2.504249
  H            0.809193       10.453012       -3.015589
  H           11.983654        2.636859       -7.955811
  O           12.474020        3.268127       -8.556680
  H           13.454775        3.078489       -8.510240
  H           16.249846        2.204699       12.424662
  O           15.664799        1.627771       12.994639
  H           14.737958        2.002991       13.007873
  H           -4.093881       -2.252176       -0.788366
  O           -3.741090       -2.324581        0.144531
  H           -2.744010       -2.249509        0.130582
  H           14.302177      -10.637615       13.232659
  O           14.823970      -10.416665       14.056621
  H           14.396478       -9.643099       14.524429
  H          -12.150800      -15.373793       13.488025
  O          -12.560496      -16.205509       13.862723
  H          -12.382225      -16.251261       14.845640
  H           -4.551046        0.718640       -6.840920
  O           -4.664969        1.610035       -6.402244
  H           -3.769418        2.037328       -6.278121
  H          -12.674709       12.831635      -13.790541
  O          -12.848790       13.813614      -13.716966
  H          -13.801643       13.964397      -13.453653
  H           -3.416698       12.158055        3.600666
  O           -3.734998       13.091030        3.768722
  H           -3.088539       13.740851        3.368944
  H            6.979843       -4.850279       10.998223
  O            6.074477       -5.024724       11.385367
  H            6.033318       -4.658622       12.315031
  H           10.587423        8.520098      -16.082540
  O           11.334368        9.181876      -16.146743
  H           10.959349       10.108893      -16.146000
  H           11.713561        1.024160       14.090670
  O           11.884208        0.441551       14.885306
  H           11.201495        0.631733       15.590809
  H           -3.745166        9.568717       10.128621
  O           -3.433936       10.421357        9.708930
  H           -2.861957       10.212982        8.915571
  H           -8.110679      -11.357806        1.807359
  O           -8.351106      -10.473254        2.207062
  H           -9.041591      -10.605469        2.918222
  H          -15.731031        8.187271       14.897369
  O          -15.510265        9.039247       14.422606
  H          -16.249963        9.698200       14.559092
  H            8.720986        3.057386        3.961725
  O            9.253682        3.796094        4.374695
  H            9.708397        4.321457        3.655509
  H           14.780280        8.597272        4.775487
  O           15.400957        8.697640        5.553103
  H           15.848353        7.822538        5.737586
  H           10.858677       -9.407509        4.314467
  O           10.050958       -9.207236        4.868975
  H           10.306199       -9.190165        5.835702
  H          -16.255584      -10.237095        2.837533
  O          -15.756391      -10.278448        3.703037
  H          -16.247961      -10.868531        4.343473
  H            5.181461      -13.778135        2.168128
  O            5.543388      -12.925668        2.545367
  H            5.079025      -12.718573        3.406458
  H          -15.858034       -3.653591       -8.279684
  O          -16.210727       -3.525743       -7.352720
  H          -16.295093       -4.414734       -6.902635
  H          -16.110846       -6.619393       -5.287409
  O          -16.202766       -7.588648       -5.515655
  H          -15.297165       -7.979811       -5.679598
  H            5.732506       -5.994832       -8.807665
  O            5.849233       -6.816295       -9.365851
  H            6.379160       -7.493558       -8.855465
  H            7.672273      -11.025681      -10.731916
  O            8.447355      -10.574513      -11.174291
  H            8.796933       -9.851750      -10.578130
  H           -4.586833       11.335965       12.178384
  O           -5.482120       11.395533       11.736894
  H           -5.924115       10.498746       11.757231
  H          -13.441438       -8.598928      -16.249549
  O          -13.229132       -7.802640      -15.683111
  H          -12.810605       -7.092715      -16.249541
  H            0.316408       -1.119768       13.740976
  O           -0.523931       -0.577840       13.753026
  H           -0.293048        0.395132       13.757287
  H           -7.404436      -14.078417       15.966736
  O           -7.365593      -14.605620       15.117885
  H           -7.138317      -13.997034       14.357642
  H           -2.850283       12.470335       -2.343322
  O           -2.331367       12.380797       -1.493199
  H           -1.524050       12.969645       -1.531890
  H           11.080529       10.791513       -6.322468
  O           11.725207       10.156018       -5.897573
  H           12.458998       10.671665       -5.455240
  H           -8.570874       -9.740835       16.249355
  O           -7.853446       -9.365356       15.662574
  H           -8.211876       -9.238108       14.737730
  H            8.079769       -9.504834        7.502076
  O            8.168161      -10.443237        7.168031
  H            8.310282      -11.060498        7.941847
  H           -5.520837       -9.976004       -2.641409
  O           -4.985362      -10.818687       -2.697555
  H           -4.118930      -10.632785       -3.160949
  H            7.721616        4.683829        6.709795
  O            7.673860        3.688328        6.627953
  H            6.733196        3.415188        6.426595
  H            3.071617       -5.878119       12.764229
  O            2.286346       -5.723833       12.164608
  H            2.551039       -5.111477       11.419652
  H           11.662602       -7.782307       -6.013919
  O           11.608984       -7.577136       -5.036663
  H           12.527769       -7.591495       -4.642168
  H          -13.848322        2.785860        4.917922
  O          -12.886003        3.028632        4.795434
  H          -12.785679        4.022876        4.833033
  H           -9.685544       11.062418      -11.766470
  O           -9.769784       11.968280      -11.351359
  H           -8.878271       12.260530      -11.005246
  H           -6.766158        3.803835       -6.236903
  O           -7.661382        4.249430       -6.232562
  H           -7.574677        5.175229       -6.600498
  H           10.919538       15.644253        9.244963
  O           11.396817       15.967517       10.062096
  H           10.727444       16.249939       10.749247
  H          -16.249639       11.299468       -6.790734
  O          -15.692466       10.742992       -7.407089
  H          -16.250693       10.004969       -7.786173
  H           -4.390306      -10.248838      -15.555057
  O           -4.119812      -10.664846      -14.686857
  H           -3.173598      -10.416942      -14.478958
  H          -11.185564       13.650661       -5.385038
  O          -12.152943       13.625720       -5.132935
  H          -12.371872       12.732942       -4.739212
  H           10.946633      -12.803459       13.837204
  O           10.567805      -13.719839       13.707835
  H            9.603098      -13.648959       13.454229
  H           -7.391749       -5.031010        4.724155
  O           -6.841327       -4.197603        4.773836
  H           -7.437432       -3.399011        4.690715
  H            9.371736      -10.010167       -0.132793
  O            9.475652       -9.213968        0.463251
  H            9.763251       -8.425671       -0.080692
  H          -10.394144       -6.280445        2.073015
  O          -11.357062       -6.057285        1.921396
  H          -11.929903       -6.652750        2.484668
  H          -13.011855       -6.388965      -13.335931
  O          -12.843270       -5.563746      -13.874997
  H          -13.513490       -4.863079      -13.630311
  H           -0.131055       -4.437079       15.149762
  O            0.299697       -5.322415       14.974738
  H            1.267235       -5.186082       14.761944
  H           16.249997       -0.023523      -11.868703
  O           15.820408       -0.916929      -12.000149
  H           16.249808       -1.585771      -11.393300
  H           15.985808       13.449882       13.883921
  O           15.566064       13.780434       13.038611
  H           16.249916       13.791544       12.309075
  H            7.602808       16.247353       14.613566
  O            7.423236       15.814588       15.497007
  H            7.598812       14.832482       15.428889
  H           10.284848        4.655173       11.276175
  O           10.799085        4.688274       10.419165
  H           10.543960        5.509563        9.908876
  H          -14.329871      -13.782717      -13.507021
  O          -15.026814      -13.070688      -13.421667
  H          -15.876019      -13.382715      -13.847685
  H            2.193421       12.796045        7.872107
  O            1.413493       13.043484        7.297228
  H            1.655791       12.918850        6.335065
  H          -10.938518       -0.619562       -8.735635
  O          -11.724210       -1.236741       -8.693447
  H          -12.569013       -0.701690       -8.698666
  H          -14.681147        7.647649      -12.528577
  O          -15.517341        7.123056      -12.368633
  H          -16.243474        7.738553      -12.062212
  H           -4.622871        6.928020       -6.668473
  O           -5.285879        6.577039       -6.007237
  H           -4.925129        5.746926       -5.582065
  H           -6.710545        3.013236       16.249834
  O           -6.987682        2.127029       15.878578
  H           -6.449830        1.925669       15.059940
  H            7.332683       13.327313       -9.788319
  O            6.823100       12.467373       -9.759549
  H            5.844020       12.661947       -9.700028
  H          -11.239547        0.594821       -3.680928
  O          -10.377654        1.043755       -3.445135
  H           -9.660265        0.737608       -4.070936
  H          -14.006306        0.518856       -5.828849
  O          -13.833428       -0.461751       -5.921166
  H          -14.702657       -0.956018       -5.909268
  H           -4.025759       -0.831018        6.927738
  O           -3.184820       -0.322343        6.743155
  H           -3.094154        0.422785        7.403885
  H          -13.687186       -8.287995      -11.463911
  O          -14.481957       -8.771891      -11.830222
  H          -15.079887       -8.122720      -12.300388
  H          -14.356142       -7.597740       14.104109
  O          -13.532866       -8.025332       13.730772
  H          -12.757952       -7.840616       14.335245
  H           -8.031510       -7.214792        6.828475
  O           -7.304159       -7.879768        6.658864
  H           -6.505396       -7.411097        6.281604
  H          -12.843772       -6.790561       -5.836947
  O          -12.387752       -6.095949       -5.280566
  H          -11.552613       -6.479872       -4.886680
  H            3.593661       -6.490466      -13.772073
  O            4.376479       -6.781234      -13.221937
  H            4.266275       -6.450759      -12.284578
  H            9.380867       11.517530      -10.103122
  O            9.226996       10.869002      -10.848599
  H            9.932000       10.990876      -11.547253
  H           -9.285560        2.945893       -1.049740
  O           -9.047805        1.992232       -1.234140
  H           -8.302014        1.957290       -1.899403
  H           -1.291299        3.477820      -15.513275
  O           -1.320182        2.591772      -15.975970
  H           -2.260357        2.389336      -16.249996
  H           12.254092       14.258273       -8.626410
  O           11.919105       15.183152       -8.806363
  H           12.689425       15.777699       -9.036843
  H           -4.710594        3.828739       13.355350
  O           -4.605118        4.704873       12.884963
  H           -4.698974        5.450690       13.544468
  H           -6.951477        1.296418       -4.864247
  O           -6.266775        1.513863       -4.168617
  H           -5.777816        0.680681       -3.910300
  H           11.451935      -12.321657        4.145577
  O           10.497557      -12.131349        4.375680
  H           10.062746      -12.966808        4.711757
  H            5.221195       -6.140137       15.283768
  O            5.715410       -5.271525       15.248221
  H            6.388316       -5.240413       15.987295
  H           10.379566        6.763054       13.034958
  O           11.262547        7.151875       12.771972
  H           11.251850        7.373973       11.797006
  H           10.382155       -5.106915       -6.181348
  O            9.820856       -5.654271       -6.802109
  H            9.317955       -6.341714       -6.278169
  H          -13.816828       11.175270      -11.917200
  O          -14.267395       10.283945      -11.866902
  H          -15.250461       10.398881      -12.009631
  H          -11.265647       15.650382       -3.500838
  O          -12.045431       16.275088       -3.541822
  H          -12.895005       15.747673       -3.549345
  H            8.070162       10.092318       13.002539
  O            8.204652        9.229656       12.514966
  H            9.173741        9.118987       12.294467
  H          -13.945688       -2.301821       -2.440764
  O          -14.545776       -2.517644       -3.211034
  H          -14.006096       -2.916420       -3.952467
  H           10.113789        0.013087      -13.361223
  O           10.824620        0.698019      -13.201262
  H           10.864361        0.915656      -12.226042
  H            6.206720        6.711231        3.422088
  O            5.954785        6.319320        4.306924
  H            6.099150        5.330006        4.286537
  H          -10.153667       -5.066797       -6.762951
  O          -10.538350       -4.965427       -7.680416
  H          -11.410657       -5.451690       -7.731691
  H            0.682119       -2.174341        1.829964
  O            0.519275       -1.212473        1.610211
  H           -0.419536       -1.099200        1.284938
  H           -0.267601        4.450833       -2.967431
  O           -0.848612        4.450206       -3.781327
  H           -1.783189        4.695741       -3.523882
  H           15.562372       14.299248       -6.243689
  O           16.250084       13.598639       -6.433951
  H           15.796123       12.755696       -6.722680
  H           11.299101       -2.185873      -11.458713
  O           10.647661       -2.939022      -11.367097
  H           11.145841       -3.799842      -11.263153
  H           -7.172937       11.682214       -7.014018
  O           -7.700811       12.495815       -7.257743
  H           -8.597690       12.220012       -7.603490
  H           13.757410        0.011989      -13.563817
  O           13.958575       -0.853037      -14.023450
  H           13.133609       -1.417731      -14.046929
  H          -12.173700       14.375962       -1.242167
  O          -12.227214       15.319775       -0.916047
  H          -12.864472       15.371104       -0.147108
  H            8.517369        0.674524       -9.390118
  O            7.681113        0.486840       -9.905337
  H            6.910489        0.953690       -9.471529
  H            8.349447      -16.251429       -0.240455
  O            7.453611      -15.807146       -0.250004
  H            7.573895      -14.814407       -0.251110
  H           14.339111       -5.002576       15.733334
  O           14.043673       -5.738300       15.123886
  H           14.815865       -6.344969       14.935016
  H            4.569395      -11.353900       -5.693060
  O            5.473765      -10.941283       -5.801970
  H            5.441258      -10.253693       -6.527341
  H           -7.219789      -16.275634       -6.950825
  O           -6.806220      -15.676865       -6.264941
  H           -5.954345      -16.084824       -5.936493
  H          -11.032184      -13.758266        2.884452
  O          -10.658386      -12.832634        2.943451
  H          -11.402495      -12.167843        2.877476
  H          -12.777706       -4.759548       -0.047579
  O          -13.641331       -4.255427       -0.051216
  H          -14.395600       -4.885071        0.134866
  H           -1.230929      -13.804157       13.458407
  O           -1.112116      -13.532306       14.413384
  H           -0.460378      -12.775686       14.465941
  H            2.612078      -13.921526       13.979938
  O            3.341795      -14.584647       14.146623
  H            2.955470      -15.506733       14.169216
  H           -6.616382       -1.643712       -2.058734
  O           -7.240943       -0.866998       -2.140207
  H           -8.182788       -1.199968       -2.185579
  H          -16.271146      -12.440264       -2.598988
  O          -15.669145      -11.641889       -2.585169
  H          -16.216620      -10.810012       -2.676007
  H          -10.314942       -9.965426        6.512334
  O          -11.243021      -10.334649        6.463906
  H          -11.881627       -9.686627        6.878936
  H          -15.480902        3.468360      -15.303400
  O          -15.013120        4.348027      -15.389227
  H          -15.689051        5.084819      -15.405173
  H           -8.444390      -15.266082       -3.903898
  O           -9.443624      -15.250622       -3.867944
  H           -9.788050      -16.184133       -3.768306
  H          -12.874831       -9.872844       -1.212300
  O          -12.231824      -10.631801       -1.109701
  H          -12.432128      -11.333154       -1.793794
  H            6.321368       10.946198        1.690554
  O            6.288999       11.008046        2.688115
  H            5.957756       10.143093        3.065121
  H            6.072808      -11.861805      -12.807247
  O            6.843350      -11.629503      -13.400795
  H            6.910029      -12.301150      -14.138660
  H            4.582840       11.196237       -4.285115
  O            4.358369       10.236716       -4.115018
  H            3.372530       10.144837       -3.974739
  H           15.162915      -13.677505       15.939119
  O           16.097357      -13.634148       15.585653
  H           16.249998      -14.393443       14.953062
  H            8.681092        2.494504       -2.823515
  O            9.492342        2.012550       -3.154564
  H            9.243064        1.079478       -3.413866
  H           16.249992        0.693675       -8.194739
  O           16.021102        1.601013       -7.842108
  H           15.283842        1.521629       -7.171180
  H           -0.887910       11.293964       -5.008607
  O           -1.619254       11.921000       -4.740350
  H           -1.349432       12.859480       -4.955874
  H          -15.171083       -4.162697        2.694883
  O          -15.850853       -3.608916        3.175755
  H          -16.001728       -3.985801        4.089645
  H            5.584961       -2.351591       -4.913360
  O            5.263731       -1.999271       -4.034337
  H            6.031659       -1.945528       -3.396060
  H          -15.986731       15.358495      -14.449778
  O          -16.239060       16.239574      -14.049740
  H          -15.974437       16.255876      -13.085526
  H           -8.924991       -1.532690        9.883085
  O           -9.277845       -2.439109       10.115244
  H           -9.547593       -2.455228       11.078040
  H            1.726451        8.422717      -14.280317
  O            2.075493        8.919776      -15.074736
  H            1.379773        9.560777      -15.398914
  H            6.470177       15.549085       -4.205653
  O            6.160582       15.953082       -3.344876
  H            6.952988       16.249792       -2.811906
  H           -8.642365        0.836335      -12.257082
  O           -8.078105        0.078907      -12.585583
  H           -8.610979       -0.484176      -13.217233
  H          -11.048898        0.003991        0.319220
  O          -11.065817       -0.995535        0.293525
  H          -10.129446       -1.343712        0.249003
  H            8.532457        7.587796       -8.970093
  O            8.684192        8.576174       -8.979342
  H            9.666643        8.762503       -8.987776
  H           -1.734834        7.771107        9.469527
  O           -1.883482        7.569779        8.501348
  H           -2.831377        7.283189        8.362209
  H           -3.257295        6.811649        5.684185
  O           -2.679949        5.995150        5.683378
  H           -1.717849        6.267246        5.665296
  H            2.437448      -13.271276      -13.915825
  O            1.818469      -14.055149      -13.964884
  H            0.873094      -13.731444      -14.003387
  H            4.064403        3.114156        7.009440
  O            3.320142        2.977338        7.663166
  H            3.277945        2.012632        7.923089
  H          -13.910671       -6.997695        4.361645
  O          -14.575089       -6.706442        5.049919
  H          -14.227612       -5.900002        5.528369
  H           -0.797637       -6.007457       -6.498688
  O           -0.963856       -6.976439       -6.315806
  H           -0.837553       -7.500995       -7.157761
  H          -14.756920        3.612835       -5.914729
  O          -13.832381        3.728666       -5.551671
  H          -13.642758        4.702602       -5.427207
  H           15.393383       -9.667451        1.184810
  O           15.172394      -10.632567        1.044401
  H           15.026859      -10.802815        0.069806
  H           -8.809378        8.635361       -0.062035
  O           -9.070675        9.460067        0.439546
  H           -9.902758        9.281266        0.964586
  H          -11.620450        8.697193        9.384195
  O          -10.666775        8.908534        9.170094
  H          -10.210255        8.084857        8.833724
  H           -4.909795       12.639705       -0.527319
  O           -5.309721       13.193155       -1.257903
  H           -5.668342       12.592734       -1.972665
  H           -4.486417      -13.460912       -6.737166
  O           -3.788752      -13.820658       -7.356719
  H           -3.846425      -13.346238       -8.235126
  H            9.412281      -13.483069       16.192597
  O            8.810935      -12.684172       16.204713
  H            7.858247      -12.984748       16.249882
  H          -13.570948       -4.096167       -6.857080
  O          -13.296709       -3.136678       -6.792474
  H          -12.299481       -3.077341       -6.747579
  H          -10.255097       12.127499      -16.261504
  O          -11.084711       11.620338      -16.027990
  H          -10.959806       11.164585      -15.146691
  H            7.366767      -15.529381        2.508401
  O            7.591516      -14.733414        3.070471
  H            8.571467      -14.732046        3.269701
  H           16.246504       -1.991790       16.250510
  O           15.270752       -1.807873       16.131837
  H           15.101320       -0.827768       16.235220
  H          -16.246651      -14.436334       -0.183528
  O          -15.436003      -14.401613        0.400977
  H          -15.416919      -15.207578        0.992632
  H           -2.627958       -8.759129        2.404833
  O           -3.495527       -9.234486        2.258684
  H           -4.032743       -9.214447        3.101890
  H           15.395543        7.071807       -8.242012
  O           14.491394        6.673014       -8.088782
  H           14.577026        5.681802       -7.987958
  H           -0.355449       14.336079      -13.017741
  O            0.534238       14.780761      -13.121260
  H            0.931187       14.530555      -14.004338
  H           -3.827296        5.905763        3.066611
  O           -4.614073        6.511498        3.185223
  H           -4.300914        7.460263        3.227369
  H            4.087277       -8.575746        4.215820
  O            3.819881       -9.219283        4.933010
  H            3.623850      -10.110823        4.524688
  H          -16.248761       -7.474731        2.999813
  O          -16.173873       -6.937450        2.159741
  H          -15.208749       -6.799009        1.937552
  H            8.671823      -16.249791       16.067866
  O            7.834773      -15.734516       16.251821
  H            7.101962      -16.065929       15.657554
  H            4.272204       11.694678       14.480131
  O            5.221045       11.863932       14.213574
  H            5.674755       10.992938       14.025119
  H            1.172121      -13.062773        3.310801
  O            2.070079      -12.806532        2.953012
  H            2.465513      -13.580992        2.459208
  H           -1.492251       15.321944      -10.715842
  O           -0.642584       15.497984      -10.218776
  H           -0.149879       16.249936      -10.656737
  H           -2.921796       -3.003094       -6.231239
  O           -3.818589       -2.560735       -6.222272
  H           -4.534531       -3.257927       -6.259028
  H           13.570189       -9.736420        6.785872
  O           13.095455       -9.408932        5.968939
  H           13.331038       -8.450452        5.808262
  H            1.563416       -9.563886      -10.117187
  O            0.773895       -9.222632       -9.607087
  H            1.087704       -8.755524       -8.780447
  H           -7.638193      -14.408532      -10.963448
  O           -7.203718      -13.958986      -11.743922
  H           -7.778343      -14.069947      -12.554782
  H           -8.249761       -5.343540       -2.964694
  O           -9.223667       -5.374367       -3.189542
  H           -9.360578       -5.045641       -4.123991
  H           10.675859        3.370108      -10.634832
  O           11.284539        3.509793      -11.415856
  H           10.929732        4.250224      -11.986709
  H          -16.248677        7.227335       -2.263896
  O          -16.093723        6.246616       -2.144823
  H          -15.175371        6.096301       -1.778714
  H          -10.435227       -7.525450        9.352742
  O          -10.525683       -8.520058        9.302024
  H           -9.669377       -8.916155        8.970595
  H           -0.413787       15.384171        0.907314
  O           -0.302480       16.040816        1.653255
  H           -1.182957       16.184397        2.105080
  H           -2.019155       -8.853826       15.579584
  O           -2.500155       -8.022825       15.300163
  H           -3.482243       -8.205590       15.254332
  H            2.910730       -3.475715        0.915372
  O            3.530521       -2.960677        0.323261
  H            3.146201       -2.910831       -0.598592
  H           -4.171518       -7.437025       12.660789
  O           -3.658512       -7.992200       12.006110
  H           -4.146942       -8.015265       11.133812
  H            2.661998       -7.916030       10.468253
  O            3.631222       -8.156276       10.521978
  H            4.169049       -7.333152       10.704211
  H           15.212725       -3.887849        9.725331
  O           15.415617       -4.064617       10.688445
  H           15.546094       -3.196010       11.166459
  H          -15.116753        7.485846        3.158761
  O          -14.159298        7.563364        3.436734
  H          -13.707855        6.677734        3.327837
  H          -13.299118       -5.239109       15.041297
  O          -14.141905       -5.063216       15.549993
  H          -13.970020       -4.370581       16.250502
  H           -2.239889      -15.968717        8.867192
  O           -1.386605      -15.551117        8.554915
  H           -1.261538      -14.668965        9.008970
  H          -12.291956      -15.669002        4.401514
  O          -13.178226      -16.023126        4.700049
  H          -13.612970      -15.361385        5.310865
  H           10.218728      -15.223794      -13.659514
  O           10.537522      -14.443840      -14.198069
  H           10.929930      -13.755568      -13.587907
  H           -5.496140       -2.736840       -9.516644
  O           -4.991731       -3.501842       -9.116215
  H           -4.022193       -3.418912       -9.346690
  H          -11.533680      -10.893024      -10.657875
  O          -11.099386      -10.069468      -11.022765
  H          -10.501248      -10.317765      -11.784723
  H           -9.556399        6.597290       11.169530
  O           -9.571987        7.419898       11.737925
  H           -8.782964        7.992996       11.516562
  H           -2.880658        0.046825        1.658352
  O           -3.613523        0.727199        1.658360
  H           -4.499085        0.263212        1.636071
  H           -8.018172      -10.810895      -15.360367
  O           -8.790654      -11.393958      -15.108754
  H           -9.012390      -12.001115      -15.871769
  H           -9.204543        1.422307       13.273115
  O           -8.427573        2.040151       13.152343
  H           -8.715853        2.978981       13.340738
  H            7.204281        7.741923        8.781732
  O            8.022642        8.203194        9.124535
  H            7.762070        8.867293        9.825303
  H           12.071380       10.555113       -9.819346
  O           11.971032       10.259470       -8.869333
  H           12.853865       10.326317       -8.404427
  H           13.470490       -3.507874       13.594873
  O           13.218796       -3.688977       12.644162
  H           13.320511       -4.665173       12.452598
  H           -9.691205       11.212563        2.921261
  O          -10.603213       11.426616        2.571373
  H          -10.522023       11.873160        1.680303
  H           -5.501215        2.843477        1.770749
  O           -4.947342        3.653830        1.579564
  H           -3.991353        3.464644        1.803828
  H          -14.569990       -6.190877       11.538589
  O          -14.630511       -7.172710       11.358750
  H          -15.572828       -7.478881       11.494016
  H           -5.188762        1.345901        5.718764
  O           -5.886875        1.639735        5.065847
  H           -6.572414        0.918869        4.963928
  H           -5.102013      -15.391372      -13.125943
  O           -4.862546      -16.250368      -12.673415
  H           -4.428799      -16.054189      -11.793997
  H            5.921763       -4.741554      -14.228388
  O            6.415249       -4.775640      -15.097474
  H            5.969956       -4.170671      -15.757570
  H            4.921102       -0.952677      -15.209789
  O            4.893347       -0.686353      -14.246305
  H            5.825667       -0.551308      -13.910831
  H           15.422817       14.194657       -9.037665
  O           15.477734       15.175328       -8.849870
  H           16.250045       15.567639       -9.349497
  H          -14.253841       13.005081        0.022090
  O          -13.858898       12.110156        0.229766
  H          -12.862669       12.186798        0.270443
  H          -14.202581       -6.725765        8.443524
  O          -15.167605       -6.831389        8.683467
  H          -15.659646       -5.988781        8.464590
  H          -12.003987        5.072576      -14.440523
  O          -11.340713        4.837966      -13.729871
  H          -10.568635        4.353629      -14.141348
  H           -3.751669       -0.850609        4.108964
  O           -4.747258       -0.943784        4.097936
  H           -4.992647       -1.909315        4.184737
  H          -13.083417        2.491145       -8.046925
  O          -12.116613        2.520119       -7.793052
  H          -11.833508        1.622283       -7.455798
  H          -14.899457        5.766019        1.024674
  O          -15.258799        4.894539        0.690913
  H          -16.251106        4.874450        0.813072
  H           13.764691      -12.892138       -7.612042
  O           12.774552      -13.031920       -7.621264
  H           12.312476      -12.148439       -7.544154
  H           -2.974269        2.779932        4.959249
  O           -3.313788        3.598118        4.495247
  H           -4.201689        3.853898        4.877619
  H           -8.096342       12.484542       12.352746
  O           -8.723215       12.488119       11.573633
  H           -8.987182       11.548950       11.353898
  H           -4.324971       -9.193031        6.722416
  O           -3.951054      -10.116608        6.807223
  H           -3.014293      -10.130358        6.457524
  H           -3.678552       -2.387323       15.154187
  O           -3.140795       -2.883616       14.472636
  H           -2.170956       -2.673118       14.595528
  H            5.844832        6.660763       -5.268246
  O            5.223411        7.441727       -5.330939
  H            4.526435        7.371221       -4.617319
  H            4.840164      -14.978167       -0.385424
  O            4.792690      -13.995404       -0.564095
  H            5.300332      -13.783551       -1.399210
  H            9.494120       13.738724       -3.172579
  O            9.201955       13.693968       -4.127899
  H            8.315478       13.234630       -4.184170
  H           12.790530        3.939841       13.137045
  O           13.418157        4.702615       13.292801
  H           14.148535        4.678004       12.610201
  H            0.476275        1.381539       -6.661887
  O           -0.357967        1.906415       -6.492935
  H           -1.150967        1.379455       -6.798655
  H            3.643793       -9.090340      -14.792521
  O            2.789640       -9.500437      -14.472767
  H            2.954859       -9.989571      -13.616350
  H           -7.753284      -12.830273       -5.123564
  O           -7.919689      -11.845824       -5.067262
  H           -7.046762      -11.364099       -4.990203
  H           -5.101437        7.517855       11.364127
  O           -6.074531        7.463797       11.588102
  H           -6.218141        7.775151       12.527482
  H            9.167508        2.683293       13.052959
  O            8.636184        1.841468       13.147967
  H            7.860748        2.003816       13.758165
  H           -7.477295        5.208766       12.309900
  O           -7.029973        4.687835       11.582897
  H           -7.383666        4.982971       10.695318
  H           -2.577790       -1.043470       -8.126553
  O           -2.378906       -0.265134       -8.722068
  H           -3.225362        0.052335       -9.149532
  H            9.953814       -0.990224       -7.635254
  O           10.122403       -1.841159       -8.132735
  H            9.731737       -1.773545       -9.050781
  H            6.077371        6.910718      -13.890394
  O            5.686030        7.827758      -13.967144
  H            5.146259        7.890623      -14.806605
  H            8.104449       -1.657160      -12.503801
  O            8.399796       -2.435882      -13.057303
  H            7.780822       -3.206501      -12.905591
  H            3.571431       -7.061743       -1.210102
  O            3.047803       -6.328070       -0.777045
  H            2.071697       -6.477048       -0.935227
  H            0.744685        3.475744        9.247739
  O            0.717666        2.643284        8.694313
  H           -0.224351        2.313044        8.634777
  H           -1.298790       -8.044564      -10.976595
  O           -2.026456       -8.623149      -10.608166
  H           -2.263916       -8.314153       -9.687224
  H          -13.138549      -16.229912       -8.456087
  O          -12.347901      -15.618181       -8.481785
  H          -11.507384      -16.159929       -8.488163
  H            8.567169       -7.307945       16.249364
  O            7.925008       -7.887720       15.747876
  H            7.061522       -7.940126       16.249518
  H           -9.933768       -4.317679        3.953480
  O           -9.973787       -3.433691        3.487684
  H          -10.154833       -3.577480        2.514778
  H            0.942853       15.644632        6.539318
  O            0.606510       16.255480        5.822563
  H            0.704704       15.810647        4.932349
  H           -0.175212       14.666274       10.998857
  O           -0.377587       15.478635       11.545769
  H           -0.809023       16.170904       10.967300
  H           -1.732856       -1.560792        9.989204
  O           -1.090967       -2.327510       10.000237
  H           -1.598787       -3.187975        9.958791
  H            2.010512       -0.737364       16.045792
  O            2.174813       -1.723322       16.075649
  H            1.299602       -2.206558       16.097760
  H           -6.340469        9.540151        1.594652
  O           -7.041454        9.393563        2.292600
  H           -6.766117        8.638949        2.888207
  H            7.445005        5.131984       -8.340520
  O            8.215719        4.783933       -8.874244
  H            8.086059        5.017059       -9.838007
  H           10.803987      -11.711761      -10.310366
  O           10.939091      -12.606198       -9.884069
  H           11.632536      -13.116522      -10.392698
  H          -10.742210      -11.716587       -7.702606
  O          -11.324591      -12.262139       -8.305271
  H          -11.014040      -13.212668       -8.297984
  H           -9.572437       16.219845       -7.437752
  O           -9.190126       15.320593       -7.650318
  H           -9.915778       14.633376       -7.616243
  H           -5.297375      -11.999111       15.032005
  O           -4.541804      -12.335863       15.593887
  H           -4.887044      -13.008898       16.247976
  H          -11.727886      -13.651712       -4.651602
  O          -11.124128      -12.859518       -4.740510
  H          -11.673399      -12.036206       -4.883547
  H           -8.992053      -10.854410       -2.566469
  O           -9.746936      -11.262398       -2.052954
  H           -9.819022      -12.233320       -2.281239
  H           -1.971111      -13.313583        2.025766
  O           -1.508459      -12.821868        2.763444
  H           -2.112261      -12.107986        3.118121
  H          -14.205641      -14.090695       10.031093
  O          -15.159224      -14.278945       10.266127
  H          -15.202783      -14.694653       11.174582
  H            7.027353       10.042737      -13.006141
  O            7.958748       10.242074      -13.310718
  H            8.501850        9.402580      -13.293688
  H            2.475462       15.782832       -3.796454
  O            3.456872       15.812630       -3.986051
  H            3.778583       14.895887       -4.222870
  H           16.249974      -14.161183        3.514709
  O           15.724216      -13.328726        3.339795
  H           16.250340      -12.721044        2.744887
  H          -10.841328        3.262180      -10.103205
  O          -10.064196        3.087212      -10.707732
  H          -10.088357        3.727514      -11.475475
  H            0.969649       -0.662456      -16.249659
  O            1.883295       -0.762153      -15.855563
  H            2.325001       -1.573244      -16.239006
  H            3.635827       -6.806495        6.265718
  O            4.562813       -6.484221        6.457644
  H            5.201103       -7.251891        6.400475
  H            7.496548       13.705094        9.027668
  O            8.440238       13.992578        8.863961
  H            9.045682       13.198988        8.924394
  H            2.394521        4.385487       11.537958
  O            1.416533        4.396350       11.746338
  H            1.000678        5.215571       11.351445
  H           -8.974003        5.128823       -8.968020
  O           -8.259340        4.941699       -9.641994
  H           -8.235251        5.680038      -10.315993
  H            4.520468        0.651215       11.233661
  O            4.193953        0.477080       10.304648
  H            3.200864        0.590287       10.273682
  H          -11.929607       -0.157766       15.321914
  O          -10.963435        0.044500       15.481918
  H          -10.822340        1.034293       15.461856
  H           -4.286110      -15.818183       11.768176
  O           -4.928587      -15.082354       11.982136
  H           -4.945787      -14.931813       12.970590
  H           10.732427      -11.475434       -2.971506
  O            9.862318      -11.052773       -2.717996
  H            9.924598      -10.062298       -2.840799
  H            1.199320       10.881845      -12.015980
  O            0.912364       11.819710      -12.211084
  H            1.715323       12.376582      -12.423565
  H           -3.975415        7.041241       -2.014914
  O           -3.177244        7.063288       -2.616941
  H           -3.468365        6.914634       -3.562007
  H           11.290804       -2.018165       11.503496
  O           10.964062       -1.504697       12.296963
  H           10.797324       -0.554543       12.033511
  H          -16.251618      -11.545627        8.081332
  O          -16.235028      -12.545259        8.059870
  H          -15.318657      -12.858125        7.810113
  H           13.210623        0.208069       -8.514410
  O           12.366339       -0.273918       -8.748660
  H           11.837413        0.275435       -9.395536
  H           -1.412937        2.988622        2.599039
  O           -0.949123        3.724020        3.093070
  H           -0.649624        4.423946        2.444685
  H          -12.364484       15.848961       -7.067721
  O          -13.264576       15.490321       -6.820312
  H          -13.897715       16.250510       -6.674546
  H           -7.241276       -3.316488      -14.136875
  O           -6.481615       -3.696884      -14.664335
  H           -6.465670       -4.690915      -14.556411
  H            6.984048       -6.803393        8.541411
  O            7.814022       -6.288359        8.755617
  H            8.615595       -6.815854        8.474140
  H            4.594890      -14.454894       -7.012945
  O            5.183857      -13.952193       -6.380166
  H            6.081145      -14.391750       -6.339385
  H          -16.189306        1.221130       -3.697516
  O          -15.642132        0.385765       -3.644923
  H          -16.247226       -0.410306       -3.656415
  H           15.646730       11.578687      -10.047966
  O           14.679279       11.363216      -10.180667
  H           14.188860       12.189278      -10.458354
  H           11.985401       -6.918333       11.618089
  O           11.202405       -6.884646       10.996975
  H           10.675221       -6.052706       11.170043
  H            5.456617       -2.498195       15.635759
  O            4.944514       -1.765323       16.083698
  H            4.756955       -1.038046       15.423479
  H           -5.533447        8.840778       -3.568945
  O           -6.192399        8.287023       -3.059889
  H           -6.537215        7.555132       -3.647628
  H           -3.431014        9.020359       -5.335786
  O           -2.502905        8.667162       -5.453541
  H           -2.066405        9.128075       -6.226216
  H           -6.444852      -14.053829        6.001202
  O           -6.800200      -14.498453        5.178987
  H           -7.780665      -14.663206        5.286436
  H           -8.657357      -15.128387        2.721000
  O           -8.418642      -14.309205        2.199505
  H           -7.476024      -14.046132        2.405086
  H           14.941663       11.393488        5.842672
  O           15.915303       11.374058        6.069932
  H           16.249965       12.309612        6.182801
  H            1.396230       -5.678564      -11.844278
  O            1.122858       -6.495207      -12.352572
  H            1.642476       -7.283060      -12.021990
  H          -12.685946       -9.666254       -3.929978
  O          -13.632244       -9.971363       -3.823067
  H          -14.196413       -9.205731       -3.514002
  H          -11.328458       -9.863827        1.380052
  O          -11.145084       -8.963247        0.985935
  H          -10.160597       -8.788223        0.998212
  H           -0.938603       15.646398       -1.837771
  O           -1.832067       16.093819       -1.876979
  H           -2.356939       15.862438       -1.057851
  H           10.632199       -9.454212       12.597838
  O           11.631876       -9.475987       12.610938
  H           11.965058       -8.997996       13.423658
  H           12.436467       10.635151       -2.685763
  O           11.778608       11.372760       -2.837928
  H           10.849809       11.004158       -2.799671
  H           -6.224031       -8.948885        8.948744
  O           -6.247229       -9.948514        8.962975
  H           -5.333072      -10.300297        9.164385
  H           -6.451056       -1.958837       -4.795008
  O           -7.068910       -2.706550       -5.038281
  H           -7.649644       -2.927390       -4.254715
  H           -1.801304       -6.533082        0.269197
  O           -0.820076       -6.687710        0.153955
  H           -0.601505       -7.633966        0.392339
  H           -3.134929       11.164249      -16.231752
  O           -3.682272       11.988966      -16.089423
  H           -3.102992       12.796602      -16.199685
  H           12.581849       13.823081       11.310814
  O           13.565082       13.918803       11.155606
  H           13.722281       14.535525       10.384281
  H           -5.426930       -2.025602       10.176349
  O           -4.458388       -1.810694       10.050889
  H           -4.368705       -0.902214        9.642696
  H            3.507122       -1.897025        9.069805
  O            4.103963       -2.403028        9.692494
  H            5.053631       -2.309511        9.393521
  H            8.590146        1.164609        7.214086
  O            9.050762        0.288032        7.074644
  H           10.040595        0.419144        7.129790
  H            2.282393        3.048591       -4.388200
  O            1.377983        3.189549       -4.790909
  H            1.381583        4.030243       -5.332408
  H           -7.520850       11.717332        0.236750
  O           -7.533939       12.715986        0.286940
  H           -8.479872       13.038893        0.256254
  H           15.474861       -9.584795       -4.732993
  O           15.855381       -8.660187       -4.750441
  H           15.221421       -8.030324       -4.301701
  H          -12.313214       10.987538        7.295608
  O          -11.354115       10.978193        7.012691
  H          -11.104784       10.058233        6.710189
  H           13.536197       -6.033089        0.273723
  O           13.202081       -5.132965        0.553265
  H           12.930030       -4.612323       -0.256006
  H           14.529322        8.968383       -3.757653
  O           15.197952        8.225145       -3.780701
  H           16.012577        8.524932       -4.277203
  H            4.732900       14.774704        7.826873
  O            5.601607       15.268815        7.792181
  H            5.430750       16.250048        7.881559
  H           10.267091        3.845100      -15.155316
  O            9.310168        3.672603      -15.388862
  H            8.898391        4.510316      -15.747577
  H          -15.358598        9.041562       -4.126275
  O          -15.401435        9.944996       -4.552855
  H          -14.523627       10.151471       -4.985082
  H          -11.729779        4.482236       12.507334
  O          -11.068357        3.806226       12.182475
  H          -11.374034        2.889857       12.440988
  H           -3.828955      -13.358470       -3.275726
  O           -4.427408      -13.691059       -4.004587
  H           -5.307460      -13.218798       -3.954798
  H           16.250000       13.326145        1.258635
  O           15.669473       12.767992        1.851470
  H           16.054600       12.750283        2.774164
  H           -9.995150        1.150178      -14.939478
  O          -10.828927        1.655120      -14.716207
  H          -10.962695        1.656141      -13.725196
  H           12.516749       -0.840917        9.337202
  O           13.174375       -0.937518        8.590078
  H           14.096117       -0.753599        8.931496
  H           -5.564194        1.700582      -16.249992
  O           -6.043533        1.215217      -15.518791
  H           -5.431629        0.536852      -15.112106
  H           -0.971736        7.155413        2.382864
  O           -0.418193        7.985971        2.444202
  H            0.171984        7.934450        3.249830
  H            8.076693        9.638924      -16.004823
  O            7.196020        9.177430      -16.111772
  H            6.477288        9.858811      -16.250135
  H           -0.152204        1.010213      -13.855019
  O            0.527180        1.741374      -13.793040
  H            1.423061        1.347393      -13.587673
  H           -5.483500        6.573512        8.241083
  O           -6.058488        7.200071        8.767213
  H           -6.786269        7.556278        8.181166
  H           -6.856980        1.834612       -9.947525
  O           -5.965464        1.981042       -9.518853
  H           -6.092705        2.399878       -8.619750
  H          -16.249590       -2.009788        9.613573
  O          -15.667782       -2.814234        9.733433
  H          -16.237386       -3.635444        9.767588
  H           14.231134        0.804303        3.457406
  O           14.659792        0.436844        4.282771
  H           15.603311        0.762874        4.341737
  H            0.916195      -10.614309        5.113128
  O            0.907038      -11.476434        5.619741
  H            1.839939      -11.828544        5.695328
  H           10.330782      -14.994671        1.187982
  O           11.194536      -15.377362        0.860145
  H           11.019272      -16.244460        0.393857
  H           12.512388        2.565737        7.425092
  O           12.821831        1.926298        8.128913
  H           13.222112        2.436569        8.890095
  H            5.002406      -11.596350       12.529329
  O            4.222722      -11.219325       13.029273
  H            4.551329      -10.712472       13.826215
  H           -3.637172       11.722805      -12.330003
  O           -3.411772       10.786430      -12.599067
  H           -3.975604       10.519306      -13.380565
  H           -5.777564       -9.502667       13.489734
  O           -5.601281       -9.855285       12.570720
  H           -5.685132      -10.851756       12.574288
  H           12.022049        0.856673        5.095953
  O           11.510472        0.040074        4.828642
  H           12.145543       -0.657010        4.495838
  H          -14.023018      -11.907703      -15.903370
  O          -13.025563      -11.933272      -15.969925
  H          -12.711346      -12.880400      -15.905005
  H            0.653264        6.018751       13.979858
  O            1.179579        5.434137       14.597288
  H            0.936357        4.477262       14.438438
  H           -0.375936        7.095794       -4.686961
  O           -0.669957        7.201993       -3.737080
  H           -0.648945        8.170230       -3.487928
  H            1.767713       10.390392       12.510684
  O            2.744653       10.373478       12.297843
  H            3.204759        9.717220       12.895863
  H          -12.732861      -15.171399        0.397192
  O          -11.755238      -14.973330        0.326328
  H          -11.621873      -13.988503        0.215291
  H          -10.860702       15.469447        3.610269
  O          -10.935884       15.337093        2.621922
  H          -11.659792       15.925054        2.261009
  H           -0.454717        6.885971       -0.844168
  O           -1.109152        7.578620       -0.540932
  H           -0.743768        8.489349       -0.733463
  H           -1.435954       16.249909       -4.800370
  O           -0.450869       16.240775       -4.628549
  H           -0.152272       15.303165       -4.450425
  H           -2.184335        4.210580        8.929155
  O           -2.338859        4.539622        7.997568
  H           -2.969584        3.922901        7.526568
  H          -10.496715      -15.306774      -11.466829
  O          -10.099459      -16.215065      -11.335697
  H           -9.602988      -16.239620      -10.467991
  H           10.616420       14.949203        5.540705
  O           11.179121       14.122557        5.545572
  H           10.588147       13.317356        5.594565
  H          -16.005873       -5.045836      -10.822378
  O          -15.103367       -4.620498      -10.754778
  H          -14.496603       -5.209208      -10.220683
  H           14.707859        9.182954      -11.962443
  O           15.507976        9.346693      -12.539507
  H           16.250040        9.719522      -11.982426
  H            9.527237       12.672530       -0.637893
  O            9.246255       11.712866       -0.628239
  H            8.247773       11.657931       -0.624323
  H           -6.214737        6.433192      -13.959096
  O           -5.981509        6.765238      -13.045122
  H           -5.302480        7.495617      -13.119057
  H            3.826440       -8.670793       -8.701056
  O            3.979735       -8.301038       -7.784659
  H            3.273009       -7.625204       -7.575408
  H            7.014015        2.113239      -12.020087
  O            7.743961        2.152806      -12.702446
  H            7.792753        3.075355      -13.085229
  H          -13.874543       12.272656        3.500110
  O          -12.969842       12.689604        3.412531
  H          -13.065533       13.625348        3.073081
  H           14.385724        6.798061        9.988303
  O           13.436881        6.496459       10.081761
  H           13.404343        5.497048       10.092626
  H          -12.675204       -4.116478        3.893252
  O          -12.954988       -3.606130        4.706434
  H          -12.268809       -2.909254        4.915054
  H            8.256803       13.439248        1.678507
  O            7.355558       13.465676        1.246004
  H            6.893724       14.318474        1.489816
  H            1.732919        1.978844      -16.251015
  O            2.719760        2.140513      -16.248366
  H            2.896272        3.124809      -16.250708
  H           -7.036166       -4.091897       -7.405030
  O           -6.723471       -4.810570       -6.783958
  H           -6.091746       -5.416900       -7.266956
  H            0.924357       -6.304966      -15.808090
  O            0.903156       -7.201737      -16.250076
  H            1.814901       -7.611174      -16.217205
  H           -0.287483        2.648430        0.111825
  O           -0.318317        3.519132       -0.379017
  H            0.429170        4.104955       -0.065849
  H           -9.107066       15.185823      -10.398720
  O           -9.545391       16.075415      -10.270275
  H          -10.168501       16.253052      -11.031970
  H            7.363207       15.031981      -13.068212
  O            6.433938       14.683699      -12.945090
  H            6.460748       13.688530      -12.850652
  H           -5.253500       -4.980854       -0.466117
  O           -5.882000       -4.951553        0.311140
  H           -5.698930       -4.134046        0.857186
  H           -5.888426       -9.897135        1.142869
  O           -5.623126      -10.797139        0.797024
  H           -6.120770      -10.989138       -0.048841
  H            9.114612       -1.645926        4.097563
  O            8.154263       -1.406925        3.954008
  H            8.061078       -0.902269        3.095731
  H           -5.830783        9.500216        5.329715
  O           -5.231126        8.715271        5.485507
  H           -5.785688        7.896833        5.635907
  H            4.566524       12.892924       -7.006140
  O            4.547577       11.964552       -7.377310
  H            3.831336       11.437341       -6.920095
  H            9.704791       -9.967497       10.063466
  O            9.689854       -9.042520        9.683735
  H           10.549443       -8.865001        9.204576
  H            1.445700       10.264939       -6.215912
  O            1.790292        9.341078       -6.382460
  H            1.614075        8.770028       -5.580682
  H           12.553491      -13.128783        1.676320
  O           13.532357      -12.990564        1.525605
  H           13.961547      -13.865044        1.299594
  H          -15.104158      -11.531392       10.580112
  O          -15.493184      -10.610541       10.553798
  H          -14.754465       -9.936528       10.552740
  H           12.118474       -9.838164       -0.004110
  O           12.293972      -10.602939        0.615825
  H           11.694371      -10.530310        1.412822
  H           -0.391178       -4.785082        2.077173
  O            0.535115       -4.847935        2.448698
  H            1.114204       -5.361134        1.815229
  H          -15.938183        2.211502      -10.037877
  O          -14.948701        2.354603      -10.059027
  H          -14.486413        1.473094      -10.155107
  H           12.086445        6.458184       -1.896996
  O           12.919168        7.011754       -1.908575
  H           12.675612        7.978654       -1.984631
  H           -2.443821       -8.499039       -3.443177
  O           -2.603470       -7.512484       -3.478123
  H           -2.162895       -7.075554       -2.693913
  H           -9.850477       13.255579        9.053251
  O           -9.257663       12.497438        8.781599
  H           -8.303475       12.795786        8.804250
  H           -9.141213       -5.241797        8.535381
  O           -8.646994       -5.012296        9.373877
  H           -9.233071       -5.187859       10.164883
  H           14.522463        5.280019        7.587944
  O           13.615434        5.609871        7.326226
  H           13.617673        6.609642        7.304956
  H           -7.978490       -2.321932      -11.250670
  O           -7.910385       -3.254155      -10.895250
  H           -8.344498       -3.300408       -9.995580
  H            4.302224      -10.603647       -2.039253
  O            4.281128       -9.634357       -1.794240
  H            4.996692       -9.148131       -2.295788
  H            6.532007       -9.875602        4.528133
  O            6.775132       -9.108852        5.122257
  H            7.418507       -8.509295        4.646232
  H           11.828045        2.816410       -1.179621
  O           12.074855        3.781608       -1.266093
  H           12.973022        3.858489       -1.698971
  H          -16.031925      -15.871699        3.600623
  O          -16.236899      -15.758728        4.572849
  H          -16.252009      -14.784830        4.799333
  H          -13.287834        9.682236        5.080031
  O          -14.236753        9.912706        4.864538
  H          -14.770515        9.951132        5.709299
  H            3.857834       11.600772       -0.730003
  O            4.502398       11.239058       -1.403575
  H            5.255645       10.780951       -0.931605
  H           -7.735609      -11.476313       -9.966284
  O           -8.732185      -11.406657      -10.010843
  H           -9.127533      -12.322526      -10.080730
  H            2.088073        9.356588        1.882324
  O            3.086580        9.304774        1.865060
  H            3.468895       10.228184        1.898959
  H            7.489814        8.463911        1.508133
  O            8.420529        8.552549        1.153293
  H            8.650059        9.521170        1.057956
  H           10.504865        0.985677        9.776028
  O           10.582753        1.981350        9.725351
  H            9.713871        2.368373        9.416714
  H           14.203912       11.836590      -15.194222
  O           14.265153       10.851394      -15.354342
  H           15.110465       10.645762      -15.847456
  H            3.622329        5.150712       -6.960811
  O            3.752085        4.406738       -7.616301
  H            3.239613        3.603002       -7.314009
  H            4.334697      -11.317640      -16.250007
  O            5.331553      -11.334841      -16.172658
  H            5.682674      -10.398543      -16.180401
  H            8.845378        6.912657      -14.410272
  O            9.513961        6.453391      -13.825402
  H           10.405368        6.448208      -14.278574
  H           -1.829363       -4.132920      -11.681835
  O           -1.268140       -3.306472      -11.636976
  H           -0.319820       -3.535210      -11.856905
  H           -5.299083       -5.698849        3.072552
  O           -4.859809       -6.592856        3.160809
  H           -3.875989       -6.469459        3.290699
  H          -13.103085        3.899046        2.076382
  O          -12.108292        3.892719        1.974669
  H          -11.742210        4.789750        2.222296
  H            1.613206      -12.517167       -0.647270
  O            2.353939      -11.848276       -0.584833
  H            2.909893      -12.041107        0.223704
  H           15.186228       16.250025       15.484900
  O           16.156415       16.241235       15.242701
  H           16.251527       16.162473       14.250356
  H            8.769067      -13.225149      -11.971804
  O            8.837950      -14.124990      -11.541060
  H            7.943422      -14.392415      -11.182864
