created by msxbox

1500 atoms
1000 bonds
500 angles

2 atom types
1 bond types
1 angle types
-15.0000 15.0000 xlo xhi
-15.0000 15.0000 ylo yhi
-15.0000 15.0000 zlo zhi

Masses

   1    1.008  # H
   2   15.999  # O

Bond Coeffs

   1   517.630258     1.000000  # Ow-Hw

Angle Coeffs

   1    37.950526   109.470000  # Hw-Ow-Hw

Atoms

      1       1    1   0.423800000000    -8.637934    -9.556595    -6.873862  # Hw
      2       1    2  -0.847600000000    -8.140613   -10.395276    -6.651854  # Ow
      3       1    1   0.423800000000    -8.311824   -10.641714    -5.697938  # Hw
      4       2    1   0.423800000000     4.165617     5.727166    12.015212  # Hw
      5       2    2  -0.847600000000     3.396193     5.319689    11.523329  # Ow
      6       2    1   0.423800000000     2.538138     5.679033    11.890227  # Hw
      7       3    1   0.423800000000    -6.459576     0.578057    10.324164  # Hw
      8       3    2  -0.847600000000    -6.443635     0.339941     9.353058  # Ow
      9       3    1   0.423800000000    -6.548815    -0.649224     9.250645  # Hw
     10       4    1   0.423800000000    -4.703726     3.235144    -7.493883  # Hw
     11       4    2  -0.847600000000    -5.258180     3.310932    -6.665127  # Ow
     12       4    1   0.423800000000    -6.044244     3.902941    -6.842972  # Hw
     13       5    1   0.423800000000    -5.599093   -10.502918    10.077300  # Hw
     14       5    2  -0.847600000000    -6.107457   -10.537477    10.937749  # Ow
     15       5    1   0.423800000000    -5.538940   -10.959265    11.644066  # Hw
     16       6    1   0.423800000000     7.394497     3.727857   -13.185510  # Hw
     17       6    2  -0.847600000000     6.504127     3.283605   -13.284910  # Ow
     18       6    1   0.423800000000     5.780847     3.972624   -13.238882  # Hw
     19       7    1   0.423800000000     4.555296    -3.426168   -12.882338  # Hw
     20       7    2  -0.847600000000     3.701677    -3.862197   -13.167318  # Ow
     21       7    1   0.423800000000     3.893821    -4.785576   -13.499660  # Hw
     22       8    1   0.423800000000   -13.500131    -7.507955     0.947501  # Hw
     23       8    2  -0.847600000000   -13.504797    -7.970953     1.833848  # Ow
     24       8    1   0.423800000000   -13.283801    -7.313702     2.554391  # Hw
     25       9    1   0.423800000000    12.912621     4.430313     9.966549  # Hw
     26       9    2  -0.847600000000    12.408055     3.687048     9.527266  # Ow
     27       9    1   0.423800000000    11.430731     3.898717     9.532923  # Hw
     28      10    1   0.423800000000     7.070044    -7.855708     3.474312  # Hw
     29      10    2  -0.847600000000     6.086029    -7.699385     3.559614  # Ow
     30      10    1   0.423800000000     5.918750    -6.737012     3.773755  # Hw
     31      11    1   0.423800000000    -5.645334    -6.665710    12.653126  # Hw
     32      11    2  -0.847600000000    -6.313749    -6.629962    11.910197  # Ow
     33      11    1   0.423800000000    -6.159460    -7.395751    11.285887  # Hw
     34      12    1   0.423800000000   -10.724420   -10.240120     3.992901  # Hw
     35      12    2  -0.847600000000   -11.121807    -9.601953     4.652315  # Ow
     36      12    1   0.423800000000   -11.476178    -8.801244     4.169319  # Hw
     37      13    1   0.423800000000     7.911999    11.810515    -6.879890  # Hw
     38      13    2  -0.847600000000     7.529925    11.627365    -5.974088  # Ow
     39      13    1   0.423800000000     7.284878    10.660319    -5.905008  # Hw
     40      14    1   0.423800000000    -1.929780    13.499366     1.011895  # Hw
     41      14    2  -0.847600000000    -2.715270    13.135510     1.512510  # Ow
     42      14    1   0.423800000000    -2.435164    12.327146     2.030283  # Hw
     43      15    1   0.423800000000    -1.235665     9.928995     4.657669  # Hw
     44      15    2  -0.847600000000    -1.562394    10.862490     4.805436  # Ow
     45      15    1   0.423800000000    -2.478189    10.960665     4.415975  # Hw
     46      16    1   0.423800000000     7.263029    -1.263691    -9.059424  # Hw
     47      16    2  -0.847600000000     6.531326    -0.584362    -9.003545  # Ow
     48      16    1   0.423800000000     5.667234    -1.001219    -9.285635  # Hw
     49      17    1   0.423800000000    -3.350997   -12.394671    -1.061487  # Hw
     50      17    2  -0.847600000000    -2.885556   -12.008315    -1.857787  # Ow
     51      17    1   0.423800000000    -1.895954   -12.069150    -1.727454  # Hw
     52      18    1   0.423800000000    -4.562818    -5.844237    -2.375465  # Hw
     53      18    2  -0.847600000000    -4.424386    -6.534664    -1.665432  # Ow
     54      18    1   0.423800000000    -5.050809    -6.361450    -0.905437  # Hw
     55      19    1   0.423800000000     4.341160    -9.051645     5.199572  # Hw
     56      19    2  -0.847600000000     4.451572   -10.031238     5.367522  # Ow
     57      19    1   0.423800000000     5.425195   -10.251646     5.426487  # Hw
     58      20    1   0.423800000000    -3.401227     7.855285     9.163924  # Hw
     59      20    2  -0.847600000000    -3.209271     8.810001     9.391235  # Ow
     60      20    1   0.423800000000    -2.933929     8.875403    10.350354  # Hw
     61      21    1   0.423800000000    11.938515     5.507413   -13.010323  # Hw
     62      21    2  -0.847600000000    12.928747     5.400870   -12.920385  # Ow
     63      21    1   0.423800000000    13.185394     4.462463   -13.151739  # Hw
     64      22    1   0.423800000000     5.132271   -10.100576    -5.494164  # Hw
     65      22    2  -0.847600000000     6.009076   -10.580794    -5.469624  # Ow
     66      22    1   0.423800000000     6.753841    -9.913870    -5.446458  # Hw
     67      23    1   0.423800000000    10.830757     4.552988     4.092131  # Hw
     68      23    2  -0.847600000000    10.728483     3.562982     3.995039  # Ow
     69      23    1   0.423800000000    11.350840     3.231554     3.285937  # Hw
     70      24    1   0.423800000000    13.306725     6.689425     2.045958  # Hw
     71      24    2  -0.847600000000    12.892393     5.826532     2.335347  # Ow
     72      24    1   0.423800000000    12.267957     5.501847     1.624954  # Hw
     73      25    1   0.423800000000     0.800585    -7.256269    10.738067  # Hw
     74      25    2  -0.847600000000     0.332401    -7.198305     9.856339  # Ow
     75      25    1   0.423800000000    -0.150491    -6.324983     9.792135  # Hw
     76      26    1   0.423800000000    -4.223125     4.647770   -13.188907  # Hw
     77      26    2  -0.847600000000    -4.581204     3.868121   -12.675168  # Ow
     78      26    1   0.423800000000    -4.825440     4.161759   -11.750980  # Hw
     79      27    1   0.423800000000    -3.215428    -2.194628    11.191713  # Hw
     80      27    2  -0.847600000000    -3.664469    -1.303185    11.130963  # Ow
     81      27    1   0.423800000000    -4.654892    -1.431633    11.080326  # Hw
     82      28    1   0.423800000000    -1.031369     6.512766    11.179478  # Hw
     83      28    2  -0.847600000000    -1.463692     6.308019    10.301312  # Ow
     84      28    1   0.423800000000    -1.899764     5.409217    10.345994  # Hw
     85      29    1   0.423800000000   -11.218015    -5.593069    -0.703574  # Hw
     86      29    2  -0.847600000000   -11.578720    -5.051410     0.055700  # Ow
     87      29    1   0.423800000000   -12.578294    -5.068502     0.032020  # Hw
     88      30    1   0.423800000000    12.426390    -8.940076     9.016438  # Hw
     89      30    2  -0.847600000000    12.167301    -9.419710     9.854784  # Ow
     90      30    1   0.423800000000    11.443772   -10.079352     9.651368  # Hw
     91      31    1   0.423800000000    -7.559047    -6.958532     7.858785  # Hw
     92      31    2  -0.847600000000    -6.725471    -6.414380     7.763655  # Ow
     93      31    1   0.423800000000    -6.099409    -6.629883     8.513058  # Hw
     94      32    1   0.423800000000     8.135538   -10.716526    -2.855630  # Hw
     95      32    2  -0.847600000000     8.704295    -9.894077    -2.845978  # Ow
     96      32    1   0.423800000000     8.574225    -9.409009    -1.981230  # Hw
     97      33    1   0.423800000000     0.545685    -4.134139    -4.794852  # Hw
     98      33    2  -0.847600000000     0.238397    -4.820998    -5.453486  # Ow
     99      33    1   0.423800000000     0.444668    -4.509182    -6.380968  # Hw
    100      34    1   0.423800000000    -4.137010     5.372027     0.577471  # Hw
    101      34    2  -0.847600000000    -3.631482     5.090480     1.393053  # Ow
    102      34    1   0.423800000000    -3.103627     4.265808     1.189866  # Hw
    103      35    1   0.423800000000    13.459145    -5.600058   -13.504187  # Hw
    104      35    2  -0.847600000000    13.081489    -6.433465   -13.100691  # Ow
    105      35    1   0.423800000000    13.508370    -6.596167   -12.211141  # Hw
    106      36    1   0.423800000000     1.778674    -1.360235    -5.990698  # Hw
    107      36    2  -0.847600000000     0.911488    -1.806404    -6.211881  # Ow
    108      36    1   0.423800000000     0.329357    -1.170698    -6.718833  # Hw
    109      37    1   0.423800000000   -13.513222     6.154298     2.216704  # Hw
    110      37    2  -0.847600000000   -12.536733     5.974200     2.098233  # Ow
    111      37    1   0.423800000000   -12.121768     6.718048     1.574310  # Hw
    112      38    1   0.423800000000   -10.614316    -0.960961    -5.975223  # Hw
    113      38    2  -0.847600000000   -10.011974    -0.769619    -5.200256  # Ow
    114      38    1   0.423800000000   -10.008474    -1.553486    -4.579338  # Hw
    115      39    1   0.423800000000    -2.413167    -6.462092     2.508640  # Hw
    116      39    2  -0.847600000000    -1.640238    -6.049082     2.990307  # Ow
    117      39    1   0.423800000000    -1.870892    -5.937726     3.956950  # Hw
    118      40    1   0.423800000000   -10.448629     4.487226     6.562687  # Hw
    119      40    2  -0.847600000000   -11.368116     4.850356     6.412085  # Ow
    120      40    1   0.423800000000   -11.344302     5.848870     6.461089  # Hw
    121      41    1   0.423800000000     7.060880     2.876773    11.849610  # Hw
    122      41    2  -0.847600000000     7.831627     2.240188    11.823014  # Ow
    123      41    1   0.423800000000     7.556395     1.403106    11.350212  # Hw
    124      42    1   0.423800000000     5.782297    -0.352533     7.893493  # Hw
    125      42    2  -0.847600000000     5.038534     0.212232     8.251063  # Ow
    126      42    1   0.423800000000     4.388478     0.410729     7.517562  # Hw
    127      43    1   0.423800000000    -6.744854     6.443456     5.147684  # Hw
    128      43    2  -0.847600000000    -7.739745     6.460948     5.048265  # Ow
    129      43    1   0.423800000000    -8.075785     5.531667     4.894923  # Hw
    130      44    1   0.423800000000   -11.140430    -0.008029    -2.103834  # Hw
    131      44    2  -0.847600000000   -11.879761    -0.358349    -2.678870  # Ow
    132      44    1   0.423800000000   -12.491738     0.391995    -2.928803  # Hw
    133      45    1   0.423800000000     4.955194   -13.196105    -6.454741  # Hw
    134      45    2  -0.847600000000     4.429094   -12.481951    -6.916480  # Ow
    135      45    1   0.423800000000     4.273339   -12.745483    -7.868473  # Hw
    136      46    1   0.423800000000   -10.759421    -6.602381     9.206293  # Hw
    137      46    2  -0.847600000000   -10.024324    -6.009549     9.535203  # Ow
    138      46    1   0.423800000000   -10.415920    -5.249402    10.053690  # Hw
    139      47    1   0.423800000000   -12.231549    -3.398195     5.350977  # Hw
    140      47    2  -0.847600000000   -12.654367    -4.007270     4.679968  # Ow
    141      47    1   0.423800000000   -12.133670    -4.859468     4.628671  # Hw
    142      48    1   0.423800000000     8.582048   -11.756952    10.612648  # Hw
    143      48    2  -0.847600000000     8.711561   -10.766823    10.666212  # Ow
    144      48    1   0.423800000000     7.820098   -10.316066    10.712159  # Hw
    145      49    1   0.423800000000    -6.636934     8.231399     3.061910  # Hw
    146      49    2  -0.847600000000    -7.261452     8.853457     3.534160  # Ow
    147      49    1   0.423800000000    -6.735417     9.571977     3.989151  # Hw
    148      50    1   0.423800000000     8.944152     1.449866     8.114474  # Hw
    149      50    2  -0.847600000000     7.967228     1.444391     8.327993  # Ow
    150      50    1   0.423800000000     7.656703     2.380649     8.492290  # Hw
    151      51    1   0.423800000000    10.349561   -11.142356     6.507267  # Hw
    152      51    2  -0.847600000000    10.044236   -10.893094     7.426312  # Ow
    153      51    1   0.423800000000     9.049625   -10.789497     7.430458  # Hw
    154      52    1   0.423800000000   -10.280197    -9.624349    -3.901861  # Hw
    155      52    2  -0.847600000000    -9.397268    -9.317873    -3.546181  # Ow
    156      52    1   0.423800000000    -9.499102    -8.410688    -3.137961  # Hw
    157      53    1   0.423800000000     9.500258   -11.116930    -5.453161  # Hw
    158      53    2  -0.847600000000    10.116807   -11.348601    -4.700701  # Ow
    159      53    1   0.423800000000     9.957410   -12.294587    -4.418384  # Hw
    160      54    1   0.423800000000     0.622323   -13.503985    10.727545  # Hw
    161      54    2  -0.847600000000     0.635917   -12.505815    10.786463  # Ow
    162      54    1   0.423800000000     1.582485   -12.183769    10.769286  # Hw
    163      55    1   0.423800000000   -13.473472    -6.469365     8.066812  # Hw
    164      55    2  -0.847600000000   -13.494295    -5.472845     7.986095  # Ow
    165      55    1   0.423800000000   -13.442058    -5.215431     7.021207  # Hw
    166      56    1   0.423800000000    -6.499417     9.871703    -9.821885  # Hw
    167      56    2  -0.847600000000    -7.316122     9.753904    -9.256981  # Ow
    168      56    1   0.423800000000    -7.590387     8.792276    -9.263990  # Hw
    169      57    1   0.423800000000    -3.374774    -1.205625    -2.193731  # Hw
    170      57    2  -0.847600000000    -2.710938    -0.470939    -2.053883  # Ow
    171      57    1   0.423800000000    -3.191294     0.403254    -1.982857  # Hw
    172      58    1   0.423800000000     0.465806    -3.747573    -0.747686  # Hw
    173      58    2  -0.847600000000    -0.202551    -4.185526    -0.146440  # Ow
    174      58    1   0.423800000000     0.239766    -4.925081     0.360920  # Hw
    175      59    1   0.423800000000    12.284774     1.357939     5.068476  # Hw
    176      59    2  -0.847600000000    11.368348     0.964107     4.997353  # Ow
    177      59    1   0.423800000000    10.920405     0.998773     5.890743  # Hw
    178      60    1   0.423800000000     7.421516     3.224824    -7.881422  # Hw
    179      60    2  -0.847600000000     6.586602     3.771088    -7.948614  # Ow
    180      60    1   0.423800000000     6.275552     4.018707    -7.031046  # Hw
    181      61    1   0.423800000000     5.487682     4.057135     1.943881  # Hw
    182      61    2  -0.847600000000     5.099975     4.630119     2.665942  # Ow
    183      61    1   0.423800000000     5.513630     5.539754     2.627835  # Hw
    184      62    1   0.423800000000    -3.974950     7.041483    -7.974765  # Hw
    185      62    2  -0.847600000000    -4.940594     6.909512    -8.198626  # Ow
    186      62    1   0.423800000000    -5.502390     7.482702    -7.602105  # Hw
    187      63    1   0.423800000000     4.318574    -8.165890    -7.324425  # Hw
    188      63    2  -0.847600000000     4.368025    -7.226939    -7.664903  # Ow
    189      63    1   0.423800000000     5.291771    -6.870126    -7.525697  # Hw
    190      64    1   0.423800000000   -12.741705     6.151675   -11.676397  # Hw
    191      64    2  -0.847600000000   -12.704875     6.685440   -12.521228  # Ow
    192      64    1   0.423800000000   -13.250376     7.516706   -12.414346  # Hw
    193      65    1   0.423800000000     5.814000    11.570282   -12.431481  # Hw
    194      65    2  -0.847600000000     5.551895    10.605364   -12.446830  # Ow
    195      65    1   0.423800000000     6.321444    10.056077   -12.772524  # Hw
    196      66    1   0.423800000000    11.195827    -4.837722     3.444268  # Hw
    197      66    2  -0.847600000000    12.040491    -4.302447     3.439599  # Ow
    198      66    1   0.423800000000    12.640977    -4.620919     4.173078  # Hw
    199      67    1   0.423800000000    -9.148136     0.624265    -7.876537  # Hw
    200      67    2  -0.847600000000    -8.311428     0.085490    -7.974722  # Ow
    201      67    1   0.423800000000    -7.520618     0.653325    -7.746286  # Hw
    202      68    1   0.423800000000     3.469381    -4.196180    -6.369759  # Hw
    203      68    2  -0.847600000000     4.139712    -4.861884    -6.041896  # Ow
    204      68    1   0.423800000000     5.041893    -4.432721    -5.998439  # Hw
    205      69    1   0.423800000000     1.048165     6.372276   -13.499968  # Hw
    206      69    2  -0.847600000000     1.892283     5.837471   -13.461917  # Ow
    207      69    1   0.423800000000     1.668384     4.863680   -13.421912  # Hw
    208      70    1   0.423800000000     2.038798     5.015050     6.123220  # Hw
    209      70    2  -0.847600000000     1.222185     4.448303     6.013945  # Ow
    210      70    1   0.423800000000     0.831159     4.598681     5.105934  # Hw
    211      71    1   0.423800000000    -6.539514    -1.138028     3.011839  # Hw
    212      71    2  -0.847600000000    -6.015527    -0.436468     2.528879  # Ow
    213      71    1   0.423800000000    -5.893164     0.357345     3.124603  # Hw
    214      72    1   0.423800000000    -2.255862     3.679947    13.482134  # Hw
    215      72    2  -0.847600000000    -1.406228     4.160721    13.265388  # Ow
    216      72    1   0.423800000000    -1.500785     5.127737    13.501902  # Hw
    217      73    1   0.423800000000     3.748912   -11.625041     0.471484  # Hw
    218      73    2  -0.847600000000     3.759284   -12.617903     0.352667  # Ow
    219      73    1   0.423800000000     4.653321   -12.902910     0.007024  # Hw
    220      74    1   0.423800000000    13.405805    -2.674404     8.278865  # Hw
    221      74    2  -0.847600000000    13.500477    -1.733872     8.605112  # Ow
    222      74    1   0.423800000000    12.619467    -1.410634     8.950566  # Hw
    223      75    1   0.423800000000    -7.896327    -9.236511     9.350469  # Hw
    224      75    2  -0.847600000000    -8.743636    -9.333610     8.828320  # Ow
    225      75    1   0.423800000000    -8.744798   -10.214897     8.355742  # Hw
    226      76    1   0.423800000000    12.444334    -0.115659    -3.127073  # Hw
    227      76    2  -0.847600000000    12.552702    -0.823182    -2.428741  # Ow
    228      76    1   0.423800000000    13.502615    -0.840827    -2.116727  # Hw
    229      77    1   0.423800000000     3.953108    -6.809591     6.732676  # Hw
    230      77    2  -0.847600000000     3.295537    -7.427972     7.163030  # Ow
    231      77    1   0.423800000000     3.771510    -8.021422     7.812080  # Hw
    232      78    1   0.423800000000    -0.072018    -2.740920    -9.894758  # Hw
    233      78    2  -0.847600000000    -0.611457    -1.986370   -10.268468  # Ow
    234      78    1   0.423800000000    -0.773785    -1.306494    -9.553332  # Hw
    235      79    1   0.423800000000   -12.035190    -7.743689    -2.309736  # Hw
    236      79    2  -0.847600000000   -13.001193    -7.964104    -2.444848  # Ow
    237      79    1   0.423800000000   -13.518845    -7.120422    -2.587104  # Hw
    238      80    1   0.423800000000    11.471167    -6.546170     1.307997  # Hw
    239      80    2  -0.847600000000    12.458880    -6.457509     1.179304  # Ow
    240      80    1   0.423800000000    12.692849    -5.494068     1.048772  # Hw
    241      81    1   0.423800000000   -10.074734    -5.725555    -3.600772  # Hw
    242      81    2  -0.847600000000   -10.437044    -4.920619    -4.070675  # Ow
    243      81    1   0.423800000000    -9.699834    -4.261525    -4.219394  # Hw
    244      82    1   0.423800000000     4.905235     2.683849    -3.306639  # Hw
    245      82    2  -0.847600000000     5.882202     2.892287    -3.260932  # Ow
    246      82    1   0.423800000000     6.400673     2.041809    -3.172187  # Hw
    247      83    1   0.423800000000    13.500302     5.410968    -4.517206  # Hw
    248      83    2  -0.847600000000    12.641255     5.903233    -4.376801  # Ow
    249      83    1   0.423800000000    12.836920     6.858341    -4.154355  # Hw
    250      84    1   0.423800000000     3.635224   -13.534238    13.526789  # Hw
    251      84    2  -0.847600000000     2.868112   -13.246831    12.953258  # Ow
    252      84    1   0.423800000000     2.271107   -12.638024    13.475693  # Hw
    253      85    1   0.423800000000    12.021721    -1.666054     4.213409  # Hw
    254      85    2  -0.847600000000    12.992014    -1.791132     4.006318  # Ow
    255      85    1   0.423800000000    13.503524    -0.986298     4.307317  # Hw
    256      86    1   0.423800000000   -12.838580     2.021974     8.828071  # Hw
    257      86    2  -0.847600000000   -13.486153     1.963818     8.068291  # Ow
    258      86    1   0.423800000000   -13.500176     1.029133     7.713091  # Hw
    259      87    1   0.423800000000    -7.541778     2.337701    -1.618834  # Hw
    260      87    2  -0.847600000000    -8.504628     2.074663    -1.679910  # Ow
    261      87    1   0.423800000000    -8.575757     1.078187    -1.724359  # Hw
    262      88    1   0.423800000000   -10.384485     5.102457     0.183697  # Hw
    263      88    2  -0.847600000000   -11.232518     4.604078     0.003532  # Ow
    264      88    1   0.423800000000   -11.368219     3.910451     0.710969  # Hw
    265      89    1   0.423800000000     4.041119    -1.214203    12.727204  # Hw
    266      89    2  -0.847600000000     4.135947    -0.609332    13.517861  # Ow
    267      89    1   0.423800000000     3.522062     0.173249    13.414360  # Hw
    268      90    1   0.423800000000    -4.308723   -11.583794    -6.636789  # Hw
    269      90    2  -0.847600000000    -4.461354   -10.892396    -5.930621  # Ow
    270      90    1   0.423800000000    -4.354075   -11.308761    -5.027775  # Hw
    271      91    1   0.423800000000     0.065161    -8.959188    -8.375984  # Hw
    272      91    2  -0.847600000000     0.474538    -8.313781    -9.020856  # Ow
    273      91    1   0.423800000000     1.432351    -8.557326    -9.173432  # Hw
    274      92    1   0.423800000000     8.228908     0.848359     0.037621  # Hw
    275      92    2  -0.847600000000     9.164558     1.087526    -0.221914  # Ow
    276      92    1   0.423800000000     9.408823     1.967553     0.185379  # Hw
    277      93    1   0.423800000000    -4.502275     1.154919    13.572504  # Hw
    278      93    2  -0.847600000000    -4.489048     0.199275    13.278277  # Ow
    279      93    1   0.423800000000    -5.389626    -0.208413    13.429109  # Hw
    280      94    1   0.423800000000     6.879035    -2.775416     4.497998  # Hw
    281      94    2  -0.847600000000     6.183674    -3.446833     4.241731  # Ow
    282      94    1   0.423800000000     6.305369    -3.703325     3.282877  # Hw
    283      95    1   0.423800000000    -9.529703     8.474030    -4.390848  # Hw
    284      95    2  -0.847600000000    -9.295198     9.053936    -5.171051  # Ow
    285      95    1   0.423800000000    -9.764914     9.932675    -5.086301  # Hw
    286      96    1   0.423800000000    -9.659247    -6.226583    -8.332512  # Hw
    287      96    2  -0.847600000000    -9.316382    -7.161796    -8.420943  # Ow
    288      96    1   0.423800000000   -10.052410    -7.757663    -8.742197  # Hw
    289      97    1   0.423800000000    -0.916106    -9.019287     5.915262  # Hw
    290      97    2  -0.847600000000    -1.340429    -9.827547     6.323509  # Ow
    291      97    1   0.423800000000    -0.694214   -10.262424     6.950637  # Hw
    292      98    1   0.423800000000     7.619257   -12.199263    -9.258527  # Hw
    293      98    2  -0.847600000000     6.887975   -11.600856    -8.931209  # Ow
    294      98    1   0.423800000000     7.140751   -11.221883    -8.040994  # Hw
    295      99    1   0.423800000000     8.666965   -11.478513     0.037365  # Hw
    296      99    2  -0.847600000000     7.702762   -11.219703    -0.020349  # Ow
    297      99    1   0.423800000000     7.571197   -10.326227     0.409058  # Hw
    298     100    1   0.423800000000   -13.504879    -6.854192    11.028501  # Hw
    299     100    2  -0.847600000000   -12.932521    -6.066406    10.800910  # Ow
    300     100    1   0.423800000000   -13.504574    -5.249754    10.724521  # Hw
    301     101    1   0.423800000000    -0.527645    -1.603358    -3.307941  # Hw
    302     101    2  -0.847600000000     0.291338    -1.233214    -2.869466  # Ow
    303     101    1   0.423800000000     0.028673    -0.717886    -2.053719  # Hw
    304     102    1   0.423800000000    13.516426     8.236878    11.934453  # Hw
    305     102    2  -0.847600000000    13.362074     7.272005    12.147046  # Ow
    306     102    1   0.423800000000    13.497074     6.723193    11.322073  # Hw
    307     103    1   0.423800000000    -1.291564     7.285013   -10.855517  # Hw
    308     103    2  -0.847600000000    -1.991646     6.677248   -10.480675  # Ow
    309     103    1   0.423800000000    -2.895702     7.077144   -10.631558  # Hw
    310     104    1   0.423800000000    -1.726409     8.578634    -8.468177  # Hw
    311     104    2  -0.847600000000    -2.036691     9.529278    -8.467663  # Ow
    312     104    1   0.423800000000    -2.578331     9.703554    -9.290009  # Hw
    313     105    1   0.423800000000    -5.008213   -11.963137     3.059558  # Hw
    314     105    2  -0.847600000000    -5.200318   -11.049122     3.416871  # Ow
    315     105    1   0.423800000000    -5.548378   -11.122953     4.351431  # Hw
    316     106    1   0.423800000000    10.084848   -10.723044     2.262123  # Hw
    317     106    2  -0.847600000000    10.185707    -9.913941     2.841070  # Ow
    318     106    1   0.423800000000    11.020364    -9.424837     2.587844  # Hw
    319     107    1   0.423800000000    -8.603648    -1.252757     0.019556  # Hw
    320     107    2  -0.847600000000    -9.128066    -1.846152     0.630186  # Ow
    321     107    1   0.423800000000    -8.606177    -2.678904     0.814995  # Hw
    322     108    1   0.423800000000   -12.364194    -0.469962    12.991779  # Hw
    323     108    2  -0.847600000000   -11.870301    -1.302039    13.244200  # Ow
    324     108    1   0.423800000000   -10.933275    -1.067833    13.503291  # Hw
    325     109    1   0.423800000000     4.988340    -1.786315    -6.738766  # Hw
    326     109    2  -0.847600000000     5.918118    -1.859248    -6.377942  # Ow
    327     109    1   0.423800000000     6.290457    -0.943263    -6.228491  # Hw
    328     110    1   0.423800000000   -10.625778    -8.976389    11.802182  # Hw
    329     110    2  -0.847600000000   -10.046374    -9.778936    11.944342  # Ow
    330     110    1   0.423800000000   -10.023662   -10.326073    11.107607  # Hw
    331     111    1   0.423800000000    10.847000    -6.518243    11.886020  # Hw
    332     111    2  -0.847600000000    10.054074    -6.789634    12.431561  # Ow
    333     111    1   0.423800000000     9.317861    -6.125206    12.303010  # Hw
    334     112    1   0.423800000000    -3.034372   -13.494400     8.361089  # Hw
    335     112    2  -0.847600000000    -2.685517   -12.591294     8.611489  # Ow
    336     112    1   0.423800000000    -3.422469   -12.049676     9.015902  # Hw
    337     113    1   0.423800000000    -1.623383     4.644325   -12.294291  # Hw
    338     113    2  -0.847600000000    -1.137816     4.738810   -13.163369  # Ow
    339     113    1   0.423800000000    -0.878389     3.833744   -13.500346  # Hw
    340     114    1   0.423800000000     3.392242     3.134483    -8.500199  # Hw
    341     114    2  -0.847600000000     2.614856     2.543653    -8.284351  # Ow
    342     114    1   0.423800000000     1.804162     3.105868    -8.120980  # Hw
    343     115    1   0.423800000000    -2.290363   -13.111875    -7.709721  # Hw
    344     115    2  -0.847600000000    -1.305378   -13.122660    -7.882021  # Ow
    345     115    1   0.423800000000    -0.976266   -12.185005    -7.993774  # Hw
    346     116    1   0.423800000000     2.692127   -10.436546    -7.577405  # Hw
    347     116    2  -0.847600000000     1.883352   -10.954999    -7.855054  # Ow
    348     116    1   0.423800000000     1.780920   -11.754830    -7.263635  # Hw
    349     117    1   0.423800000000   -13.263538     3.732609    11.765126  # Hw
    350     117    2  -0.847600000000   -13.136994     2.747017    11.877356  # Ow
    351     117    1   0.423800000000   -12.163049     2.527427    11.820698  # Hw
    352     118    1   0.423800000000   -12.673984    -1.584166   -10.284878  # Hw
    353     118    2  -0.847600000000   -12.400741    -1.960200   -11.170280  # Ow
    354     118    1   0.423800000000   -13.183564    -1.950484   -11.792447  # Hw
    355     119    1   0.423800000000     3.875625     3.146681     8.756561  # Hw
    356     119    2  -0.847600000000     4.294824     3.530317     9.579420  # Ow
    357     119    1   0.423800000000     5.269036     3.685650     9.415763  # Hw
    358     120    1   0.423800000000    -3.180906    -9.064431    -1.328254  # Hw
    359     120    2  -0.847600000000    -4.098475    -9.273149    -1.666640  # Ow
    360     120    1   0.423800000000    -4.594175    -9.804581    -0.979719  # Hw
    361     121    1   0.423800000000   -10.742346     8.544595     8.206830  # Hw
    362     121    2  -0.847600000000   -11.111155     7.850587     8.825160  # Ow
    363     121    1   0.423800000000   -10.527700     7.038800     8.801079  # Hw
    364     122    1   0.423800000000    -8.908459    11.566633    11.641235  # Hw
    365     122    2  -0.847600000000    -9.006193    12.560583    11.691363  # Ow
    366     122    1   0.423800000000    -8.104213    12.987779    11.628636  # Hw
    367     123    1   0.423800000000    12.336270     5.594854    -1.661222  # Hw
    368     123    2  -0.847600000000    13.259172     5.210089    -1.675687  # Ow
    369     123    1   0.423800000000    13.203839     4.213204    -1.731890  # Hw
    370     124    1   0.423800000000    10.069505    -0.027299    11.293019  # Hw
    371     124    2  -0.847600000000    10.044167     0.256761    10.334547  # Ow
    372     124    1   0.423800000000    10.926696     0.652683    10.080800  # Hw
    373     125    1   0.423800000000     7.780925    11.286269    -1.316389  # Hw
    374     125    2  -0.847600000000     6.842830    11.557808    -1.101344  # Ow
    375     125    1   0.423800000000     6.248052    11.344269    -1.876354  # Hw
    376     126    1   0.423800000000   -10.066216    11.799312    -2.048117  # Hw
    377     126    2  -0.847600000000   -10.410124    11.926159    -1.117721  # Ow
    378     126    1   0.423800000000   -11.008288    12.727044    -1.089766  # Hw
    379     127    1   0.423800000000    -2.972598     1.061697    -7.717716  # Hw
    380     127    2  -0.847600000000    -2.197250     0.528813    -7.378788  # Ow
    381     127    1   0.423800000000    -1.493571     1.148388    -7.030992  # Hw
    382     128    1   0.423800000000     4.397260     2.120065    -0.160477  # Hw
    383     128    2  -0.847600000000     3.644065     1.829441    -0.750591  # Ow
    384     128    1   0.423800000000     2.796612     2.266246    -0.448890  # Hw
    385     129    1   0.423800000000    -1.787107     0.470957    10.220755  # Hw
    386     129    2  -0.847600000000    -1.783490     0.553687     9.224190  # Ow
    387     129    1   0.423800000000    -2.609375     1.032522     8.926481  # Hw
    388     130    1   0.423800000000     1.527673    11.697699    13.499935  # Hw
    389     130    2  -0.847600000000     1.655278    12.689500    13.493005  # Ow
    390     130    1   0.423800000000     0.764855    13.139662    13.425916  # Hw
    391     131    1   0.423800000000     8.102829    -7.553651     7.139492  # Hw
    392     131    2  -0.847600000000     7.587492    -8.364766     6.862866  # Ow
    393     131    1   0.423800000000     6.672768    -8.092655     6.564143  # Hw
    394     132    1   0.423800000000     2.094180   -10.778485     6.556059  # Hw
    395     132    2  -0.847600000000     2.050033   -10.197580     7.368832  # Ow
    396     132    1   0.423800000000     2.645080   -10.572906     8.079500  # Hw
    397     133    1   0.423800000000   -12.833944    10.659402    -0.835351  # Hw
    398     133    2  -0.847600000000   -13.426013    11.461464    -0.756918  # Ow
    399     133    1   0.423800000000   -13.499576    11.728775     0.203880  # Hw
    400     134    1   0.423800000000     1.451673    -4.044100     8.599641  # Hw
    401     134    2  -0.847600000000     2.306196    -4.469022     8.898357  # Ow
    402     134    1   0.423800000000     2.250703    -5.458574     8.765289  # Hw
    403     135    1   0.423800000000    10.590634     9.826369    -7.776364  # Hw
    404     135    2  -0.847600000000    11.327180     9.561416    -7.154029  # Ow
    405     135    1   0.423800000000    12.072886    10.224546    -7.218681  # Hw
    406     136    1   0.423800000000    -8.593379     4.129733    -3.933000  # Hw
    407     136    2  -0.847600000000    -9.303662     3.425829    -3.937090  # Ow
    408     136    1   0.423800000000    -9.261130     2.914379    -4.795349  # Hw
    409     137    1   0.423800000000    -8.472423   -11.828467    12.882314  # Hw
    410     137    2  -0.847600000000    -7.930479   -12.384944    13.512100  # Ow
    411     137    1   0.423800000000    -8.050839   -13.352507    13.289984  # Hw
    412     138    1   0.423800000000   -13.469219   -10.053185     6.637916  # Hw
    413     138    2  -0.847600000000   -13.574211    -9.416751     5.873764  # Ow
    414     138    1   0.423800000000   -13.420564    -8.482229     6.194795  # Hw
    415     139    1   0.423800000000    10.576554    -2.733478    -2.394293  # Hw
    416     139    2  -0.847600000000    10.040333    -3.010987    -1.597139  # Ow
    417     139    1   0.423800000000    10.334742    -3.918249    -1.296810  # Hw
    418     140    1   0.423800000000    11.833040     6.487588     5.768640  # Hw
    419     140    2  -0.847600000000    11.058312     7.073791     6.005625  # Ow
    420     140    1   0.423800000000    10.212719     6.541566     5.964273  # Hw
    421     141    1   0.423800000000    -4.360099    -8.625759     4.404759  # Hw
    422     141    2  -0.847600000000    -3.809682    -7.799891     4.527165  # Ow
    423     141    1   0.423800000000    -4.376139    -6.993556     4.357019  # Hw
    424     142    1   0.423800000000   -13.320545    12.036026    12.142572  # Hw
    425     142    2  -0.847600000000   -12.479435    11.520800    11.978026  # Ow
    426     142    1   0.423800000000   -11.691028    12.126318    12.086477  # Hw
    427     143    1   0.423800000000     5.479791    -3.643432    12.362268  # Hw
    428     143    2  -0.847600000000     6.004819    -3.270668    13.127378  # Ow
    429     143    1   0.423800000000     6.566735    -2.508431    12.806060  # Hw
    430     144    1   0.423800000000    -6.706965    -1.771317    -3.563282  # Hw
    431     144    2  -0.847600000000    -5.892696    -1.383885    -3.995558  # Ow
    432     144    1   0.423800000000    -5.185481    -2.087460    -4.065045  # Hw
    433     145    1   0.423800000000    -9.148775    -6.210254    12.631418  # Hw
    434     145    2  -0.847600000000    -9.224403    -5.218550    12.527481  # Ow
    435     145    1   0.423800000000    -8.329691    -4.798350    12.678877  # Hw
    436     146    1   0.423800000000    -8.253509    -2.808635     9.676997  # Hw
    437     146    2  -0.847600000000    -8.147500    -3.696984    10.123761  # Ow
    438     146    1   0.423800000000    -7.820593    -4.367907     9.458184  # Hw
    439     147    1   0.423800000000    -6.946141    -5.780577    -8.237414  # Hw
    440     147    2  -0.847600000000    -6.002178    -5.461865    -8.323182  # Ow
    441     147    1   0.423800000000    -5.996099    -4.471733    -8.463193  # Hw
    442     148    1   0.423800000000    -6.624049   -11.952236     7.978751  # Hw
    443     148    2  -0.847600000000    -6.437157   -12.927280     7.858917  # Ow
    444     148    1   0.423800000000    -5.563893   -13.043589     7.385754  # Hw
    445     149    1   0.423800000000    10.747104     5.173290    11.867318  # Hw
    446     149    2  -0.847600000000     9.870626     5.271132    12.338713  # Ow
    447     149    1   0.423800000000     9.449718     4.370886    12.450037  # Hw
    448     150    1   0.423800000000    -6.954013    12.884487   -13.179230  # Hw
    449     150    2  -0.847600000000    -6.900983    12.021817   -12.676251  # Ow
    450     150    1   0.423800000000    -6.137294    12.058199   -12.031692  # Hw
    451     151    1   0.423800000000    -4.379874     9.726131     2.578734  # Hw
    452     151    2  -0.847600000000    -3.987641     8.806854     2.611627  # Ow
    453     151    1   0.423800000000    -4.176676     8.332844     1.751639  # Hw
    454     152    1   0.423800000000    13.164589   -13.296177    10.480850  # Hw
    455     152    2  -0.847600000000    12.189012   -13.502776    10.555449  # Ow
    456     152    1   0.423800000000    11.660444   -12.782218    10.106661  # Hw
    457     153    1   0.423800000000    -9.673383    -3.450003    -1.590579  # Hw
    458     153    2  -0.847600000000   -10.213625    -2.705638    -1.983083  # Ow
    459     153    1   0.423800000000   -11.173176    -2.982161    -2.035967  # Hw
    460     154    1   0.423800000000    -2.035001    -4.151065   -13.478848  # Hw
    461     154    2  -0.847600000000    -1.697915    -3.401078   -12.909731  # Ow
    462     154    1   0.423800000000    -2.157843    -3.423534   -12.022059  # Hw
    463     155    1   0.423800000000    -4.441151    -3.064266    13.491213  # Hw
    464     155    2  -0.847600000000    -5.168739    -3.421284    12.905420  # Ow
    465     155    1   0.423800000000    -5.875657    -3.844304    13.472272  # Hw
    466     156    1   0.423800000000     8.179739     9.714429     9.639478  # Hw
    467     156    2  -0.847600000000     8.481727     9.072479    10.344250  # Ow
    468     156    1   0.423800000000     8.730531     9.577591    11.170663  # Hw
    469     157    1   0.423800000000   -10.132188    -3.417667    -7.202190  # Hw
    470     157    2  -0.847600000000    -9.651514    -2.776719    -7.800636  # Ow
    471     157    1   0.423800000000   -10.190524    -2.626257    -8.629387  # Hw
    472     158    1   0.423800000000    11.764907   -12.547936    -6.902201  # Hw
    473     158    2  -0.847600000000    11.591899   -11.613514    -7.213528  # Ow
    474     158    1   0.423800000000    12.458514   -11.176730    -7.454768  # Hw
    475     159    1   0.423800000000    -2.049164    -5.812453    11.929169  # Hw
    476     159    2  -0.847600000000    -2.348320    -6.023812    12.859670  # Ow
    477     159    1   0.423800000000    -3.126280    -5.443138    13.099661  # Hw
    478     160    1   0.423800000000    -3.095455    10.146991    -4.690211  # Hw
    479     160    2  -0.847600000000    -3.738080    10.018576    -5.445554  # Ow
    480     160    1   0.423800000000    -3.645888    10.774436    -6.093764  # Hw
    481     161    1   0.423800000000    -6.236883   -11.849994     0.585827  # Hw
    482     161    2  -0.847600000000    -7.225143   -12.002489     0.576546  # Ow
    483     161    1   0.423800000000    -7.422140   -12.885649     0.150846  # Hw
    484     162    1   0.423800000000    -3.890133    -8.793412    11.947052  # Hw
    485     162    2  -0.847600000000    -3.223421    -8.752260    12.691231  # Ow
    486     162    1   0.423800000000    -3.653140    -8.355074    13.502147  # Hw
    487     163    1   0.423800000000   -11.411987    -8.428598    -6.447966  # Hw
    488     163    2  -0.847600000000   -10.669412    -7.922961    -6.008746  # Ow
    489     163    1   0.423800000000   -10.907852    -6.952856    -5.963549  # Hw
    490     164    1   0.423800000000     8.500996     5.674592     9.629349  # Hw
    491     164    2  -0.847600000000     8.065692     5.065508     8.966381  # Ow
    492     164    1   0.423800000000     7.210462     5.475099     8.648865  # Hw
    493     165    1   0.423800000000   -13.182993    -4.802763    -4.015349  # Hw
    494     165    2  -0.847600000000   -12.977552    -3.990254    -4.560898  # Ow
    495     165    1   0.423800000000   -13.495145    -3.211363    -4.206744  # Hw
    496     166    1   0.423800000000     0.828929     2.584288    13.500393  # Hw
    497     166    2  -0.847600000000     0.537370     1.628038    13.476349  # Ow
    498     166    1   0.423800000000    -0.449290     1.584249    13.319551  # Hw
    499     167    1   0.423800000000     7.916115     7.837129     0.283706  # Hw
    500     167    2  -0.847600000000     7.018359     8.062387    -0.094834  # Ow
    501     167    1   0.423800000000     6.340361     7.410398     0.244620  # Hw
    502     168    1   0.423800000000    -3.793901    11.425899    10.979979  # Hw
    503     168    2  -0.847600000000    -2.944665    11.889576    10.727389  # Ow
    504     168    1   0.423800000000    -3.111348    12.872711    10.652136  # Hw
    505     169    1   0.423800000000     2.871348     5.225924    -6.734141  # Hw
    506     169    2  -0.847600000000     3.829788     5.167131    -6.454968  # Ow
    507     169    1   0.423800000000     4.332099     5.950748    -6.820518  # Hw
    508     170    1   0.423800000000    11.229312   -13.195738     2.567540  # Hw
    509     170    2  -0.847600000000    12.220411   -13.066998     2.601444  # Ow
    510     170    1   0.423800000000    12.427081   -12.092755     2.691647  # Hw
    511     171    1   0.423800000000     4.736180     8.848408    -1.464553  # Hw
    512     171    2  -0.847600000000     5.053157     8.926845    -2.409738  # Ow
    513     171    1   0.423800000000     4.298299     8.721306    -3.032587  # Hw
    514     172    1   0.423800000000    -4.289602    11.850930    -2.892103  # Hw
    515     172    2  -0.847600000000    -3.771148    12.705281    -2.856190  # Ow
    516     172    1   0.423800000000    -4.401662    13.480022    -2.903389  # Hw
    517     173    1   0.423800000000     5.603891    -9.655902    -2.821650  # Hw
    518     173    2  -0.847600000000     5.537592    -9.246934    -1.911513  # Ow
    519     173    1   0.423800000000     4.819362    -9.708026    -1.390419  # Hw
    520     174    1   0.423800000000    -2.219445    -3.159260    -8.125978  # Hw
    521     174    2  -0.847600000000    -2.584440    -3.434429    -9.015394  # Ow
    522     174    1   0.423800000000    -3.328009    -2.818465    -9.275574  # Hw
    523     175    1   0.423800000000     7.992539     4.926185     5.844661  # Hw
    524     175    2  -0.847600000000     8.169488     4.596556     4.917281  # Ow
    525     175    1   0.423800000000     7.301581     4.473153     4.436128  # Hw
    526     176    1   0.423800000000     6.864851    -1.478521    10.146369  # Hw
    527     176    2  -0.847600000000     6.067133    -2.081472    10.136612  # Ow
    528     176    1   0.423800000000     5.242912    -1.546833    10.323215  # Hw
    529     177    1   0.423800000000    -6.086505    -5.151496     1.575675  # Hw
    530     177    2  -0.847600000000    -6.466590    -4.226549     1.578573  # Ow
    531     177    1   0.423800000000    -5.829829    -3.605962     2.036183  # Hw
    532     178    1   0.423800000000    -6.827425    -7.627352   -11.205796  # Hw
    533     178    2  -0.847600000000    -6.307754    -8.481712   -11.202329  # Ow
    534     178    1   0.423800000000    -5.329227    -8.276735   -11.224001  # Hw
    535     179    1   0.423800000000    -5.221361    -9.473254     7.045065  # Hw
    536     179    2  -0.847600000000    -5.978648    -9.003220     6.591652  # Ow
    537     179    1   0.423800000000    -6.769218    -9.613737     6.544039  # Hw
    538     180    1   0.423800000000     1.041166    13.225210    -8.720084  # Hw
    539     180    2  -0.847600000000     1.363912    12.776595    -7.886670  # Ow
    540     180    1   0.423800000000     1.430184    11.791097    -8.042877  # Hw
    541     181    1   0.423800000000    -1.728263    -2.613462    13.450245  # Hw
    542     181    2  -0.847600000000    -1.294954    -3.396278    13.003655  # Ow
    543     181    1   0.423800000000    -0.472696    -3.655859    13.510122  # Hw
    544     182    1   0.423800000000    -6.695153     1.686312     6.750331  # Hw
    545     182    2  -0.847600000000    -7.653691     1.968933     6.786812  # Ow
    546     182    1   0.423800000000    -8.053597     1.910039     5.872150  # Hw
    547     183    1   0.423800000000    11.577467     6.631561   -10.274662  # Hw
    548     183    2  -0.847600000000    12.465009     7.056426   -10.452866  # Ow
    549     183    1   0.423800000000    13.073097     6.896826    -9.675205  # Hw
    550     184    1   0.423800000000    -7.033986    -2.640168     7.065843  # Hw
    551     184    2  -0.847600000000    -7.461260    -2.550287     6.166200  # Ow
    552     184    1   0.423800000000    -6.978970    -1.852685     5.636343  # Hw
    553     185    1   0.423800000000     7.892685    -5.074341     5.817409  # Hw
    554     185    2  -0.847600000000     8.109795    -5.725648     5.090318  # Ow
    555     185    1   0.423800000000     8.653610    -5.269650     4.385811  # Hw
    556     186    1   0.423800000000   -11.441347    -4.574163   -10.254463  # Hw
    557     186    2  -0.847600000000   -12.169365    -4.238890    -9.656482  # Ow
    558     186    1   0.423800000000   -12.061077    -4.635476    -8.744894  # Hw
    559     187    1   0.423800000000    12.682599    -6.035126    -5.429348  # Hw
    560     187    2  -0.847600000000    13.493403    -6.146939    -4.854810  # Ow
    561     187    1   0.423800000000    13.500088    -7.067031    -4.463166  # Hw
    562     188    1   0.423800000000    10.481468     4.220670   -11.012005  # Hw
    563     188    2  -0.847600000000     9.880675     3.659557   -11.581391  # Ow
    564     188    1   0.423800000000     9.085342     3.374345   -11.046509  # Hw
    565     189    1   0.423800000000     3.470425    -7.436879   -10.792737  # Hw
    566     189    2  -0.847600000000     3.676376    -6.469534   -10.644994  # Ow
    567     189    1   0.423800000000     4.626790    -6.372439   -10.349553  # Hw
    568     190    1   0.423800000000     3.877538    13.499634    -7.037055  # Hw
    569     190    2  -0.847600000000     3.711143    12.702286    -6.456926  # Ow
    570     190    1   0.423800000000     3.162066    12.973916    -5.666527  # Hw
    571     191    1   0.423800000000    -4.090537     0.815567     6.618334  # Hw
    572     191    2  -0.847600000000    -3.912887     0.040655     6.011742  # Ow
    573     191    1   0.423800000000    -4.761814    -0.227663     5.556409  # Hw
    574     192    1   0.423800000000    -9.013051   -11.655257     5.608085  # Hw
    575     192    2  -0.847600000000    -8.615953   -12.403101     6.140103  # Ow
    576     192    1   0.423800000000    -9.017176   -13.270739     5.846467  # Hw
    577     193    1   0.423800000000    -2.577462     9.153065    13.490760  # Hw
    578     193    2  -0.847600000000    -2.493582     8.156604    13.485402  # Ow
    579     193    1   0.423800000000    -1.526221     7.903474    13.497194  # Hw
    580     194    1   0.423800000000     6.779387    10.496691     1.433576  # Hw
    581     194    2  -0.847600000000     6.894152    10.986450     2.297847  # Ow
    582     194    1   0.423800000000     7.743639    10.693546     2.736684  # Hw
    583     195    1   0.423800000000    -6.870929     6.186069    -4.520306  # Hw
    584     195    2  -0.847600000000    -6.951892     6.434843    -5.485477  # Ow
    585     195    1   0.423800000000    -7.718299     5.939336    -5.894246  # Hw
    586     196    1   0.423800000000   -13.489513   -13.496798    11.779557  # Hw
    587     196    2  -0.847600000000   -13.266841   -13.491040    12.754433  # Ow
    588     196    1   0.423800000000   -13.498433   -12.599622    13.143969  # Hw
    589     197    1   0.423800000000     4.169176     7.981931     5.271445  # Hw
    590     197    2  -0.847600000000     4.835720     7.239905     5.199917  # Ow
    591     197    1   0.423800000000     5.713571     7.608717     4.894378  # Hw
    592     198    1   0.423800000000     2.395261     8.799090     0.064511  # Hw
    593     198    2  -0.847600000000     2.685692     7.842194     0.064256  # Ow
    594     198    1   0.423800000000     1.880320     7.249425     0.065054  # Hw
    595     199    1   0.423800000000     6.657155    -6.316035     9.124927  # Hw
    596     199    2  -0.847600000000     5.958246    -7.025871     9.212439  # Ow
    597     199    1   0.423800000000     6.399216    -7.919989     9.290534  # Hw
    598     200    1   0.423800000000     2.991153    10.113769   -13.313579  # Hw
    599     200    2  -0.847600000000     2.070848    10.452002   -13.510145  # Ow
    600     200    1   0.423800000000     1.414327     9.702996   -13.420872  # Hw
    601     201    1   0.423800000000   -10.094958     4.245901    11.254760  # Hw
    602     201    2  -0.847600000000    -9.186656     4.498279    10.921156  # Ow
    603     201    1   0.423800000000    -9.203981     5.441009    10.588049  # Hw
    604     202    1   0.423800000000     7.938873    -8.176083    13.507770  # Hw
    605     202    2  -0.847600000000     7.761750    -9.122515    13.237781  # Ow
    606     202    1   0.423800000000     6.791722    -9.231150    13.020424  # Hw
    607     203    1   0.423800000000     6.265131    10.039348    12.901987  # Hw
    608     203    2  -0.847600000000     6.843188    10.835571    12.723434  # Ow
    609     203    1   0.423800000000     6.622358    11.212821    11.824037  # Hw
    610     204    1   0.423800000000    12.875116    -7.931093    -8.926557  # Hw
    611     204    2  -0.847600000000    12.124223    -7.638846    -8.334315  # Ow
    612     204    1   0.423800000000    12.264726    -6.686588    -8.063275  # Hw
    613     205    1   0.423800000000     6.166436     6.346489    -8.861255  # Hw
    614     205    2  -0.847600000000     6.190859     7.346185    -8.857963  # Ow
    615     205    1   0.423800000000     5.256465     7.702426    -8.857489  # Hw
    616     206    1   0.423800000000    -9.132817     5.724957    -9.017012  # Hw
    617     206    2  -0.847600000000    -9.405500     6.619063    -8.661740  # Ow
    618     206    1   0.423800000000   -10.394422     6.631481    -8.513830  # Hw
    619     207    1   0.423800000000     7.762779   -13.312136    -6.015442  # Hw
    620     207    2  -0.847600000000     8.214153   -13.469916    -6.893717  # Ow
    621     207    1   0.423800000000     9.204099   -13.508272    -6.757571  # Hw
    622     208    1   0.423800000000     3.413115    11.637532    -2.547943  # Hw
    623     208    2  -0.847600000000     2.521182    11.540716    -2.989625  # Ow
    624     208    1   0.423800000000     2.177059    10.612847    -2.845961  # Hw
    625     209    1   0.423800000000    12.013972    10.205716   -11.249923  # Hw
    626     209    2  -0.847600000000    11.514936     9.684409   -10.557678  # Ow
    627     209    1   0.423800000000    10.783218     9.162820   -10.996465  # Hw
    628     210    1   0.423800000000     4.958675     4.519825     5.872683  # Hw
    629     210    2  -0.847600000000     5.457757     4.313376     6.714286  # Ow
    630     210    1   0.423800000000     5.710635     3.345918     6.723050  # Hw
    631     211    1   0.423800000000     5.793034    10.058254     6.787603  # Hw
    632     211    2  -0.847600000000     5.333324     9.364485     7.341995  # Ow
    633     211    1   0.423800000000     4.762669     9.812257     8.030366  # Hw
    634     212    1   0.423800000000    13.540432   -10.552368     0.046113  # Hw
    635     212    2  -0.847600000000    13.114879    -9.830952     0.592433  # Ow
    636     212    1   0.423800000000    13.492409    -9.847364     1.518285  # Hw
    637     213    1   0.423800000000    11.724914    13.499034    -1.205646  # Hw
    638     213    2  -0.847600000000    11.550191    12.686978    -1.762456  # Ow
    639     213    1   0.423800000000    11.195909    11.954304    -1.181360  # Hw
    640     214    1   0.423800000000    -1.733869   -12.121791    -5.206506  # Hw
    641     214    2  -0.847600000000    -1.541666   -12.663025    -4.387895  # Ow
    642     214    1   0.423800000000    -2.089329   -13.499545    -4.405213  # Hw
    643     215    1   0.423800000000    12.278739     6.806410    -6.945298  # Hw
    644     215    2  -0.847600000000    13.272549     6.917073    -6.935513  # Ow
    645     215    1   0.423800000000    13.499575     7.890929    -6.943452  # Hw
    646     216    1   0.423800000000    -2.555503    10.179633   -12.812079  # Hw
    647     216    2  -0.847600000000    -2.169617     9.316581   -12.486145  # Ow
    648     216    1   0.423800000000    -1.216667     9.245202   -12.780746  # Hw
    649     217    1   0.423800000000    -6.476261    11.813431    13.495067  # Hw
    650     217    2  -0.847600000000    -5.626772    11.898226    12.974320  # Ow
    651     217    1   0.423800000000    -4.869901    11.520034    13.507346  # Hw
    652     218    1   0.423800000000   -10.933018    -2.709058    10.967359  # Hw
    653     218    2  -0.847600000000   -11.779410    -3.172352    11.229997  # Ow
    654     218    1   0.423800000000   -11.608288    -3.753324    12.025728  # Hw
    655     219    1   0.423800000000    -1.452726     4.046287    -9.616278  # Hw
    656     219    2  -0.847600000000    -0.515987     3.735556    -9.455139  # Ow
    657     219    1   0.423800000000     0.121561     4.331929    -9.942860  # Hw
    658     220    1   0.423800000000     1.775391     0.403305     2.019773  # Hw
    659     220    2  -0.847600000000     2.723777     0.616967     2.254108  # Ow
    660     220    1   0.423800000000     2.859667     1.607221     2.223630  # Hw
    661     221    1   0.423800000000     6.387205     4.691716    -0.782744  # Hw
    662     221    2  -0.847600000000     6.578802     3.728443    -0.594610  # Ow
    663     221    1   0.423800000000     7.447435     3.472357    -1.018752  # Hw
    664     222    1   0.423800000000   -10.572126   -13.466611    12.216998  # Hw
    665     222    2  -0.847600000000   -10.429855   -13.532038    11.229335  # Ow
    666     222    1   0.423800000000   -11.013257   -12.866560    10.763737  # Hw
    667     223    1   0.423800000000    -2.459764     1.645819   -12.979026  # Hw
    668     223    2  -0.847600000000    -3.329516     1.187434   -13.161824  # Ow
    669     223    1   0.423800000000    -3.197601     0.196731   -13.128580  # Hw
    670     224    1   0.423800000000   -10.082956     6.011313    -2.572883  # Hw
    671     224    2  -0.847600000000   -10.713778     5.755530    -3.305440  # Ow
    672     224    1   0.423800000000   -11.540404     6.314909    -3.243927  # Hw
    673     225    1   0.423800000000     4.051667    -3.351748    -8.946067  # Hw
    674     225    2  -0.847600000000     4.713710    -4.090452    -8.819514  # Ow
    675     225    1   0.423800000000     5.640475    -3.715844    -8.847331  # Hw
    676     226    1   0.423800000000     4.999316    -3.611922    -0.122729  # Hw
    677     226    2  -0.847600000000     5.754419    -3.572802     0.531709  # Ow
    678     226    1   0.423800000000     5.948556    -2.618760     0.759993  # Hw
    679     227    1   0.423800000000    11.813856     3.410626     6.859434  # Hw
    680     227    2  -0.847600000000    11.059688     4.065467     6.810305  # Ow
    681     227    1   0.423800000000    10.191066     3.571344     6.773722  # Hw
    682     228    1   0.423800000000    -0.946224     2.505292     2.395778  # Hw
    683     228    2  -0.847600000000     0.025728     2.739801     2.413533  # Ow
    684     228    1   0.423800000000     0.129618     3.716201     2.602875  # Hw
    685     229    1   0.423800000000    13.246841   -13.503604    -0.074509  # Hw
    686     229    2  -0.847600000000    12.440958   -13.000514    -0.386686  # Ow
    687     229    1   0.423800000000    11.615021   -13.505496    -0.136044  # Hw
    688     230    1   0.423800000000    -5.618414     3.074822     0.282188  # Hw
    689     230    2  -0.847600000000    -5.625249     2.665966     1.194761  # Ow
    690     230    1   0.423800000000    -4.797387     2.119512     1.321382  # Hw
    691     231    1   0.423800000000    -2.945682     2.697652    -4.649844  # Hw
    692     231    2  -0.847600000000    -2.759721     1.767552    -4.333092  # Ow
    693     231    1   0.423800000000    -3.355629     1.125691    -4.815696  # Hw
    694     232    1   0.423800000000     1.319566   -12.734610   -10.693340  # Hw
    695     232    2  -0.847600000000     0.757835   -13.513026   -10.413117  # Ow
    696     232    1   0.423800000000    -0.205554   -13.244936   -10.410144  # Hw
    697     233    1   0.423800000000   -13.212854    -9.890442    -0.486287  # Hw
    698     233    2  -0.847600000000   -13.506154   -10.835887    -0.344478  # Ow
    699     233    1   0.423800000000   -12.899510   -11.451984    -0.846879  # Hw
    700     234    1   0.423800000000    -9.130897     1.720553     9.378863  # Hw
    701     234    2  -0.847600000000    -9.196346     0.923529     9.979253  # Ow
    702     234    1   0.423800000000   -10.031958     0.415873     9.769404  # Hw
    703     235    1   0.423800000000   -11.970290   -12.246205     1.973346  # Hw
    704     235    2  -0.847600000000   -12.536795   -11.529799     2.380574  # Ow
    705     235    1   0.423800000000   -13.502533   -11.751931     2.246385  # Hw
    706     236    1   0.423800000000    -2.365411    -2.274129     4.864571  # Hw
    707     236    2  -0.847600000000    -2.889944    -3.054375     5.205279  # Ow
    708     236    1   0.423800000000    -3.638467    -2.726638     5.781736  # Hw
    709     237    1   0.423800000000    10.827849    -4.121627    -4.752971  # Hw
    710     237    2  -0.847600000000     9.981372    -3.868244    -5.221238  # Ow
    711     237    1   0.423800000000     9.215962    -4.373718    -4.822938  # Hw
    712     238    1   0.423800000000     2.448457     8.421218   -11.219357  # Hw
    713     238    2  -0.847600000000     2.318774     7.429775   -11.234289  # Ow
    714     238    1   0.423800000000     1.455145     7.199794   -10.785676  # Hw
    715     239    1   0.423800000000    -2.148941     5.540359    -6.569963  # Hw
    716     239    2  -0.847600000000    -2.490814     4.839940    -7.196490  # Ow
    717     239    1   0.423800000000    -2.104182     3.952115    -6.946928  # Hw
    718     240    1   0.423800000000    -2.366235    -7.926345     9.040212  # Hw
    719     240    2  -0.847600000000    -2.386127    -8.856013     8.672350  # Ow
    720     240    1   0.423800000000    -3.243763    -9.299325     8.932994  # Hw
    721     241    1   0.423800000000   -13.271438   -11.725130     9.689275  # Hw
    722     241    2  -0.847600000000   -13.548493   -10.970464    10.284018  # Ow
    723     241    1   0.423800000000   -12.917421   -10.906363    11.057089  # Hw
    724     242    1   0.423800000000    10.443115    -8.458792     5.927193  # Hw
    725     242    2  -0.847600000000     9.764532    -8.574676     5.201868  # Ow
    726     242    1   0.423800000000     9.823492    -7.806433     4.564431  # Hw
    727     243    1   0.423800000000    -9.855041     9.780361   -13.083050  # Hw
    728     243    2  -0.847600000000    -8.928842     9.781384   -13.460083  # Ow
    729     243    1   0.423800000000    -8.587735     8.842619   -13.508730  # Hw
    730     244    1   0.423800000000    -8.337054    -3.999019   -11.322681  # Hw
    731     244    2  -0.847600000000    -8.301113    -4.618374   -10.538393  # Ow
    732     244    1   0.423800000000    -8.677238    -5.507694   -10.798467  # Hw
    733     245    1   0.423800000000    -7.951918     5.560435     7.637562  # Hw
    734     245    2  -0.847600000000    -7.702950     4.596311     7.729654  # Ow
    735     245    1   0.423800000000    -8.364667     4.136267     8.321675  # Hw
    736     246    1   0.423800000000    -2.512584     8.683822    -2.436188  # Hw
    737     246    2  -0.847600000000    -3.296173     8.337836    -1.920164  # Ow
    738     246    1   0.423800000000    -4.143104     8.635635    -2.360643  # Hw
    739     247    1   0.423800000000    -2.099662     6.825582     2.876735  # Hw
    740     247    2  -0.847600000000    -1.406380     6.120454     2.727890  # Ow
    741     247    1   0.423800000000    -0.687326     6.209235     3.417150  # Hw
    742     248    1   0.423800000000    10.671828    -6.785918    -3.693587  # Hw
    743     248    2  -0.847600000000    10.132032    -7.619170    -3.573960  # Ow
    744     248    1   0.423800000000     9.399937    -7.642660    -4.254757  # Hw
    745     249    1   0.423800000000    10.832251   -11.388679    -1.974110  # Hw
    746     249    2  -0.847600000000    11.613196   -10.767817    -1.905878  # Ow
    747     249    1   0.423800000000    11.289266    -9.821856    -1.920914  # Hw
    748     250    1   0.423800000000    -7.764849    13.290580    -2.242178  # Hw
    749     250    2  -0.847600000000    -6.896766    12.997943    -1.841185  # Ow
    750     250    1   0.423800000000    -6.840559    11.999704    -1.860141  # Hw
    751     251    1   0.423800000000    -0.083881     9.486890     2.200529  # Hw
    752     251    2  -0.847600000000    -0.486873    10.371281     1.965050  # Ow
    753     251    1   0.423800000000     0.072171    11.105483     2.350300  # Hw
    754     252    1   0.423800000000     4.729978     7.089766   -13.500923  # Hw
    755     252    2  -0.847600000000     5.020304     7.631063   -12.711804  # Ow
    756     252    1   0.423800000000     4.966208     7.070841   -11.885230  # Hw
    757     253    1   0.423800000000    -6.975380    -7.796095    -2.242480  # Hw
    758     253    2  -0.847600000000    -7.044986    -8.203404    -1.331846  # Ow
    759     253    1   0.423800000000    -7.867988    -7.863525    -0.876709  # Hw
    760     254    1   0.423800000000     5.730797    -9.778616   -10.634134  # Hw
    761     254    2  -0.847600000000     5.711618    -8.892311   -10.171429  # Ow
    762     254    1   0.423800000000     6.097710    -8.986927    -9.253835  # Hw
    763     255    1   0.423800000000     2.010121   -12.388965     2.460051  # Hw
    764     255    2  -0.847600000000     2.406748   -13.200787     2.888574  # Ow
    765     255    1   0.423800000000     1.818078   -13.503258     3.638226  # Hw
    766     256    1   0.423800000000     3.376798   -13.503883    -3.057887  # Hw
    767     256    2  -0.847600000000     3.507531   -12.696238    -2.482893  # Ow
    768     256    1   0.423800000000     3.901462   -11.957733    -3.030094  # Hw
    769     257    1   0.423800000000     5.983881   -13.513214    -3.926136  # Hw
    770     257    2  -0.847600000000     6.684057   -12.972531    -3.459858  # Ow
    771     257    1   0.423800000000     6.439028   -12.870182    -2.495760  # Hw
    772     258    1   0.423800000000    -4.966092    -2.096992    -0.137929  # Hw
    773     258    2  -0.847600000000    -5.041282    -3.014948    -0.527421  # Ow
    774     258    1   0.423800000000    -5.386222    -2.952420    -1.463960  # Hw
    775     259    1   0.423800000000    -2.912042     3.118266    -1.301250  # Hw
    776     259    2  -0.847600000000    -2.285639     3.697263    -1.823153  # Ow
    777     259    1   0.423800000000    -2.716155     4.583208    -1.995656  # Hw
    778     260    1   0.423800000000    -1.189937    -9.901379   -10.633281  # Hw
    779     260    2  -0.847600000000    -0.313895   -10.043224   -11.094182  # Ow
    780     260    1   0.423800000000    -0.383663   -10.829622   -11.707949  # Hw
    781     261    1   0.423800000000    -8.633366     9.938241     0.962621  # Hw
    782     261    2  -0.847600000000    -7.821563     9.361914     0.868682  # Ow
    783     261    1   0.423800000000    -7.056316     9.915136     0.539530  # Hw
    784     262    1   0.423800000000    -6.865223    -5.201624     5.268547  # Hw
    785     262    2  -0.847600000000    -5.922045    -4.888433     5.379571  # Ow
    786     262    1   0.423800000000    -5.734673    -4.156304     4.724682  # Hw
    787     263    1   0.423800000000    -8.591778    -8.158385     5.101236  # Hw
    788     263    2  -0.847600000000    -8.121260    -7.645117     4.383484  # Ow
    789     263    1   0.423800000000    -7.155591    -7.904354     4.366756  # Hw
    790     264    1   0.423800000000     2.086759    -1.287442     7.589167  # Hw
    791     264    2  -0.847600000000     2.857016    -1.924474     7.559263  # Ow
    792     264    1   0.423800000000     3.303962    -1.949260     8.453480  # Hw
    793     265    1   0.423800000000     3.067600    -8.697887    -3.282712  # Hw
    794     265    2  -0.847600000000     2.824016    -9.538438    -3.766594  # Ow
    795     265    1   0.423800000000     1.921201    -9.433307    -4.183574  # Hw
    796     266    1   0.423800000000     0.478611     1.058151    -5.117400  # Hw
    797     266    2  -0.847600000000     0.990609     1.434388    -5.889606  # Ow
    798     266    1   0.423800000000     1.633343     2.125227    -5.558496  # Hw
    799     267    1   0.423800000000     0.056550    -5.524846    -9.184403  # Hw
    800     267    2  -0.847600000000    -0.280301    -5.857716   -10.065158  # Ow
    801     267    1   0.423800000000    -1.114903    -5.364640   -10.310750  # Hw
    802     268    1   0.423800000000    -2.027435    -6.296179    -0.344225  # Hw
    803     268    2  -0.847600000000    -1.516934    -6.547361    -1.166597  # Ow
    804     268    1   0.423800000000    -1.669931    -5.860163    -1.876774  # Hw
    805     269    1   0.423800000000    -5.892558   -10.885427    -9.006866  # Hw
    806     269    2  -0.847600000000    -6.823906   -11.237291    -8.913155  # Ow
    807     269    1   0.423800000000    -6.921728   -12.070563    -9.457295  # Hw
    808     270    1   0.423800000000     1.823472     8.905700    11.470299  # Hw
    809     270    2  -0.847600000000     1.336561     8.152030    11.911774  # Ow
    810     270    1   0.423800000000     1.601114     8.103028    12.874899  # Hw
    811     271    1   0.423800000000    -1.040066    13.449163    -3.436986  # Hw
    812     271    2  -0.847600000000    -1.015780    12.773627    -2.700060  # Ow
    813     271    1   0.423800000000    -0.306517    12.095527    -2.892744  # Hw
    814     272    1   0.423800000000     7.391888    -2.690236    -3.640743  # Hw
    815     272    2  -0.847600000000     6.822244    -3.489782    -3.450397  # Ow
    816     272    1   0.423800000000     6.455353    -3.424347    -2.522437  # Hw
    817     273    1   0.423800000000     7.010923    13.182888    -3.771495  # Hw
    818     273    2  -0.847600000000     6.176864    13.500218    -4.222769  # Ow
    819     273    1   0.423800000000     5.418253    12.893153    -3.986166  # Hw
    820     274    1   0.423800000000    -8.753493     7.285826   -11.248608  # Hw
    821     274    2  -0.847600000000    -9.483632     7.945143   -11.069170  # Ow
    822     274    1   0.423800000000   -10.361383     7.553926   -11.345759  # Hw
    823     275    1   0.423800000000     3.905198     0.672291    -6.174984  # Hw
    824     275    2  -0.847600000000     4.628190     1.301145    -5.888933  # Ow
    825     275    1   0.423800000000     4.347552     2.241436    -6.081531  # Hw
    826     276    1   0.423800000000    -6.272959     1.790914   -10.443392  # Hw
    827     276    2  -0.847600000000    -6.188053     1.213144   -11.255164  # Ow
    828     276    1   0.423800000000    -6.280388     1.776370   -12.076291  # Hw
    829     277    1   0.423800000000     3.102680    -0.824811    -1.223224  # Hw
    830     277    2  -0.847600000000     3.975079    -1.313562    -1.229831  # Ow
    831     277    1   0.423800000000     4.726664    -0.654273    -1.208442  # Hw
    832     278    1   0.423800000000     0.516287   -12.464708     8.042195  # Hw
    833     278    2  -0.847600000000     1.355702   -13.000743     8.131915  # Ow
    834     278    1   0.423800000000     1.522862   -13.502811     7.283396  # Hw
    835     279    1   0.423800000000    10.909826     2.596684    -6.542099  # Hw
    836     279    2  -0.847600000000    11.350769     1.701914    -6.471694  # Ow
    837     279    1   0.423800000000    10.921839     1.175805    -5.737373  # Hw
    838     280    1   0.423800000000     2.619414    -7.072787    -5.449889  # Hw
    839     280    2  -0.847600000000     2.090826    -6.705256    -6.215080  # Ow
    840     280    1   0.423800000000     1.591743    -7.447435    -6.662390  # Hw
    841     281    1   0.423800000000     4.981930   -12.019544     8.159216  # Hw
    842     281    2  -0.847600000000     5.910148   -12.389837     8.123258  # Ow
    843     281    1   0.423800000000     5.870303   -13.372011     7.939554  # Hw
    844     282    1   0.423800000000    13.342760   -13.054305    -3.517565  # Hw
    845     282    2  -0.847600000000    13.500369   -12.067103    -3.541885  # Ow
    846     282    1   0.423800000000    13.467811   -11.747601    -4.488911  # Hw
    847     283    1   0.423800000000    -8.702768    -0.518148     7.551655  # Hw
    848     283    2  -0.847600000000    -9.543902    -0.374410     7.030280  # Ow
    849     283    1   0.423800000000    -9.364906    -0.531152     6.058996  # Hw
    850     284    1   0.423800000000     4.972863   -10.077458    10.223598  # Hw
    851     284    2  -0.847600000000     5.064135   -10.626715    11.054252  # Ow
    852     284    1   0.423800000000     5.368092   -11.548282    10.812748  # Hw
    853     285    1   0.423800000000    -4.471213   -12.784677   -10.775764  # Hw
    854     285    2  -0.847600000000    -4.053267   -11.945293   -11.123262  # Ow
    855     285    1   0.423800000000    -3.146613   -11.831466   -10.717033  # Hw
    856     286    1   0.423800000000   -13.333755     9.673880     9.875867  # Hw
    857     286    2  -0.847600000000   -12.634250    10.170368     9.361869  # Ow
    858     286    1   0.423800000000   -12.895026    11.132960     9.288306  # Hw
    859     287    1   0.423800000000     2.591627    -2.722371     0.862318  # Hw
    860     287    2  -0.847600000000     2.989642    -1.986790     1.410501  # Ow
    861     287    1   0.423800000000     3.571951    -2.379302     2.122435  # Hw
    862     288    1   0.423800000000     8.561836    -4.385793     8.683821  # Hw
    863     288    2  -0.847600000000     8.048758    -3.820659     9.329866  # Ow
    864     288    1   0.423800000000     8.113219    -4.218538    10.245037  # Hw
    865     289    1   0.423800000000    -4.071232     1.941342    11.055827  # Hw
    866     289    2  -0.847600000000    -3.325482     2.607562    11.058685  # Ow
    867     289    1   0.423800000000    -3.701900     3.528798    11.156825  # Hw
    868     290    1   0.423800000000   -12.704774    -7.483300   -11.552995  # Hw
    869     290    2  -0.847600000000   -13.267803    -6.798776   -11.089934  # Ow
    870     290    1   0.423800000000   -13.337833    -5.982021   -11.662653  # Hw
    871     291    1   0.423800000000   -12.122804     7.334277    12.105168  # Hw
    872     291    2  -0.847600000000   -11.123265     7.303947    12.103466  # Ow
    873     291    1   0.423800000000   -10.800592     6.900208    12.959548  # Hw
    874     292    1   0.423800000000     0.017896   -11.364729     0.871093  # Hw
    875     292    2  -0.847600000000    -0.947699   -11.136380     0.746661  # Ow
    876     292    1   0.423800000000    -1.025456   -10.306970     0.193458  # Hw
    877     293    1   0.423800000000     7.861860     0.617088     4.272566  # Hw
    878     293    2  -0.847600000000     8.146835     1.017181     5.143609  # Ow
    879     293    1   0.423800000000     7.377299     1.507416     5.552856  # Hw
    880     294    1   0.423800000000    -3.097949     6.475260    -3.966679  # Hw
    881     294    2  -0.847600000000    -4.078284     6.548746    -4.149830  # Ow
    882     294    1   0.423800000000    -4.228342     6.626081    -5.135478  # Hw
    883     295    1   0.423800000000   -12.312004    -7.513048    13.417076  # Hw
    884     295    2  -0.847600000000   -13.100668    -8.127692    13.431959  # Ow
    885     295    1   0.423800000000   -12.784568    -9.073902    13.501004  # Hw
    886     296    1   0.423800000000     8.205345    10.242591    -9.118265  # Hw
    887     296    2  -0.847600000000     8.556356    11.077751    -9.541703  # Ow
    888     296    1   0.423800000000     8.724154    10.913491   -10.513743  # Hw
    889     297    1   0.423800000000     7.467622     5.684614   -11.191654  # Hw
    890     297    2  -0.847600000000     7.768304     6.220413   -11.980647  # Ow
    891     297    1   0.423800000000     8.714956     6.512313   -11.844108  # Hw
    892     298    1   0.423800000000     4.065871     5.339400    -2.484335  # Hw
    893     298    2  -0.847600000000     3.758510     5.255173    -3.432193  # Ow
    894     298    1   0.423800000000     3.744821     6.159069    -3.859724  # Hw
    895     299    1   0.423800000000    -3.838236    -6.368623    -5.368258  # Hw
    896     299    2  -0.847600000000    -4.593734    -5.824208    -5.732723  # Ow
    897     299    1   0.423800000000    -4.930760    -5.204919    -5.023573  # Hw
    898     300    1   0.423800000000     2.788858    -9.567187    12.166085  # Hw
    899     300    2  -0.847600000000     1.995945    -9.600027    11.557635  # Ow
    900     300    1   0.423800000000     2.302948    -9.551813    10.607149  # Hw
    901     301    1   0.423800000000     1.987949    10.233907    -5.561349  # Hw
    902     301    2  -0.847600000000     2.851360     9.732725    -5.619132  # Ow
    903     301    1   0.423800000000     3.577085    10.268098    -5.187045  # Hw
    904     302    1   0.423800000000    -8.312725    -6.098194    -5.721400  # Hw
    905     302    2  -0.847600000000    -7.847392    -6.981311    -5.781138  # Ow
    906     302    1   0.423800000000    -7.666011    -7.325481    -4.859917  # Hw
    907     303    1   0.423800000000   -13.399922    -0.130284     2.586834  # Hw
    908     303    2  -0.847600000000   -12.681814     0.565453     2.603335  # Ow
    909     303    1   0.423800000000   -13.098465     1.474515     2.606073  # Hw
    910     304    1   0.423800000000     6.031321   -11.707196     2.244572  # Hw
    911     304    2  -0.847600000000     6.476577   -12.578787     2.039444  # Ow
    912     304    1   0.423800000000     6.657791   -13.069247     2.891858  # Hw
    913     305    1   0.423800000000     3.180562    12.176443     2.324088  # Hw
    914     305    2  -0.847600000000     3.659301    12.615063     1.563547  # Ow
    915     305    1   0.423800000000     4.532876    12.153556     1.409020  # Hw
    916     306    1   0.423800000000     9.991019     9.468376     4.783277  # Hw
    917     306    2  -0.847600000000    10.624431    10.235546     4.884465  # Ow
    918     306    1   0.423800000000    10.106825    11.088535     4.951499  # Hw
    919     307    1   0.423800000000     0.026220     8.195201    -5.368195  # Hw
    920     307    2  -0.847600000000    -0.766216     7.586288    -5.332568  # Ow
    921     307    1   0.423800000000    -1.575159     8.072299    -5.663330  # Hw
    922     308    1   0.423800000000    10.256347    12.713429     1.888456  # Hw
    923     308    2  -0.847600000000    10.653156    11.949564     2.397429  # Ow
    924     308    1   0.423800000000    11.502319    12.245705     2.834719  # Hw
    925     309    1   0.423800000000    -0.649379     5.036699    -0.063526  # Hw
    926     309    2  -0.847600000000    -0.580151     6.033664    -0.099162  # Ow
    927     309    1   0.423800000000    -1.494268     6.428113    -0.192969  # Hw
    928     310    1   0.423800000000     3.957121   -11.872498   -10.456589  # Hw
    929     310    2  -0.847600000000     4.201430   -12.827140   -10.626800  # Ow
    930     310    1   0.423800000000     5.197033   -12.916476   -10.654970  # Hw
    931     311    1   0.423800000000     4.058552    -0.635501     4.305800  # Hw
    932     311    2  -0.847600000000     4.749724    -1.078360     4.876902  # Ow
    933     311    1   0.423800000000     5.452087    -0.412008     5.127222  # Hw
    934     312    1   0.423800000000   -10.159617    -0.444990   -10.613933  # Hw
    935     312    2  -0.847600000000    -9.200372    -0.166993   -10.563277  # Ow
    936     312    1   0.423800000000    -9.130000     0.817944   -10.721224  # Hw
    937     313    1   0.423800000000     0.092630    -9.343592    13.522248  # Hw
    938     313    2  -0.847600000000     0.445686    -8.408644    13.487273  # Ow
    939     313    1   0.423800000000    -0.318383    -7.763514    13.489874  # Hw
    940     314    1   0.423800000000    -8.265242     3.965527     1.599531  # Hw
    941     314    2  -0.847600000000    -7.846155     4.758250     2.042201  # Ow
    942     314    1   0.423800000000    -8.539816     5.463421     2.189064  # Hw
    943     315    1   0.423800000000     9.261271    -4.853185     1.455122  # Hw
    944     315    2  -0.847600000000     8.700734    -4.241558     0.896811  # Ow
    945     315    1   0.423800000000     8.205268    -4.775846     0.211940  # Hw
    946     316    1   0.423800000000     3.684103     3.624889   -11.318133  # Hw
    947     316    2  -0.847600000000     2.758310     3.919336   -11.081048  # Ow
    948     316    1   0.423800000000     2.799504     4.798292   -10.605928  # Hw
    949     317    1   0.423800000000    12.533139    -7.339804     4.570046  # Hw
    950     317    2  -0.847600000000    13.302361    -7.921311     4.305192  # Ow
    951     317    1   0.423800000000    13.499209    -7.791489     3.333391  # Hw
    952     318    1   0.423800000000     3.641028    -3.003086    -3.401556  # Hw
    953     318    2  -0.847600000000     4.060360    -2.559520    -4.193648  # Ow
    954     318    1   0.423800000000     4.672249    -1.832072    -3.883150  # Hw
    955     319    1   0.423800000000     1.655320    -9.522264     3.599103  # Hw
    956     319    2  -0.847600000000     1.962171    -8.618531     3.897616  # Ow
    957     319    1   0.423800000000     2.603966    -8.246182     3.227203  # Hw
    958     320    1   0.423800000000     4.877426    -4.205255     7.844055  # Hw
    959     320    2  -0.847600000000     5.808875    -4.101219     7.495374  # Ow
    960     320    1   0.423800000000     5.985770    -3.136615     7.299805  # Hw
    961     321    1   0.423800000000     0.618863     3.909505    -2.229230  # Hw
    962     321    2  -0.847600000000     1.504478     4.360248    -2.117354  # Ow
    963     321    1   0.423800000000     1.362154     5.329309    -1.915701  # Hw
    964     322    1   0.423800000000    -3.719983    -5.266571     9.413041  # Hw
    965     322    2  -0.847600000000    -3.856841    -4.673241    10.206280  # Ow
    966     322    1   0.423800000000    -4.788011    -4.788629    10.552125  # Hw
    967     323    1   0.423800000000   -13.189280    10.995218     5.569535  # Hw
    968     323    2  -0.847600000000   -12.485553    11.297185     6.212640  # Ow
    969     323    1   0.423800000000   -12.068560    10.499873     6.649000  # Hw
    970     324    1   0.423800000000     8.311778    -7.542118     0.050686  # Hw
    971     324    2  -0.847600000000     8.252870    -7.393118     1.037767  # Ow
    972     324    1   0.423800000000     9.041081    -7.814670     1.486115  # Hw
    973     325    1   0.423800000000    -2.343590    -5.389529     6.846019  # Hw
    974     325    2  -0.847600000000    -2.609768    -6.352422     6.801455  # Ow
    975     325    1   0.423800000000    -3.598143    -6.431370     6.931384  # Hw
    976     326    1   0.423800000000     1.195883    -8.882429     0.954533  # Hw
    977     326    2  -0.847600000000     0.893721    -7.939518     1.094592  # Ow
    978     326    1   0.423800000000     0.245453    -7.906760     1.855299  # Hw
    979     327    1   0.423800000000   -12.098106    -9.680022    -9.461592  # Hw
    980     327    2  -0.847600000000   -12.857925    -9.058224    -9.271746  # Ow
    981     327    1   0.423800000000   -13.472746    -9.477431    -8.603719  # Hw
    982     328    1   0.423800000000    -7.819587     8.344315     7.281798  # Hw
    983     328    2  -0.847600000000    -6.930007     8.800194     7.253160  # Ow
    984     328    1   0.423800000000    -6.203096     8.113544     7.263737  # Hw
    985     329    1   0.423800000000    -8.784641    13.499966    -4.821294  # Hw
    986     329    2  -0.847600000000    -8.319102    12.625428    -4.957147  # Ow
    987     329    1   0.423800000000    -7.341790    12.786002    -5.095266  # Hw
    988     330    1   0.423800000000   -13.500218    10.811213    -6.452244  # Hw
    989     330    2  -0.847600000000   -12.562851    11.123804    -6.605962  # Ow
    990     330    1   0.423800000000   -11.978248    10.337923    -6.807534  # Hw
    991     331    1   0.423800000000     3.376917     2.271602     5.764913  # Hw
    992     331    2  -0.847600000000     3.521718     2.404459     4.784412  # Ow
    993     331    1   0.423800000000     4.464362     2.165538     4.551306  # Hw
    994     332    1   0.423800000000     8.411105    -5.752753    -2.526346  # Hw
    995     332    2  -0.847600000000     7.442129    -5.999655    -2.515166  # Ow
    996     332    1   0.423800000000     7.352174    -6.994338    -2.465029  # Hw
    997     333    1   0.423800000000    -9.362681    11.397566     3.228319  # Hw
    998     333    2  -0.847600000000    -8.398156    11.635252     3.113433  # Ow
    999     333    1   0.423800000000    -8.305047    12.628854     3.049524  # Hw
   1000     334    1   0.423800000000    -3.335137    -9.137343    -9.093140  # Hw
   1001     334    2  -0.847600000000    -3.179958   -10.011303    -8.632582  # Ow
   1002     334    1   0.423800000000    -2.489836    -9.893836    -7.918487  # Hw
   1003     335    1   0.423800000000     4.272870     1.176032   -10.218240  # Hw
   1004     335    2  -0.847600000000     3.888213     0.891081   -11.096216  # Ow
   1005     335    1   0.423800000000     3.668154    -0.083840   -11.063028  # Hw
   1006     336    1   0.423800000000    -1.671164    13.444448    -9.626433  # Hw
   1007     336    2  -0.847600000000    -2.108620    12.557195    -9.480099  # Ow
   1008     336    1   0.423800000000    -2.849590    12.437865   -10.140949  # Hw
   1009     337    1   0.423800000000    11.902473     1.050726    -0.525390  # Hw
   1010     337    2  -0.847600000000    12.529354     1.829730    -0.538506  # Ow
   1011     337    1   0.423800000000    13.471463     1.498580    -0.591145  # Hw
   1012     338    1   0.423800000000    -8.266938   -12.221492    10.168983  # Hw
   1013     338    2  -0.847600000000    -7.863559   -13.136071    10.197805  # Ow
   1014     338    1   0.423800000000    -7.031041   -13.115883    10.751436  # Hw
   1015     339    1   0.423800000000   -11.014534    -8.374068     0.156529  # Hw
   1016     339    2  -0.847600000000   -10.339740    -7.837819     0.663569  # Ow
   1017     339    1   0.423800000000   -10.798636    -7.324501     1.388772  # Hw
   1018     340    1   0.423800000000    -9.647633     2.607133     3.634039  # Hw
   1019     340    2  -0.847600000000   -10.073831     3.511727     3.642058  # Ow
   1020     340    1   0.423800000000   -11.068783     3.411404     3.644378  # Hw
   1021     341    1   0.423800000000     0.014550    11.811182   -11.063273  # Hw
   1022     341    2  -0.847600000000     0.781718    11.304160   -10.670357  # Ow
   1023     341    1   0.423800000000     0.556492    10.330363   -10.638891  # Hw
   1024     342    1   0.423800000000    -2.010779   -10.575108    11.033663  # Hw
   1025     342    2  -0.847600000000    -1.061113   -10.261865    11.037317  # Ow
   1026     342    1   0.423800000000    -1.039910    -9.262090    11.038278  # Hw
   1027     343    1   0.423800000000    -5.832096     6.376769    10.465597  # Hw
   1028     343    2  -0.847600000000    -6.497874     7.102361    10.291656  # Ow
   1029     343    1   0.423800000000    -6.019480     7.931008    10.000997  # Hw
   1030     344    1   0.423800000000    -7.576692    -3.484905    -6.146103  # Hw
   1031     344    2  -0.847600000000    -7.045371    -2.637776    -6.154368  # Ow
   1032     344    1   0.423800000000    -7.666725    -1.854432    -6.137274  # Hw
   1033     345    1   0.423800000000     7.854552     8.198546     6.967298  # Hw
   1034     345    2  -0.847600000000     8.444254     9.005182     7.007156  # Ow
   1035     345    1   0.423800000000     9.343893     8.743434     7.356636  # Hw
   1036     346    1   0.423800000000    -8.101530    -2.030077    12.306853  # Hw
   1037     346    2  -0.847600000000    -7.633785    -1.156763    12.170697  # Ow
   1038     346    1   0.423800000000    -8.301896    -0.413166    12.196953  # Hw
   1039     347    1   0.423800000000     4.453896     9.181980     2.273079  # Hw
   1040     347    2  -0.847600000000     4.658865     8.203768     2.306092  # Ow
   1041     347    1   0.423800000000     3.833343     7.698544     2.557609  # Hw
   1042     348    1   0.423800000000     1.957418    13.090831   -12.745332  # Hw
   1043     348    2  -0.847600000000     2.947411    12.957443   -12.791381  # Ow
   1044     348    1   0.423800000000     3.265946    12.530571   -11.945027  # Hw
   1045     349    1   0.423800000000    -7.699668    12.474258    -9.368454  # Hw
   1046     349    2  -0.847600000000    -8.696741    12.538011    -9.326250  # Ow
   1047     349    1   0.423800000000    -8.969289    13.500138    -9.320926  # Hw
   1048     350    1   0.423800000000     9.285896    -3.041533    13.293915  # Hw
   1049     350    2  -0.847600000000     9.878570    -3.455009    12.602702  # Ow
   1050     350    1   0.423800000000    10.835483    -3.311464    12.855117  # Hw
   1051     351    1   0.423800000000    12.094591    -5.614156     6.755392  # Hw
   1052     351    2  -0.847600000000    11.468241    -4.841139     6.654740  # Ow
   1053     351    1   0.423800000000    10.527026    -5.177136     6.619824  # Hw
   1054     352    1   0.423800000000   -10.070545     7.820106    -0.501882  # Hw
   1055     352    2  -0.847600000000   -10.087261     8.686209    -1.001469  # Ow
   1056     352    1   0.423800000000    -9.334470     8.706056    -1.659428  # Hw
   1057     353    1   0.423800000000    -2.374579    -3.353950     2.182370  # Hw
   1058     353    2  -0.847600000000    -3.045632    -2.786371     1.705356  # Ow
   1059     353    1   0.423800000000    -3.501324    -2.185752     2.362319  # Hw
   1060     354    1   0.423800000000    -6.141727   -10.269316    -3.213090  # Hw
   1061     354    2  -0.847600000000    -7.034541   -10.532143    -2.847295  # Ow
   1062     354    1   0.423800000000    -6.918983   -10.920424    -1.933028  # Hw
   1063     355    1   0.423800000000     8.920317    -3.187134    -8.002845  # Hw
   1064     355    2  -0.847600000000     8.303403    -3.033498    -7.230955  # Ow
   1065     355    1   0.423800000000     7.744972    -3.849745    -7.082988  # Hw
   1066     356    1   0.423800000000     0.480422    -1.020757     9.845973  # Hw
   1067     356    2  -0.847600000000     0.229948    -1.985986     9.920769  # Ow
   1068     356    1   0.423800000000    -0.764198    -2.067866     9.991261  # Hw
   1069     357    1   0.423800000000    -3.508313   -13.328407     5.582833  # Hw
   1070     357    2  -0.847600000000    -2.693680   -12.802681     5.337916  # Ow
   1071     357    1   0.423800000000    -2.922411   -11.829762     5.304614  # Hw
   1072     358    1   0.423800000000     1.305897    -4.653796    11.449694  # Hw
   1073     358    2  -0.847600000000     1.519922    -5.117618    12.309382  # Ow
   1074     358    1   0.423800000000     2.286899    -4.656074    12.755165  # Hw
   1075     359    1   0.423800000000     0.344168     0.049929     4.490473  # Hw
   1076     359    2  -0.847600000000     1.162436     0.587692     4.693569  # Ow
   1077     359    1   0.423800000000     0.915381     1.553433     4.772988  # Hw
   1078     360    1   0.423800000000     1.048779     1.750193   -12.169851  # Hw
   1079     360    2  -0.847600000000     0.459466     1.004550   -11.858841  # Ow
   1080     360    1   0.423800000000     1.008379     0.179408   -11.725296  # Hw
   1081     361    1   0.423800000000     1.984415    10.248332     8.253119  # Hw
   1082     361    2  -0.847600000000     1.765815    10.266538     7.277475  # Ow
   1083     361    1   0.423800000000     2.291428     9.559163     6.804874  # Hw
   1084     362    1   0.423800000000     4.751627    -8.334833     1.018966  # Hw
   1085     362    2  -0.847600000000     5.606975    -8.011409     0.614273  # Ow
   1086     362    1   0.423800000000     5.529985    -7.036074     0.407402  # Hw
   1087     363    1   0.423800000000     9.110617    -8.140820     9.630020  # Hw
   1088     363    2  -0.847600000000    10.019373    -7.728977     9.562592  # Ow
   1089     363    1   0.423800000000     9.960558    -6.874341     9.046707  # Hw
   1090     364    1   0.423800000000   -13.338184     9.289334     2.052462  # Hw
   1091     364    2  -0.847600000000   -12.561070     9.918634     2.043796  # Ow
   1092     364    1   0.423800000000   -11.708703     9.395693     2.042181  # Hw
   1093     365    1   0.423800000000    -1.882309     2.452248     6.690659  # Hw
   1094     365    2  -0.847600000000    -1.502497     1.770515     6.065373  # Ow
   1095     365    1   0.423800000000    -1.162160     0.990106     6.589904  # Hw
   1096     366    1   0.423800000000    -3.508539   -12.766620    11.738384  # Hw
   1097     366    2  -0.847600000000    -2.916264   -13.565262    11.631698  # Ow
   1098     366    1   0.423800000000    -1.965096   -13.266736    11.553198  # Hw
   1099     367    1   0.423800000000     9.931823    -9.574792    -8.691645  # Hw
   1100     367    2  -0.847600000000    10.013263    -8.974242    -9.487074  # Ow
   1101     367    1   0.423800000000     9.459785    -8.153866    -9.343392  # Hw
   1102     368    1   0.423800000000    -8.624116    -5.761981     2.434564  # Hw
   1103     368    2  -0.847600000000    -9.014894    -5.256110     1.665547  # Ow
   1104     368    1   0.423800000000    -8.684723    -5.647757     0.806711  # Hw
   1105     369    1   0.423800000000    -9.228225   -10.138425    -9.845371  # Hw
   1106     369    2  -0.847600000000    -9.088069    -9.872416   -10.799098  # Ow
   1107     369    1   0.423800000000    -9.783770    -9.204976   -11.064661  # Hw
   1108     370    1   0.423800000000    -0.772302    -3.174515     7.251815  # Hw
   1109     370    2  -0.847600000000    -0.519548    -2.206991     7.255319  # Ow
   1110     370    1   0.423800000000    -1.344158    -1.647370     7.338023  # Hw
   1111     371    1   0.423800000000    -9.931482   -12.052044    -7.936761  # Hw
   1112     371    2  -0.847600000000   -10.892647   -11.923034    -7.692799  # Ow
   1113     371    1   0.423800000000   -11.019283   -11.008250    -7.309221  # Hw
   1114     372    1   0.423800000000    -5.235440     4.717132     3.629789  # Hw
   1115     372    2  -0.847600000000    -5.831341     3.918597     3.714907  # Ow
   1116     372    1   0.423800000000    -6.007390     3.735666     4.682141  # Hw
   1117     373    1   0.423800000000     0.528129     2.636284     7.999103  # Hw
   1118     373    2  -0.847600000000     1.446224     2.330879     7.746457  # Ow
   1119     373    1   0.423800000000     1.413355     1.370968     7.468088  # Hw
   1120     374    1   0.423800000000   -11.235080    -8.909700     7.757774  # Hw
   1121     374    2  -0.847600000000   -11.449501    -9.606397     8.442346  # Ow
   1122     374    1   0.423800000000   -11.730370    -9.162341     9.293185  # Hw
   1123     375    1   0.423800000000    13.499001    -3.367610    -0.496267  # Hw
   1124     375    2  -0.847600000000    12.658230    -2.879642    -0.261764  # Ow
   1125     375    1   0.423800000000    12.884047    -2.062000     0.267827  # Hw
   1126     376    1   0.423800000000   -13.506740    -1.620460     8.446595  # Hw
   1127     376    2  -0.847600000000   -12.604608    -2.027041     8.590994  # Ow
   1128     376    1   0.423800000000   -11.951397    -1.310532     8.835799  # Hw
   1129     377    1   0.423800000000    -7.810381     0.626637    -4.328826  # Hw
   1130     377    2  -0.847600000000    -6.946242     1.127651    -4.376255  # Ow
   1131     377    1   0.423800000000    -6.886333     1.606696    -5.251998  # Hw
   1132     378    1   0.423800000000     8.064879    -1.477964     2.126788  # Hw
   1133     378    2  -0.847600000000     8.815131    -1.515919     2.786849  # Ow
   1134     378    1   0.423800000000     9.627774    -1.897295     2.346210  # Hw
   1135     379    1   0.423800000000    -6.222814    10.400734    -4.307817  # Hw
   1136     379    2  -0.847600000000    -6.624622     9.531578    -4.596117  # Ow
   1137     379    1   0.423800000000    -5.988953     8.786830    -4.392952  # Hw
   1138     380    1   0.423800000000     6.044582    12.913782     8.471222  # Hw
   1139     380    2  -0.847600000000     6.507414    12.124463     8.874660  # Ow
   1140     380    1   0.423800000000     7.497238    12.259205     8.828916  # Hw
   1141     381    1   0.423800000000    -5.823519    -1.530550    -9.305411  # Hw
   1142     381    2  -0.847600000000    -6.542562    -1.824034    -9.935367  # Ow
   1143     381    1   0.423800000000    -7.289696    -2.240745    -9.417543  # Hw
   1144     382    1   0.423800000000     3.952066    10.635656    11.531351  # Hw
   1145     382    2  -0.847600000000     3.892614    11.619103    11.360185  # Ow
   1146     382    1   0.423800000000     2.990273    11.838951    10.989447  # Hw
   1147     383    1   0.423800000000     3.928106   -13.296739     5.970788  # Hw
   1148     383    2  -0.847600000000     4.186843   -13.518693     5.030686  # Ow
   1149     383    1   0.423800000000     4.520557   -12.694380     4.573365  # Hw
   1150     384    1   0.423800000000    -7.577603   -12.808708     3.550401  # Hw
   1151     384    2  -0.847600000000    -8.385582   -12.667853     2.978274  # Ow
   1152     384    1   0.423800000000    -8.629053   -13.526923     2.528029  # Hw
   1153     385    1   0.423800000000     9.134440    11.926886   -13.211753  # Hw
   1154     385    2  -0.847600000000     8.815860    12.833079   -13.489817  # Ow
   1155     385    1   0.423800000000     9.554461    13.496797   -13.371718  # Hw
   1156     386    1   0.423800000000    -3.900739    -1.317893     8.395947  # Hw
   1157     386    2  -0.847600000000    -3.749293    -2.301146     8.497325  # Ow
   1158     386    1   0.423800000000    -4.610708    -2.787802     8.351967  # Hw
   1159     387    1   0.423800000000    12.296745    -7.073133    -1.495865  # Hw
   1160     387    2  -0.847600000000    12.937778    -6.399588    -1.863852  # Ow
   1161     387    1   0.423800000000    12.484759    -5.510678    -1.931767  # Hw
   1162     388    1   0.423800000000     5.690708     1.289794     2.260704  # Hw
   1163     388    2  -0.847600000000     5.659437     0.290349     2.272213  # Ow
   1164     388    1   0.423800000000     5.256751    -0.040378     1.418712  # Hw
   1165     389    1   0.423800000000   -11.527230     2.007443     6.064907  # Hw
   1166     389    2  -0.847600000000   -11.305097     1.299798     5.394165  # Ow
   1167     389    1   0.423800000000   -12.019267     0.599843     5.399185  # Hw
   1168     390    1   0.423800000000     4.300906     8.218941    10.267285  # Hw
   1169     390    2  -0.847600000000     5.168401     7.760728    10.460917  # Ow
   1170     390    1   0.423800000000     5.902495     8.206723     9.948866  # Hw
   1171     391    1   0.423800000000   -13.122282   -11.043676    -3.556310  # Hw
   1172     391    2  -0.847600000000   -12.758053   -10.672201    -4.410326  # Ow
   1173     391    1   0.423800000000   -13.500436   -10.258415    -4.937249  # Hw
   1174     392    1   0.423800000000    -1.023379    11.229763    12.580445  # Hw
   1175     392    2  -0.847600000000    -0.544496    10.917338    11.760041  # Ow
   1176     392    1   0.423800000000    -0.727494     9.944633    11.617367  # Hw
   1177     393    1   0.423800000000    -0.342564     2.772957    10.625987  # Hw
   1178     393    2  -0.847600000000     0.517868     3.280975    10.665669  # Ow
   1179     393    1   0.423800000000     0.383444     4.124083    11.186340  # Hw
   1180     394    1   0.423800000000    -9.585844   -13.273868    -3.934986  # Hw
   1181     394    2  -0.847600000000    -9.922716   -12.342501    -4.073091  # Ow
   1182     394    1   0.423800000000   -10.611836   -12.341331    -4.797737  # Hw
   1183     395    1   0.423800000000     3.302337     7.248315     7.897711  # Hw
   1184     395    2  -0.847600000000     3.884086     6.434946     7.897272  # Ow
   1185     395    1   0.423800000000     4.844847     6.712321     7.897111  # Hw
   1186     396    1   0.423800000000    -2.713432    -7.435021   -11.161748  # Hw
   1187     396    2  -0.847600000000    -2.444624    -7.864390   -12.023946  # Ow
   1188     396    1   0.423800000000    -3.117679    -7.644229   -12.730009  # Hw
   1189     397    1   0.423800000000   -10.264526   -12.111576    -1.270992  # Hw
   1190     397    2  -0.847600000000   -10.526662   -12.954238    -0.800667  # Ow
   1191     397    1   0.423800000000   -11.121968   -13.495861    -1.394177  # Hw
   1192     398    1   0.423800000000     8.678021    -2.204733   -13.008212  # Hw
   1193     398    2  -0.847600000000     8.387887    -1.418874   -12.462092  # Ow
   1194     398    1   0.423800000000     7.404151    -1.476218   -12.291870  # Hw
   1195     399    1   0.423800000000   -12.696084    -2.463272    -6.935810  # Hw
   1196     399    2  -0.847600000000   -13.518577    -1.910167    -6.803218  # Ow
   1197     399    1   0.423800000000   -13.347353    -1.221930    -6.098227  # Hw
   1198     400    1   0.423800000000    -3.324913   -10.048256     1.673654  # Hw
   1199     400    2  -0.847600000000    -2.787356    -9.544088     2.349558  # Ow
   1200     400    1   0.423800000000    -2.305145   -10.190226     2.941148  # Hw
   1201     401    1   0.423800000000   -12.774369     7.910849    -0.899232  # Hw
   1202     401    2  -0.847600000000   -13.524598     7.273278    -0.724136  # Ow
   1203     401    1   0.423800000000   -13.317751     6.390981    -1.146943  # Hw
   1204     402    1   0.423800000000    -1.920384     4.952740     5.538123  # Hw
   1205     402    2  -0.847600000000    -2.057238     5.805796     6.041678  # Ow
   1206     402    1   0.423800000000    -1.179907     6.273272     6.150098  # Hw
   1207     403    1   0.423800000000    -6.372581     0.349053    -0.080613  # Hw
   1208     403    2  -0.847600000000    -5.649775     0.496626    -0.755723  # Ow
   1209     403    1   0.423800000000    -5.893932     0.039253    -1.610824  # Hw
   1210     404    1   0.423800000000    -8.434100    -9.971100   -13.466872  # Hw
   1211     404    2  -0.847600000000    -8.105822    -9.054759   -13.237630  # Ow
   1212     404    1   0.423800000000    -8.793278    -8.378506   -13.502365  # Hw
   1213     405    1   0.423800000000    -9.808698     7.838882     3.738079  # Hw
   1214     405    2  -0.847600000000   -10.675617     7.348233     3.825920  # Ow
   1215     405    1   0.423800000000   -10.497344     6.366950     3.898728  # Hw
   1216     406    1   0.423800000000    10.659433    -3.173200     9.982026  # Hw
   1217     406    2  -0.847600000000    11.510673    -3.697940     9.988288  # Ow
   1218     406    1   0.423800000000    11.379597    -4.551780     9.484528  # Hw
   1219     407    1   0.423800000000    11.314057     8.410868    13.550166  # Hw
   1220     407    2  -0.847600000000    10.753797     8.674720    12.764996  # Ow
   1221     407    1   0.423800000000    10.688174     7.905870    12.128943  # Hw
   1222     408    1   0.423800000000    -8.182420    -0.222187   -13.116224  # Hw
   1223     408    2  -0.847600000000    -7.242267    -0.553376   -13.196390  # Ow
   1224     408    1   0.423800000000    -7.249272    -1.506309   -13.499490  # Hw
   1225     409    1   0.423800000000     0.950525    -8.065522    -1.654397  # Hw
   1226     409    2  -0.847600000000     0.358736    -8.870320    -1.700070  # Ow
   1227     409    1   0.423800000000     0.917800    -9.698175    -1.654212  # Hw
   1228     410    1   0.423800000000   -12.293888   -12.793397     7.352966  # Hw
   1229     410    2  -0.847600000000   -11.623166   -12.854782     6.613801  # Ow
   1230     410    1   0.423800000000   -11.701826   -12.050557     6.024705  # Hw
   1231     411    1   0.423800000000    11.372508     2.416704    -3.164546  # Hw
   1232     411    2  -0.847600000000    10.602267     1.898334    -2.793034  # Ow
   1233     411    1   0.423800000000     9.875840     2.529536    -2.521211  # Hw
   1234     412    1   0.423800000000     1.545229     8.722246    -8.498010  # Hw
   1235     412    2  -0.847600000000     2.200873     8.299782    -7.872187  # Ow
   1236     412    1   0.423800000000     2.575387     7.472303    -8.290539  # Hw
   1237     413    1   0.423800000000    -2.392515    -9.377485    -4.232572  # Hw
   1238     413    2  -0.847600000000    -1.558346    -9.273270    -3.690999  # Ow
   1239     413    1   0.423800000000    -0.807429    -9.758701    -4.138749  # Hw
   1240     414    1   0.423800000000     0.208904     7.860200    -2.268213  # Hw
   1241     414    2  -0.847600000000     0.341849     8.728756    -1.790787  # Ow
   1242     414    1   0.423800000000    -0.199559     8.733241    -0.950039  # Hw
   1243     415    1   0.423800000000     8.477443    -8.238319    -6.777916  # Hw
   1244     415    2  -0.847600000000     8.365983    -7.244552    -6.779952  # Ow
   1245     415    1   0.423800000000     9.261413    -6.808906    -6.871703  # Hw
   1246     416    1   0.423800000000   -12.346941     8.775988    -4.161843  # Hw
   1247     416    2  -0.847600000000   -12.409025     9.774001    -4.151111  # Ow
   1248     416    1   0.423800000000   -11.900851    10.131163    -3.367405  # Hw
   1249     417    1   0.423800000000    -8.738637     0.331875     2.264008  # Hw
   1250     417    2  -0.847600000000    -8.288038     1.077854     1.773625  # Ow
   1251     417    1   0.423800000000    -8.852314     1.354072     0.995618  # Hw
   1252     418    1   0.423800000000    -2.592898    -2.555322    -4.852412  # Hw
   1253     418    2  -0.847600000000    -2.111441    -3.428364    -4.774965  # Ow
   1254     418    1   0.423800000000    -2.395086    -4.032622    -5.519556  # Hw
   1255     419    1   0.423800000000     7.158961     5.445203    -3.535348  # Hw
   1256     419    2  -0.847600000000     6.537489     6.227622    -3.495421  # Ow
   1257     419    1   0.423800000000     6.664762     6.710506    -2.629035  # Hw
   1258     420    1   0.423800000000   -13.175976     8.380991     4.645424  # Hw
   1259     420    2  -0.847600000000   -12.795592     7.954282     5.465928  # Ow
   1260     420    1   0.423800000000   -13.500441     7.905612     6.173613  # Hw
   1261     421    1   0.423800000000     2.146757    -1.378547    -8.771544  # Hw
   1262     421    2  -0.847600000000     2.316677    -0.399145    -8.662460  # Ow
   1263     421    1   0.423800000000     1.479640     0.108995    -8.865344  # Hw
   1264     422    1   0.423800000000     2.937689    -4.941956    -1.465393  # Hw
   1265     422    2  -0.847600000000     3.628864    -5.617207    -1.722903  # Ow
   1266     422    1   0.423800000000     3.260068    -6.537665    -1.593493  # Hw
   1267     423    1   0.423800000000    12.874991    11.550191    -4.216810  # Hw
   1268     423    2  -0.847600000000    13.254109    12.432798    -4.494793  # Ow
   1269     423    1   0.423800000000    13.500352    12.960680    -3.681956  # Hw
   1270     424    1   0.423800000000     1.070082    -5.731708     3.318117  # Hw
   1271     424    2  -0.847600000000     1.613956    -4.901346     3.439364  # Ow
   1272     424    1   0.423800000000     1.309880    -4.205732     2.788474  # Hw
   1273     425    1   0.423800000000    -5.816020     3.015227     9.028726  # Hw
   1274     425    2  -0.847600000000    -6.034042     3.704457     9.719688  # Ow
   1275     425    1   0.423800000000    -6.690506     3.326133    10.372317  # Hw
   1276     426    1   0.423800000000    -0.907720    -0.186188     1.837953  # Hw
   1277     426    2  -0.847600000000    -0.771386    -1.157050     1.640873  # Ow
   1278     426    1   0.423800000000    -0.141405    -1.548104     2.311843  # Hw
   1279     427    1   0.423800000000     0.600311    -7.863352   -12.494660  # Hw
   1280     427    2  -0.847600000000    -0.008079    -7.826259   -13.287431  # Ow
   1281     427    1   0.423800000000    -0.316019    -8.750102   -13.514778  # Hw
   1282     428    1   0.423800000000     2.662865     0.040181    -3.795585  # Hw
   1283     428    2  -0.847600000000     2.754503     0.931172    -3.350908  # Ow
   1284     428    1   0.423800000000     1.943673     1.110625    -2.793816  # Hw
   1285     429    1   0.423800000000    -5.880288   -10.707922   -12.763772  # Hw
   1286     429    2  -0.847600000000    -5.443357   -10.192226   -13.500759  # Ow
   1287     429    1   0.423800000000    -4.507171    -9.960882   -13.236116  # Hw
   1288     430    1   0.423800000000    -9.488236    -4.567445     7.187570  # Hw
   1289     430    2  -0.847600000000    -9.828404    -4.370626     6.268033  # Ow
   1290     430    1   0.423800000000    -9.597928    -5.128759     5.658022  # Hw
   1291     431    1   0.423800000000    12.432312   -12.809418     7.302854  # Hw
   1292     431    2  -0.847600000000    13.124691   -12.110343     7.124232  # Ow
   1293     431    1   0.423800000000    13.050652   -11.385276     7.808919  # Hw
   1294     432    1   0.423800000000    -7.356701     6.616819    -1.660976  # Hw
   1295     432    2  -0.847600000000    -7.337921     6.052454    -0.835664  # Ow
   1296     432    1   0.423800000000    -7.017123     6.601329    -0.063768  # Hw
   1297     433    1   0.423800000000     0.321509     5.560467     8.354624  # Hw
   1298     433    2  -0.847600000000     1.233453     5.656986     8.753425  # Ow
   1299     433    1   0.423800000000     1.182613     6.239852     9.564402  # Hw
   1300     434    1   0.423800000000   -11.783523     2.221686   -12.841899  # Hw
   1301     434    2  -0.847600000000   -11.849067     1.289147   -13.196969  # Ow
   1302     434    1   0.423800000000   -12.000025     0.653932   -12.439530  # Hw
   1303     435    1   0.423800000000    12.403798    -9.262179    12.597481  # Hw
   1304     435    2  -0.847600000000    11.827914   -10.079164    12.627380  # Ow
   1305     435    1   0.423800000000    10.897802    -9.841773    12.347138  # Hw
   1306     436    1   0.423800000000    -5.273027    -7.758632     1.808935  # Hw
   1307     436    2  -0.847600000000    -6.067377    -7.914724     1.221871  # Ow
   1308     436    1   0.423800000000    -6.293133    -8.888902     1.218596  # Hw
   1309     437    1   0.423800000000     5.460797    11.056497    -7.995552  # Hw
   1310     437    2  -0.847600000000     4.861299    10.391370    -8.440757  # Ow
   1311     437    1   0.423800000000     3.920467    10.531812    -8.132357  # Hw
   1312     438    1   0.423800000000    12.672945     0.188443     1.969260  # Hw
   1313     438    2  -0.847600000000    11.707440    -0.071868     1.975479  # Ow
   1314     438    1   0.423800000000    11.145245     0.737009     2.147683  # Hw
   1315     439    1   0.423800000000     5.084357    -6.756206    -3.990482  # Hw
   1316     439    2  -0.847600000000     5.669290    -7.251272    -4.632948  # Ow
   1317     439    1   0.423800000000     6.359615    -6.629290    -5.002526  # Hw
   1318     440    1   0.423800000000    -5.909553     3.698571    -3.519491  # Hw
   1319     440    2  -0.847600000000    -5.119484     3.453360    -2.957654  # Ow
   1320     440    1   0.423800000000    -5.049948     2.457641    -2.896758  # Hw
   1321     441    1   0.423800000000     9.645004     5.060582    -1.473485  # Hw
   1322     441    2  -0.847600000000     9.067600     5.873243    -1.552143  # Ow
   1323     441    1   0.423800000000     9.641778     6.691950    -1.545971  # Hw
   1324     442    1   0.423800000000   -12.505549     0.966152    -9.148726  # Hw
   1325     442    2  -0.847600000000   -12.059213     1.810244    -8.851584  # Ow
   1326     442    1   0.423800000000   -11.304809     2.024614    -9.472003  # Hw
   1327     443    1   0.423800000000    12.044939    -9.396790    -4.526650  # Hw
   1328     443    2  -0.847600000000    12.207370    -9.259112    -5.503718  # Ow
   1329     443    1   0.423800000000    11.332673    -9.139643    -5.973433  # Hw
   1330     444    1   0.423800000000     7.677140     7.379385     2.984242  # Hw
   1331     444    2  -0.847600000000     8.589451     7.574219     3.344419  # Ow
   1332     444    1   0.423800000000     9.100196     6.719640     3.438417  # Hw
   1333     445    1   0.423800000000     7.922971    -7.305012   -11.585887  # Hw
   1334     445    2  -0.847600000000     7.701098    -8.212657   -11.942191  # Ow
   1335     445    1   0.423800000000     8.530106    -8.641744   -12.300841  # Hw
   1336     446    1   0.423800000000    -0.651613   -12.296549     3.569115  # Hw
   1337     446    2  -0.847600000000    -1.232442   -12.850966     2.973079  # Ow
   1338     446    1   0.423800000000    -0.665568   -13.498383     2.463663  # Hw
   1339     447    1   0.423800000000    -4.981238    10.628767     8.335585  # Hw
   1340     447    2  -0.847600000000    -5.591793    10.500170     9.117049  # Ow
   1341     447    1   0.423800000000    -6.157183    11.316351     9.236146  # Hw
   1342     448    1   0.423800000000     1.962770    -4.329222   -10.840795  # Hw
   1343     448    2  -0.847600000000     1.451606    -4.431931   -11.694119  # Ow
   1344     448    1   0.423800000000     1.612055    -5.344174   -12.071037  # Hw
   1345     449    1   0.423800000000   -12.974771     4.744313    -8.136332  # Hw
   1346     449    2  -0.847600000000   -13.500040     4.729314    -7.285528  # Ow
   1347     449    1   0.423800000000   -13.284419     3.896728    -6.775324  # Hw
   1348     450    1   0.423800000000     5.954854    -6.200094    13.241730  # Hw
   1349     450    2  -0.847600000000     5.347229    -6.956291    13.484543  # Ow
   1350     450    1   0.423800000000     4.411121    -6.616150    13.574012  # Hw
   1351     451    1   0.423800000000    -5.125148    11.843890     0.875519  # Hw
   1352     451    2  -0.847600000000    -5.424234    12.797609     0.906628  # Ow
   1353     451    1   0.423800000000    -6.423439    12.834257     0.890962  # Hw
   1354     452    1   0.423800000000    -7.333276    -4.984223    -1.624254  # Hw
   1355     452    2  -0.847600000000    -7.592006    -5.098678    -2.583399  # Ow
   1356     452    1   0.423800000000    -6.911980    -4.655210    -3.167266  # Hw
   1357     453    1   0.423800000000    -8.847991    11.969519     8.924130  # Hw
   1358     453    2  -0.847600000000    -9.392011    11.131225     8.887991  # Ow
   1359     453    1   0.423800000000    -8.783978    10.337813     8.916168  # Hw
   1360     454    1   0.423800000000     9.626426    13.102368    12.760026  # Hw
   1361     454    2  -0.847600000000     9.055671    12.490522    12.212410  # Ow
   1362     454    1   0.423800000000     9.252099    12.631046    11.242014  # Hw
   1363     455    1   0.423800000000    -0.814976    10.880677    -6.390754  # Hw
   1364     455    2  -0.847600000000    -0.861658    11.516007    -5.619926  # Ow
   1365     455    1   0.423800000000    -0.059662    12.113230    -5.631189  # Hw
   1366     456    1   0.423800000000    -8.242950    -9.927216     2.856783  # Hw
   1367     456    2  -0.847600000000    -8.826595    -9.626597     2.102471  # Ow
   1368     456    1   0.423800000000    -9.210361   -10.425400     1.639182  # Hw
   1369     457    1   0.423800000000    -1.779419    11.002537    -0.739866  # Hw
   1370     457    2  -0.847600000000    -2.695598    10.963510    -0.341001  # Ow
   1371     457    1   0.423800000000    -2.813358    10.094243     0.139110  # Hw
   1372     458    1   0.423800000000     6.282405   -13.028331    13.001285  # Hw
   1373     458    2  -0.847600000000     6.463483   -12.105935    13.342455  # Ow
   1374     458    1   0.423800000000     5.597313   -11.651233    13.549805  # Hw
   1375     459    1   0.423800000000    -6.665581     9.154655    12.858327  # Hw
   1376     459    2  -0.847600000000    -5.909240     8.524760    12.681745  # Ow
   1377     459    1   0.423800000000    -5.118389     9.038466    12.349089  # Hw
   1378     460    1   0.423800000000     7.680062    -3.695274   -10.691342  # Hw
   1379     460    2  -0.847600000000     8.661353    -3.883391   -10.650357  # Ow
   1380     460    1   0.423800000000     8.855599    -4.744383   -11.120422  # Hw
   1381     461    1   0.423800000000   -13.503500    -6.796458    -7.859249  # Hw
   1382     461    2  -0.847600000000   -13.479480    -6.669649    -6.867612  # Ow
   1383     461    1   0.423800000000   -13.499755    -5.692517    -6.655951  # Hw
   1384     462    1   0.423800000000    -3.765793     6.049320    12.247118  # Hw
   1385     462    2  -0.847600000000    -4.325104     5.535335    12.897495  # Ow
   1386     462    1   0.423800000000    -4.780838     6.171087    13.520492  # Hw
   1387     463    1   0.423800000000     0.465450    12.645561    -0.029785  # Hw
   1388     463    2  -0.847600000000     1.435180    12.401567    -0.039314  # Ow
   1389     463    1   0.423800000000     1.528851    11.406505    -0.006489  # Hw
   1390     464    1   0.423800000000     1.014488    -5.880692     6.055947  # Hw
   1391     464    2  -0.847600000000     0.369914    -5.825949     6.818526  # Ow
   1392     464    1   0.423800000000     0.093569    -6.748382     7.088249  # Hw
   1393     465    1   0.423800000000    10.193191     4.661968    -4.226655  # Hw
   1394     465    2  -0.847600000000     9.719270     4.809792    -5.094726  # Ow
   1395     465    1   0.423800000000    10.329231     5.281661    -5.731348  # Hw
   1396     466    1   0.423800000000   -11.874888    11.640436   -12.936929  # Hw
   1397     466    2  -0.847600000000   -11.748201    12.303596   -12.199251  # Ow
   1398     466    1   0.423800000000   -11.026689    11.984713   -11.584650  # Hw
   1399     467    1   0.423800000000     2.417676     1.381843    11.210984  # Hw
   1400     467    2  -0.847600000000     3.076593     1.171262    10.488846  # Ow
   1401     467    1   0.423800000000     3.996188     1.127158    10.879230  # Hw
   1402     468    1   0.423800000000   -13.078354     1.423170    -5.413943  # Hw
   1403     468    2  -0.847600000000   -12.397067     1.372623    -6.144212  # Ow
   1404     468    1   0.423800000000   -11.522749     1.723886    -5.809277  # Hw
   1405     469    1   0.423800000000    -6.613660     6.017122   -12.806519  # Hw
   1406     469    2  -0.847600000000    -7.403712     5.492564   -13.123783  # Ow
   1407     469    1   0.423800000000    -7.094594     4.619122   -13.500006  # Hw
   1408     470    1   0.423800000000    -4.308975     3.726705     6.842803  # Hw
   1409     470    2  -0.847600000000    -4.433533     4.621880     7.270761  # Ow
   1410     470    1   0.423800000000    -4.702020     5.289049     6.575923  # Hw
   1411     471    1   0.423800000000     1.792447     7.032453     4.272379  # Hw
   1412     471    2  -0.847600000000     1.397102     7.772062     4.817063  # Ow
   1413     471    1   0.423800000000     1.458649     8.630558     4.307949  # Hw
   1414     472    1   0.423800000000     2.708553    -5.873065     1.112812  # Hw
   1415     472    2  -0.847600000000     3.445799    -5.273478     1.424201  # Ow
   1416     472    1   0.423800000000     3.923107    -5.702686     2.190985  # Hw
   1417     473    1   0.423800000000     3.070479    -3.294065     5.173605  # Hw
   1418     473    2  -0.847600000000     2.284851    -2.703920     4.987818  # Ow
   1419     473    1   0.423800000000     1.481365    -3.058124     5.466305  # Hw
   1420     474    1   0.423800000000     1.457256    -2.072309    12.380497  # Hw
   1421     474    2  -0.847600000000     1.268694    -1.095169    12.478685  # Ow
   1422     474    1   0.423800000000     0.283962    -0.954371    12.581053  # Hw
   1423     475    1   0.423800000000   -11.830458   -11.592325   -12.716301  # Hw
   1424     475    2  -0.847600000000   -10.945881   -11.458456   -13.163071  # Ow
   1425     475    1   0.423800000000   -10.225190   -11.870745   -12.605736  # Hw
   1426     476    1   0.423800000000    10.731288     7.798511     1.460615  # Hw
   1427     476    2  -0.847600000000    10.827797     8.791979     1.521499  # Ow
   1428     476    1   0.423800000000     9.921761     9.212693     1.567291  # Hw
   1429     477    1   0.423800000000     7.831616    13.508548   -10.599229  # Hw
   1430     477    2  -0.847600000000     6.848702    13.353171   -10.500540  # Ow
   1431     477    1   0.423800000000     6.594732    13.427128    -9.536160  # Hw
   1432     478    1   0.423800000000     8.867776    -1.943518     6.324867  # Hw
   1433     478    2  -0.847600000000     9.789395    -1.559695     6.382297  # Ow
   1434     478    1   0.423800000000    10.460415    -2.301071     6.372648  # Hw
   1435     479    1   0.423800000000     8.992068     4.956725     1.226092  # Hw
   1436     479    2  -0.847600000000     8.207761     4.688316     1.785394  # Ow
   1437     479    1   0.423800000000     8.252245     3.707043     1.972806  # Hw
   1438     480    1   0.423800000000    -2.304798    -5.899550    -7.655717  # Hw
   1439     480    2  -0.847600000000    -3.067788    -6.443759    -8.004548  # Ow
   1440     480    1   0.423800000000    -3.378318    -6.062672    -8.875378  # Hw
   1441     481    1   0.423800000000    11.479306    11.210651    11.997353  # Hw
   1442     481    2  -0.847600000000    12.131321    11.494884    11.294438  # Ow
   1443     481    1   0.423800000000    12.750585    10.737241    11.088309  # Hw
   1444     482    1   0.423800000000    11.481114    10.733980     8.650049  # Hw
   1445     482    2  -0.847600000000    10.546571    10.940048     8.940161  # Ow
   1446     482    1   0.423800000000    10.063398    11.408035     8.200208  # Hw
   1447     483    1   0.423800000000     0.947223     4.732684    -4.832393  # Hw
   1448     483    2  -0.847600000000     0.078278     4.540160    -5.288320  # Ow
   1449     483    1   0.423800000000    -0.416192     3.835510    -4.779431  # Hw
   1450     484    1   0.423800000000    -6.981383     4.739584    12.710706  # Hw
   1451     484    2  -0.847600000000    -7.366274     5.658277    12.622041  # Ow
   1452     484    1   0.423800000000    -7.693861     5.969928    13.513983  # Hw
   1453     485    1   0.423800000000    -9.060992    -2.008377     3.672094  # Hw
   1454     485    2  -0.847600000000    -9.051104    -3.008270     3.682832  # Ow
   1455     485    1   0.423800000000    -8.107952    -3.333050     3.612245  # Hw
   1456     486    1   0.423800000000    -5.146875    -0.699955    -6.573057  # Hw
   1457     486    2  -0.847600000000    -4.277645    -1.158826    -6.757114  # Ow
   1458     486    1   0.423800000000    -4.433337    -2.142062    -6.852012  # Hw
   1459     487    1   0.423800000000     3.507676     3.414950    13.500387  # Hw
   1460     487    2  -0.847600000000     4.304013     3.147580    12.957837  # Ow
   1461     487    1   0.423800000000     4.890861     2.546949    13.500839  # Hw
   1462     488    1   0.423800000000    11.090670    -7.816240   -11.735318  # Hw
   1463     488    2  -0.847600000000    10.641605    -6.930829   -11.615360  # Ow
   1464     488    1   0.423800000000    11.037467    -6.460461   -10.826661  # Hw
   1465     489    1   0.423800000000     8.611475     7.287029    -6.978613  # Hw
   1466     489    2  -0.847600000000     7.851463     6.697148    -6.705808  # Ow
   1467     489    1   0.423800000000     7.328473     7.142127    -5.978846  # Hw
   1468     490    1   0.423800000000     4.270385    -5.776835    10.959044  # Hw
   1469     490    2  -0.847600000000     3.528112    -6.446547    10.981762  # Ow
   1470     490    1   0.423800000000     3.912258    -7.369798    10.988009  # Hw
   1471     491    1   0.423800000000    12.882071    -3.420877   -11.929337  # Hw
   1472     491    2  -0.847600000000    13.394548    -3.254230   -11.086961  # Ow
   1473     491    1   0.423800000000    13.224054    -3.997838   -10.440448  # Hw
   1474     492    1   0.423800000000     3.454180     4.998705     0.207543  # Hw
   1475     492    2  -0.847600000000     2.893766     4.883427     1.027694  # Ow
   1476     492    1   0.423800000000     1.973906     4.592450     0.764653  # Hw
   1477     493    1   0.423800000000    -3.343724     1.930210   -10.390873  # Hw
   1478     493    2  -0.847600000000    -3.587988     0.960514   -10.395886  # Ow
   1479     493    1   0.423800000000    -2.755224     0.406965   -10.386599  # Hw
   1480     494    1   0.423800000000     1.735332   -10.570094   -13.500097  # Hw
   1481     494    2  -0.847600000000     2.066421   -11.316934   -12.923374  # Ow
   1482     494    1   0.423800000000     2.412294   -12.056145   -13.501248  # Hw
   1483     495    1   0.423800000000    -9.812451    -5.057424   -13.387758  # Hw
   1484     495    2  -0.847600000000   -10.636084    -4.830690   -12.867931  # Ow
   1485     495    1   0.423800000000   -11.381428    -4.618880   -13.500068  # Hw
   1486     496    1   0.423800000000    -3.023340     1.342119     3.762757  # Hw
   1487     496    2  -0.847600000000    -3.750630     2.021373     3.861057  # Ow
   1488     496    1   0.423800000000    -3.406518     2.805864     4.376966  # Hw
   1489     497    1   0.423800000000     7.796974   -10.490984     4.067387  # Hw
   1490     497    2  -0.847600000000     8.060599   -11.038850     4.861330  # Ow
   1491     497    1   0.423800000000     8.550022   -11.855389     4.555181  # Hw
   1492     498    1   0.423800000000    -4.217319     9.487830     5.953018  # Hw
   1493     498    2  -0.847600000000    -3.368628     8.983547     6.112459  # Ow
   1494     498    1   0.423800000000    -3.584251     8.059524     6.428192  # Hw
   1495     499    1   0.423800000000    -5.622445    -8.258871    -7.852622  # Hw
   1496     499    2  -0.847600000000    -6.050494    -8.641942    -7.034068  # Ow
   1497     499    1   0.423800000000    -5.523702    -8.375764    -6.226827  # Hw
   1498     500    1   0.423800000000    -5.789086    -5.067607   -11.561293  # Hw
   1499     500    2  -0.847600000000    -4.886227    -4.639891   -11.517647  # Ow
   1500     500    1   0.423800000000    -4.206853    -5.253643   -11.919840  # Hw

Bonds

      1    1       1       2  # Hw-Ow
      2    1       2       3  # Ow-Hw
      3    1       4       5  # Hw-Ow
      4    1       5       6  # Ow-Hw
      5    1       7       8  # Hw-Ow
      6    1       8       9  # Ow-Hw
      7    1      10      11  # Hw-Ow
      8    1      11      12  # Ow-Hw
      9    1      13      14  # Hw-Ow
     10    1      14      15  # Ow-Hw
     11    1      16      17  # Hw-Ow
     12    1      17      18  # Ow-Hw
     13    1      19      20  # Hw-Ow
     14    1      20      21  # Ow-Hw
     15    1      22      23  # Hw-Ow
     16    1      23      24  # Ow-Hw
     17    1      25      26  # Hw-Ow
     18    1      26      27  # Ow-Hw
     19    1      28      29  # Hw-Ow
     20    1      29      30  # Ow-Hw
     21    1      31      32  # Hw-Ow
     22    1      32      33  # Ow-Hw
     23    1      34      35  # Hw-Ow
     24    1      35      36  # Ow-Hw
     25    1      37      38  # Hw-Ow
     26    1      38      39  # Ow-Hw
     27    1      40      41  # Hw-Ow
     28    1      41      42  # Ow-Hw
     29    1      43      44  # Hw-Ow
     30    1      44      45  # Ow-Hw
     31    1      46      47  # Hw-Ow
     32    1      47      48  # Ow-Hw
     33    1      49      50  # Hw-Ow
     34    1      50      51  # Ow-Hw
     35    1      52      53  # Hw-Ow
     36    1      53      54  # Ow-Hw
     37    1      55      56  # Hw-Ow
     38    1      56      57  # Ow-Hw
     39    1      58      59  # Hw-Ow
     40    1      59      60  # Ow-Hw
     41    1      61      62  # Hw-Ow
     42    1      62      63  # Ow-Hw
     43    1      64      65  # Hw-Ow
     44    1      65      66  # Ow-Hw
     45    1      67      68  # Hw-Ow
     46    1      68      69  # Ow-Hw
     47    1      70      71  # Hw-Ow
     48    1      71      72  # Ow-Hw
     49    1      73      74  # Hw-Ow
     50    1      74      75  # Ow-Hw
     51    1      76      77  # Hw-Ow
     52    1      77      78  # Ow-Hw
     53    1      79      80  # Hw-Ow
     54    1      80      81  # Ow-Hw
     55    1      82      83  # Hw-Ow
     56    1      83      84  # Ow-Hw
     57    1      85      86  # Hw-Ow
     58    1      86      87  # Ow-Hw
     59    1      88      89  # Hw-Ow
     60    1      89      90  # Ow-Hw
     61    1      91      92  # Hw-Ow
     62    1      92      93  # Ow-Hw
     63    1      94      95  # Hw-Ow
     64    1      95      96  # Ow-Hw
     65    1      97      98  # Hw-Ow
     66    1      98      99  # Ow-Hw
     67    1     100     101  # Hw-Ow
     68    1     101     102  # Ow-Hw
     69    1     103     104  # Hw-Ow
     70    1     104     105  # Ow-Hw
     71    1     106     107  # Hw-Ow
     72    1     107     108  # Ow-Hw
     73    1     109     110  # Hw-Ow
     74    1     110     111  # Ow-Hw
     75    1     112     113  # Hw-Ow
     76    1     113     114  # Ow-Hw
     77    1     115     116  # Hw-Ow
     78    1     116     117  # Ow-Hw
     79    1     118     119  # Hw-Ow
     80    1     119     120  # Ow-Hw
     81    1     121     122  # Hw-Ow
     82    1     122     123  # Ow-Hw
     83    1     124     125  # Hw-Ow
     84    1     125     126  # Ow-Hw
     85    1     127     128  # Hw-Ow
     86    1     128     129  # Ow-Hw
     87    1     130     131  # Hw-Ow
     88    1     131     132  # Ow-Hw
     89    1     133     134  # Hw-Ow
     90    1     134     135  # Ow-Hw
     91    1     136     137  # Hw-Ow
     92    1     137     138  # Ow-Hw
     93    1     139     140  # Hw-Ow
     94    1     140     141  # Ow-Hw
     95    1     142     143  # Hw-Ow
     96    1     143     144  # Ow-Hw
     97    1     145     146  # Hw-Ow
     98    1     146     147  # Ow-Hw
     99    1     148     149  # Hw-Ow
    100    1     149     150  # Ow-Hw
    101    1     151     152  # Hw-Ow
    102    1     152     153  # Ow-Hw
    103    1     154     155  # Hw-Ow
    104    1     155     156  # Ow-Hw
    105    1     157     158  # Hw-Ow
    106    1     158     159  # Ow-Hw
    107    1     160     161  # Hw-Ow
    108    1     161     162  # Ow-Hw
    109    1     163     164  # Hw-Ow
    110    1     164     165  # Ow-Hw
    111    1     166     167  # Hw-Ow
    112    1     167     168  # Ow-Hw
    113    1     169     170  # Hw-Ow
    114    1     170     171  # Ow-Hw
    115    1     172     173  # Hw-Ow
    116    1     173     174  # Ow-Hw
    117    1     175     176  # Hw-Ow
    118    1     176     177  # Ow-Hw
    119    1     178     179  # Hw-Ow
    120    1     179     180  # Ow-Hw
    121    1     181     182  # Hw-Ow
    122    1     182     183  # Ow-Hw
    123    1     184     185  # Hw-Ow
    124    1     185     186  # Ow-Hw
    125    1     187     188  # Hw-Ow
    126    1     188     189  # Ow-Hw
    127    1     190     191  # Hw-Ow
    128    1     191     192  # Ow-Hw
    129    1     193     194  # Hw-Ow
    130    1     194     195  # Ow-Hw
    131    1     196     197  # Hw-Ow
    132    1     197     198  # Ow-Hw
    133    1     199     200  # Hw-Ow
    134    1     200     201  # Ow-Hw
    135    1     202     203  # Hw-Ow
    136    1     203     204  # Ow-Hw
    137    1     205     206  # Hw-Ow
    138    1     206     207  # Ow-Hw
    139    1     208     209  # Hw-Ow
    140    1     209     210  # Ow-Hw
    141    1     211     212  # Hw-Ow
    142    1     212     213  # Ow-Hw
    143    1     214     215  # Hw-Ow
    144    1     215     216  # Ow-Hw
    145    1     217     218  # Hw-Ow
    146    1     218     219  # Ow-Hw
    147    1     220     221  # Hw-Ow
    148    1     221     222  # Ow-Hw
    149    1     223     224  # Hw-Ow
    150    1     224     225  # Ow-Hw
    151    1     226     227  # Hw-Ow
    152    1     227     228  # Ow-Hw
    153    1     229     230  # Hw-Ow
    154    1     230     231  # Ow-Hw
    155    1     232     233  # Hw-Ow
    156    1     233     234  # Ow-Hw
    157    1     235     236  # Hw-Ow
    158    1     236     237  # Ow-Hw
    159    1     238     239  # Hw-Ow
    160    1     239     240  # Ow-Hw
    161    1     241     242  # Hw-Ow
    162    1     242     243  # Ow-Hw
    163    1     244     245  # Hw-Ow
    164    1     245     246  # Ow-Hw
    165    1     247     248  # Hw-Ow
    166    1     248     249  # Ow-Hw
    167    1     250     251  # Hw-Ow
    168    1     251     252  # Ow-Hw
    169    1     253     254  # Hw-Ow
    170    1     254     255  # Ow-Hw
    171    1     256     257  # Hw-Ow
    172    1     257     258  # Ow-Hw
    173    1     259     260  # Hw-Ow
    174    1     260     261  # Ow-Hw
    175    1     262     263  # Hw-Ow
    176    1     263     264  # Ow-Hw
    177    1     265     266  # Hw-Ow
    178    1     266     267  # Ow-Hw
    179    1     268     269  # Hw-Ow
    180    1     269     270  # Ow-Hw
    181    1     271     272  # Hw-Ow
    182    1     272     273  # Ow-Hw
    183    1     274     275  # Hw-Ow
    184    1     275     276  # Ow-Hw
    185    1     277     278  # Hw-Ow
    186    1     278     279  # Ow-Hw
    187    1     280     281  # Hw-Ow
    188    1     281     282  # Ow-Hw
    189    1     283     284  # Hw-Ow
    190    1     284     285  # Ow-Hw
    191    1     286     287  # Hw-Ow
    192    1     287     288  # Ow-Hw
    193    1     289     290  # Hw-Ow
    194    1     290     291  # Ow-Hw
    195    1     292     293  # Hw-Ow
    196    1     293     294  # Ow-Hw
    197    1     295     296  # Hw-Ow
    198    1     296     297  # Ow-Hw
    199    1     298     299  # Hw-Ow
    200    1     299     300  # Ow-Hw
    201    1     301     302  # Hw-Ow
    202    1     302     303  # Ow-Hw
    203    1     304     305  # Hw-Ow
    204    1     305     306  # Ow-Hw
    205    1     307     308  # Hw-Ow
    206    1     308     309  # Ow-Hw
    207    1     310     311  # Hw-Ow
    208    1     311     312  # Ow-Hw
    209    1     313     314  # Hw-Ow
    210    1     314     315  # Ow-Hw
    211    1     316     317  # Hw-Ow
    212    1     317     318  # Ow-Hw
    213    1     319     320  # Hw-Ow
    214    1     320     321  # Ow-Hw
    215    1     322     323  # Hw-Ow
    216    1     323     324  # Ow-Hw
    217    1     325     326  # Hw-Ow
    218    1     326     327  # Ow-Hw
    219    1     328     329  # Hw-Ow
    220    1     329     330  # Ow-Hw
    221    1     331     332  # Hw-Ow
    222    1     332     333  # Ow-Hw
    223    1     334     335  # Hw-Ow
    224    1     335     336  # Ow-Hw
    225    1     337     338  # Hw-Ow
    226    1     338     339  # Ow-Hw
    227    1     340     341  # Hw-Ow
    228    1     341     342  # Ow-Hw
    229    1     343     344  # Hw-Ow
    230    1     344     345  # Ow-Hw
    231    1     346     347  # Hw-Ow
    232    1     347     348  # Ow-Hw
    233    1     349     350  # Hw-Ow
    234    1     350     351  # Ow-Hw
    235    1     352     353  # Hw-Ow
    236    1     353     354  # Ow-Hw
    237    1     355     356  # Hw-Ow
    238    1     356     357  # Ow-Hw
    239    1     358     359  # Hw-Ow
    240    1     359     360  # Ow-Hw
    241    1     361     362  # Hw-Ow
    242    1     362     363  # Ow-Hw
    243    1     364     365  # Hw-Ow
    244    1     365     366  # Ow-Hw
    245    1     367     368  # Hw-Ow
    246    1     368     369  # Ow-Hw
    247    1     370     371  # Hw-Ow
    248    1     371     372  # Ow-Hw
    249    1     373     374  # Hw-Ow
    250    1     374     375  # Ow-Hw
    251    1     376     377  # Hw-Ow
    252    1     377     378  # Ow-Hw
    253    1     379     380  # Hw-Ow
    254    1     380     381  # Ow-Hw
    255    1     382     383  # Hw-Ow
    256    1     383     384  # Ow-Hw
    257    1     385     386  # Hw-Ow
    258    1     386     387  # Ow-Hw
    259    1     388     389  # Hw-Ow
    260    1     389     390  # Ow-Hw
    261    1     391     392  # Hw-Ow
    262    1     392     393  # Ow-Hw
    263    1     394     395  # Hw-Ow
    264    1     395     396  # Ow-Hw
    265    1     397     398  # Hw-Ow
    266    1     398     399  # Ow-Hw
    267    1     400     401  # Hw-Ow
    268    1     401     402  # Ow-Hw
    269    1     403     404  # Hw-Ow
    270    1     404     405  # Ow-Hw
    271    1     406     407  # Hw-Ow
    272    1     407     408  # Ow-Hw
    273    1     409     410  # Hw-Ow
    274    1     410     411  # Ow-Hw
    275    1     412     413  # Hw-Ow
    276    1     413     414  # Ow-Hw
    277    1     415     416  # Hw-Ow
    278    1     416     417  # Ow-Hw
    279    1     418     419  # Hw-Ow
    280    1     419     420  # Ow-Hw
    281    1     421     422  # Hw-Ow
    282    1     422     423  # Ow-Hw
    283    1     424     425  # Hw-Ow
    284    1     425     426  # Ow-Hw
    285    1     427     428  # Hw-Ow
    286    1     428     429  # Ow-Hw
    287    1     430     431  # Hw-Ow
    288    1     431     432  # Ow-Hw
    289    1     433     434  # Hw-Ow
    290    1     434     435  # Ow-Hw
    291    1     436     437  # Hw-Ow
    292    1     437     438  # Ow-Hw
    293    1     439     440  # Hw-Ow
    294    1     440     441  # Ow-Hw
    295    1     442     443  # Hw-Ow
    296    1     443     444  # Ow-Hw
    297    1     445     446  # Hw-Ow
    298    1     446     447  # Ow-Hw
    299    1     448     449  # Hw-Ow
    300    1     449     450  # Ow-Hw
    301    1     451     452  # Hw-Ow
    302    1     452     453  # Ow-Hw
    303    1     454     455  # Hw-Ow
    304    1     455     456  # Ow-Hw
    305    1     457     458  # Hw-Ow
    306    1     458     459  # Ow-Hw
    307    1     460     461  # Hw-Ow
    308    1     461     462  # Ow-Hw
    309    1     463     464  # Hw-Ow
    310    1     464     465  # Ow-Hw
    311    1     466     467  # Hw-Ow
    312    1     467     468  # Ow-Hw
    313    1     469     470  # Hw-Ow
    314    1     470     471  # Ow-Hw
    315    1     472     473  # Hw-Ow
    316    1     473     474  # Ow-Hw
    317    1     475     476  # Hw-Ow
    318    1     476     477  # Ow-Hw
    319    1     478     479  # Hw-Ow
    320    1     479     480  # Ow-Hw
    321    1     481     482  # Hw-Ow
    322    1     482     483  # Ow-Hw
    323    1     484     485  # Hw-Ow
    324    1     485     486  # Ow-Hw
    325    1     487     488  # Hw-Ow
    326    1     488     489  # Ow-Hw
    327    1     490     491  # Hw-Ow
    328    1     491     492  # Ow-Hw
    329    1     493     494  # Hw-Ow
    330    1     494     495  # Ow-Hw
    331    1     496     497  # Hw-Ow
    332    1     497     498  # Ow-Hw
    333    1     499     500  # Hw-Ow
    334    1     500     501  # Ow-Hw
    335    1     502     503  # Hw-Ow
    336    1     503     504  # Ow-Hw
    337    1     505     506  # Hw-Ow
    338    1     506     507  # Ow-Hw
    339    1     508     509  # Hw-Ow
    340    1     509     510  # Ow-Hw
    341    1     511     512  # Hw-Ow
    342    1     512     513  # Ow-Hw
    343    1     514     515  # Hw-Ow
    344    1     515     516  # Ow-Hw
    345    1     517     518  # Hw-Ow
    346    1     518     519  # Ow-Hw
    347    1     520     521  # Hw-Ow
    348    1     521     522  # Ow-Hw
    349    1     523     524  # Hw-Ow
    350    1     524     525  # Ow-Hw
    351    1     526     527  # Hw-Ow
    352    1     527     528  # Ow-Hw
    353    1     529     530  # Hw-Ow
    354    1     530     531  # Ow-Hw
    355    1     532     533  # Hw-Ow
    356    1     533     534  # Ow-Hw
    357    1     535     536  # Hw-Ow
    358    1     536     537  # Ow-Hw
    359    1     538     539  # Hw-Ow
    360    1     539     540  # Ow-Hw
    361    1     541     542  # Hw-Ow
    362    1     542     543  # Ow-Hw
    363    1     544     545  # Hw-Ow
    364    1     545     546  # Ow-Hw
    365    1     547     548  # Hw-Ow
    366    1     548     549  # Ow-Hw
    367    1     550     551  # Hw-Ow
    368    1     551     552  # Ow-Hw
    369    1     553     554  # Hw-Ow
    370    1     554     555  # Ow-Hw
    371    1     556     557  # Hw-Ow
    372    1     557     558  # Ow-Hw
    373    1     559     560  # Hw-Ow
    374    1     560     561  # Ow-Hw
    375    1     562     563  # Hw-Ow
    376    1     563     564  # Ow-Hw
    377    1     565     566  # Hw-Ow
    378    1     566     567  # Ow-Hw
    379    1     568     569  # Hw-Ow
    380    1     569     570  # Ow-Hw
    381    1     571     572  # Hw-Ow
    382    1     572     573  # Ow-Hw
    383    1     574     575  # Hw-Ow
    384    1     575     576  # Ow-Hw
    385    1     577     578  # Hw-Ow
    386    1     578     579  # Ow-Hw
    387    1     580     581  # Hw-Ow
    388    1     581     582  # Ow-Hw
    389    1     583     584  # Hw-Ow
    390    1     584     585  # Ow-Hw
    391    1     586     587  # Hw-Ow
    392    1     587     588  # Ow-Hw
    393    1     589     590  # Hw-Ow
    394    1     590     591  # Ow-Hw
    395    1     592     593  # Hw-Ow
    396    1     593     594  # Ow-Hw
    397    1     595     596  # Hw-Ow
    398    1     596     597  # Ow-Hw
    399    1     598     599  # Hw-Ow
    400    1     599     600  # Ow-Hw
    401    1     601     602  # Hw-Ow
    402    1     602     603  # Ow-Hw
    403    1     604     605  # Hw-Ow
    404    1     605     606  # Ow-Hw
    405    1     607     608  # Hw-Ow
    406    1     608     609  # Ow-Hw
    407    1     610     611  # Hw-Ow
    408    1     611     612  # Ow-Hw
    409    1     613     614  # Hw-Ow
    410    1     614     615  # Ow-Hw
    411    1     616     617  # Hw-Ow
    412    1     617     618  # Ow-Hw
    413    1     619     620  # Hw-Ow
    414    1     620     621  # Ow-Hw
    415    1     622     623  # Hw-Ow
    416    1     623     624  # Ow-Hw
    417    1     625     626  # Hw-Ow
    418    1     626     627  # Ow-Hw
    419    1     628     629  # Hw-Ow
    420    1     629     630  # Ow-Hw
    421    1     631     632  # Hw-Ow
    422    1     632     633  # Ow-Hw
    423    1     634     635  # Hw-Ow
    424    1     635     636  # Ow-Hw
    425    1     637     638  # Hw-Ow
    426    1     638     639  # Ow-Hw
    427    1     640     641  # Hw-Ow
    428    1     641     642  # Ow-Hw
    429    1     643     644  # Hw-Ow
    430    1     644     645  # Ow-Hw
    431    1     646     647  # Hw-Ow
    432    1     647     648  # Ow-Hw
    433    1     649     650  # Hw-Ow
    434    1     650     651  # Ow-Hw
    435    1     652     653  # Hw-Ow
    436    1     653     654  # Ow-Hw
    437    1     655     656  # Hw-Ow
    438    1     656     657  # Ow-Hw
    439    1     658     659  # Hw-Ow
    440    1     659     660  # Ow-Hw
    441    1     661     662  # Hw-Ow
    442    1     662     663  # Ow-Hw
    443    1     664     665  # Hw-Ow
    444    1     665     666  # Ow-Hw
    445    1     667     668  # Hw-Ow
    446    1     668     669  # Ow-Hw
    447    1     670     671  # Hw-Ow
    448    1     671     672  # Ow-Hw
    449    1     673     674  # Hw-Ow
    450    1     674     675  # Ow-Hw
    451    1     676     677  # Hw-Ow
    452    1     677     678  # Ow-Hw
    453    1     679     680  # Hw-Ow
    454    1     680     681  # Ow-Hw
    455    1     682     683  # Hw-Ow
    456    1     683     684  # Ow-Hw
    457    1     685     686  # Hw-Ow
    458    1     686     687  # Ow-Hw
    459    1     688     689  # Hw-Ow
    460    1     689     690  # Ow-Hw
    461    1     691     692  # Hw-Ow
    462    1     692     693  # Ow-Hw
    463    1     694     695  # Hw-Ow
    464    1     695     696  # Ow-Hw
    465    1     697     698  # Hw-Ow
    466    1     698     699  # Ow-Hw
    467    1     700     701  # Hw-Ow
    468    1     701     702  # Ow-Hw
    469    1     703     704  # Hw-Ow
    470    1     704     705  # Ow-Hw
    471    1     706     707  # Hw-Ow
    472    1     707     708  # Ow-Hw
    473    1     709     710  # Hw-Ow
    474    1     710     711  # Ow-Hw
    475    1     712     713  # Hw-Ow
    476    1     713     714  # Ow-Hw
    477    1     715     716  # Hw-Ow
    478    1     716     717  # Ow-Hw
    479    1     718     719  # Hw-Ow
    480    1     719     720  # Ow-Hw
    481    1     721     722  # Hw-Ow
    482    1     722     723  # Ow-Hw
    483    1     724     725  # Hw-Ow
    484    1     725     726  # Ow-Hw
    485    1     727     728  # Hw-Ow
    486    1     728     729  # Ow-Hw
    487    1     730     731  # Hw-Ow
    488    1     731     732  # Ow-Hw
    489    1     733     734  # Hw-Ow
    490    1     734     735  # Ow-Hw
    491    1     736     737  # Hw-Ow
    492    1     737     738  # Ow-Hw
    493    1     739     740  # Hw-Ow
    494    1     740     741  # Ow-Hw
    495    1     742     743  # Hw-Ow
    496    1     743     744  # Ow-Hw
    497    1     745     746  # Hw-Ow
    498    1     746     747  # Ow-Hw
    499    1     748     749  # Hw-Ow
    500    1     749     750  # Ow-Hw
    501    1     751     752  # Hw-Ow
    502    1     752     753  # Ow-Hw
    503    1     754     755  # Hw-Ow
    504    1     755     756  # Ow-Hw
    505    1     757     758  # Hw-Ow
    506    1     758     759  # Ow-Hw
    507    1     760     761  # Hw-Ow
    508    1     761     762  # Ow-Hw
    509    1     763     764  # Hw-Ow
    510    1     764     765  # Ow-Hw
    511    1     766     767  # Hw-Ow
    512    1     767     768  # Ow-Hw
    513    1     769     770  # Hw-Ow
    514    1     770     771  # Ow-Hw
    515    1     772     773  # Hw-Ow
    516    1     773     774  # Ow-Hw
    517    1     775     776  # Hw-Ow
    518    1     776     777  # Ow-Hw
    519    1     778     779  # Hw-Ow
    520    1     779     780  # Ow-Hw
    521    1     781     782  # Hw-Ow
    522    1     782     783  # Ow-Hw
    523    1     784     785  # Hw-Ow
    524    1     785     786  # Ow-Hw
    525    1     787     788  # Hw-Ow
    526    1     788     789  # Ow-Hw
    527    1     790     791  # Hw-Ow
    528    1     791     792  # Ow-Hw
    529    1     793     794  # Hw-Ow
    530    1     794     795  # Ow-Hw
    531    1     796     797  # Hw-Ow
    532    1     797     798  # Ow-Hw
    533    1     799     800  # Hw-Ow
    534    1     800     801  # Ow-Hw
    535    1     802     803  # Hw-Ow
    536    1     803     804  # Ow-Hw
    537    1     805     806  # Hw-Ow
    538    1     806     807  # Ow-Hw
    539    1     808     809  # Hw-Ow
    540    1     809     810  # Ow-Hw
    541    1     811     812  # Hw-Ow
    542    1     812     813  # Ow-Hw
    543    1     814     815  # Hw-Ow
    544    1     815     816  # Ow-Hw
    545    1     817     818  # Hw-Ow
    546    1     818     819  # Ow-Hw
    547    1     820     821  # Hw-Ow
    548    1     821     822  # Ow-Hw
    549    1     823     824  # Hw-Ow
    550    1     824     825  # Ow-Hw
    551    1     826     827  # Hw-Ow
    552    1     827     828  # Ow-Hw
    553    1     829     830  # Hw-Ow
    554    1     830     831  # Ow-Hw
    555    1     832     833  # Hw-Ow
    556    1     833     834  # Ow-Hw
    557    1     835     836  # Hw-Ow
    558    1     836     837  # Ow-Hw
    559    1     838     839  # Hw-Ow
    560    1     839     840  # Ow-Hw
    561    1     841     842  # Hw-Ow
    562    1     842     843  # Ow-Hw
    563    1     844     845  # Hw-Ow
    564    1     845     846  # Ow-Hw
    565    1     847     848  # Hw-Ow
    566    1     848     849  # Ow-Hw
    567    1     850     851  # Hw-Ow
    568    1     851     852  # Ow-Hw
    569    1     853     854  # Hw-Ow
    570    1     854     855  # Ow-Hw
    571    1     856     857  # Hw-Ow
    572    1     857     858  # Ow-Hw
    573    1     859     860  # Hw-Ow
    574    1     860     861  # Ow-Hw
    575    1     862     863  # Hw-Ow
    576    1     863     864  # Ow-Hw
    577    1     865     866  # Hw-Ow
    578    1     866     867  # Ow-Hw
    579    1     868     869  # Hw-Ow
    580    1     869     870  # Ow-Hw
    581    1     871     872  # Hw-Ow
    582    1     872     873  # Ow-Hw
    583    1     874     875  # Hw-Ow
    584    1     875     876  # Ow-Hw
    585    1     877     878  # Hw-Ow
    586    1     878     879  # Ow-Hw
    587    1     880     881  # Hw-Ow
    588    1     881     882  # Ow-Hw
    589    1     883     884  # Hw-Ow
    590    1     884     885  # Ow-Hw
    591    1     886     887  # Hw-Ow
    592    1     887     888  # Ow-Hw
    593    1     889     890  # Hw-Ow
    594    1     890     891  # Ow-Hw
    595    1     892     893  # Hw-Ow
    596    1     893     894  # Ow-Hw
    597    1     895     896  # Hw-Ow
    598    1     896     897  # Ow-Hw
    599    1     898     899  # Hw-Ow
    600    1     899     900  # Ow-Hw
    601    1     901     902  # Hw-Ow
    602    1     902     903  # Ow-Hw
    603    1     904     905  # Hw-Ow
    604    1     905     906  # Ow-Hw
    605    1     907     908  # Hw-Ow
    606    1     908     909  # Ow-Hw
    607    1     910     911  # Hw-Ow
    608    1     911     912  # Ow-Hw
    609    1     913     914  # Hw-Ow
    610    1     914     915  # Ow-Hw
    611    1     916     917  # Hw-Ow
    612    1     917     918  # Ow-Hw
    613    1     919     920  # Hw-Ow
    614    1     920     921  # Ow-Hw
    615    1     922     923  # Hw-Ow
    616    1     923     924  # Ow-Hw
    617    1     925     926  # Hw-Ow
    618    1     926     927  # Ow-Hw
    619    1     928     929  # Hw-Ow
    620    1     929     930  # Ow-Hw
    621    1     931     932  # Hw-Ow
    622    1     932     933  # Ow-Hw
    623    1     934     935  # Hw-Ow
    624    1     935     936  # Ow-Hw
    625    1     937     938  # Hw-Ow
    626    1     938     939  # Ow-Hw
    627    1     940     941  # Hw-Ow
    628    1     941     942  # Ow-Hw
    629    1     943     944  # Hw-Ow
    630    1     944     945  # Ow-Hw
    631    1     946     947  # Hw-Ow
    632    1     947     948  # Ow-Hw
    633    1     949     950  # Hw-Ow
    634    1     950     951  # Ow-Hw
    635    1     952     953  # Hw-Ow
    636    1     953     954  # Ow-Hw
    637    1     955     956  # Hw-Ow
    638    1     956     957  # Ow-Hw
    639    1     958     959  # Hw-Ow
    640    1     959     960  # Ow-Hw
    641    1     961     962  # Hw-Ow
    642    1     962     963  # Ow-Hw
    643    1     964     965  # Hw-Ow
    644    1     965     966  # Ow-Hw
    645    1     967     968  # Hw-Ow
    646    1     968     969  # Ow-Hw
    647    1     970     971  # Hw-Ow
    648    1     971     972  # Ow-Hw
    649    1     973     974  # Hw-Ow
    650    1     974     975  # Ow-Hw
    651    1     976     977  # Hw-Ow
    652    1     977     978  # Ow-Hw
    653    1     979     980  # Hw-Ow
    654    1     980     981  # Ow-Hw
    655    1     982     983  # Hw-Ow
    656    1     983     984  # Ow-Hw
    657    1     985     986  # Hw-Ow
    658    1     986     987  # Ow-Hw
    659    1     988     989  # Hw-Ow
    660    1     989     990  # Ow-Hw
    661    1     991     992  # Hw-Ow
    662    1     992     993  # Ow-Hw
    663    1     994     995  # Hw-Ow
    664    1     995     996  # Ow-Hw
    665    1     997     998  # Hw-Ow
    666    1     998     999  # Ow-Hw
    667    1    1000    1001  # Hw-Ow
    668    1    1001    1002  # Ow-Hw
    669    1    1003    1004  # Hw-Ow
    670    1    1004    1005  # Ow-Hw
    671    1    1006    1007  # Hw-Ow
    672    1    1007    1008  # Ow-Hw
    673    1    1009    1010  # Hw-Ow
    674    1    1010    1011  # Ow-Hw
    675    1    1012    1013  # Hw-Ow
    676    1    1013    1014  # Ow-Hw
    677    1    1015    1016  # Hw-Ow
    678    1    1016    1017  # Ow-Hw
    679    1    1018    1019  # Hw-Ow
    680    1    1019    1020  # Ow-Hw
    681    1    1021    1022  # Hw-Ow
    682    1    1022    1023  # Ow-Hw
    683    1    1024    1025  # Hw-Ow
    684    1    1025    1026  # Ow-Hw
    685    1    1027    1028  # Hw-Ow
    686    1    1028    1029  # Ow-Hw
    687    1    1030    1031  # Hw-Ow
    688    1    1031    1032  # Ow-Hw
    689    1    1033    1034  # Hw-Ow
    690    1    1034    1035  # Ow-Hw
    691    1    1036    1037  # Hw-Ow
    692    1    1037    1038  # Ow-Hw
    693    1    1039    1040  # Hw-Ow
    694    1    1040    1041  # Ow-Hw
    695    1    1042    1043  # Hw-Ow
    696    1    1043    1044  # Ow-Hw
    697    1    1045    1046  # Hw-Ow
    698    1    1046    1047  # Ow-Hw
    699    1    1048    1049  # Hw-Ow
    700    1    1049    1050  # Ow-Hw
    701    1    1051    1052  # Hw-Ow
    702    1    1052    1053  # Ow-Hw
    703    1    1054    1055  # Hw-Ow
    704    1    1055    1056  # Ow-Hw
    705    1    1057    1058  # Hw-Ow
    706    1    1058    1059  # Ow-Hw
    707    1    1060    1061  # Hw-Ow
    708    1    1061    1062  # Ow-Hw
    709    1    1063    1064  # Hw-Ow
    710    1    1064    1065  # Ow-Hw
    711    1    1066    1067  # Hw-Ow
    712    1    1067    1068  # Ow-Hw
    713    1    1069    1070  # Hw-Ow
    714    1    1070    1071  # Ow-Hw
    715    1    1072    1073  # Hw-Ow
    716    1    1073    1074  # Ow-Hw
    717    1    1075    1076  # Hw-Ow
    718    1    1076    1077  # Ow-Hw
    719    1    1078    1079  # Hw-Ow
    720    1    1079    1080  # Ow-Hw
    721    1    1081    1082  # Hw-Ow
    722    1    1082    1083  # Ow-Hw
    723    1    1084    1085  # Hw-Ow
    724    1    1085    1086  # Ow-Hw
    725    1    1087    1088  # Hw-Ow
    726    1    1088    1089  # Ow-Hw
    727    1    1090    1091  # Hw-Ow
    728    1    1091    1092  # Ow-Hw
    729    1    1093    1094  # Hw-Ow
    730    1    1094    1095  # Ow-Hw
    731    1    1096    1097  # Hw-Ow
    732    1    1097    1098  # Ow-Hw
    733    1    1099    1100  # Hw-Ow
    734    1    1100    1101  # Ow-Hw
    735    1    1102    1103  # Hw-Ow
    736    1    1103    1104  # Ow-Hw
    737    1    1105    1106  # Hw-Ow
    738    1    1106    1107  # Ow-Hw
    739    1    1108    1109  # Hw-Ow
    740    1    1109    1110  # Ow-Hw
    741    1    1111    1112  # Hw-Ow
    742    1    1112    1113  # Ow-Hw
    743    1    1114    1115  # Hw-Ow
    744    1    1115    1116  # Ow-Hw
    745    1    1117    1118  # Hw-Ow
    746    1    1118    1119  # Ow-Hw
    747    1    1120    1121  # Hw-Ow
    748    1    1121    1122  # Ow-Hw
    749    1    1123    1124  # Hw-Ow
    750    1    1124    1125  # Ow-Hw
    751    1    1126    1127  # Hw-Ow
    752    1    1127    1128  # Ow-Hw
    753    1    1129    1130  # Hw-Ow
    754    1    1130    1131  # Ow-Hw
    755    1    1132    1133  # Hw-Ow
    756    1    1133    1134  # Ow-Hw
    757    1    1135    1136  # Hw-Ow
    758    1    1136    1137  # Ow-Hw
    759    1    1138    1139  # Hw-Ow
    760    1    1139    1140  # Ow-Hw
    761    1    1141    1142  # Hw-Ow
    762    1    1142    1143  # Ow-Hw
    763    1    1144    1145  # Hw-Ow
    764    1    1145    1146  # Ow-Hw
    765    1    1147    1148  # Hw-Ow
    766    1    1148    1149  # Ow-Hw
    767    1    1150    1151  # Hw-Ow
    768    1    1151    1152  # Ow-Hw
    769    1    1153    1154  # Hw-Ow
    770    1    1154    1155  # Ow-Hw
    771    1    1156    1157  # Hw-Ow
    772    1    1157    1158  # Ow-Hw
    773    1    1159    1160  # Hw-Ow
    774    1    1160    1161  # Ow-Hw
    775    1    1162    1163  # Hw-Ow
    776    1    1163    1164  # Ow-Hw
    777    1    1165    1166  # Hw-Ow
    778    1    1166    1167  # Ow-Hw
    779    1    1168    1169  # Hw-Ow
    780    1    1169    1170  # Ow-Hw
    781    1    1171    1172  # Hw-Ow
    782    1    1172    1173  # Ow-Hw
    783    1    1174    1175  # Hw-Ow
    784    1    1175    1176  # Ow-Hw
    785    1    1177    1178  # Hw-Ow
    786    1    1178    1179  # Ow-Hw
    787    1    1180    1181  # Hw-Ow
    788    1    1181    1182  # Ow-Hw
    789    1    1183    1184  # Hw-Ow
    790    1    1184    1185  # Ow-Hw
    791    1    1186    1187  # Hw-Ow
    792    1    1187    1188  # Ow-Hw
    793    1    1189    1190  # Hw-Ow
    794    1    1190    1191  # Ow-Hw
    795    1    1192    1193  # Hw-Ow
    796    1    1193    1194  # Ow-Hw
    797    1    1195    1196  # Hw-Ow
    798    1    1196    1197  # Ow-Hw
    799    1    1198    1199  # Hw-Ow
    800    1    1199    1200  # Ow-Hw
    801    1    1201    1202  # Hw-Ow
    802    1    1202    1203  # Ow-Hw
    803    1    1204    1205  # Hw-Ow
    804    1    1205    1206  # Ow-Hw
    805    1    1207    1208  # Hw-Ow
    806    1    1208    1209  # Ow-Hw
    807    1    1210    1211  # Hw-Ow
    808    1    1211    1212  # Ow-Hw
    809    1    1213    1214  # Hw-Ow
    810    1    1214    1215  # Ow-Hw
    811    1    1216    1217  # Hw-Ow
    812    1    1217    1218  # Ow-Hw
    813    1    1219    1220  # Hw-Ow
    814    1    1220    1221  # Ow-Hw
    815    1    1222    1223  # Hw-Ow
    816    1    1223    1224  # Ow-Hw
    817    1    1225    1226  # Hw-Ow
    818    1    1226    1227  # Ow-Hw
    819    1    1228    1229  # Hw-Ow
    820    1    1229    1230  # Ow-Hw
    821    1    1231    1232  # Hw-Ow
    822    1    1232    1233  # Ow-Hw
    823    1    1234    1235  # Hw-Ow
    824    1    1235    1236  # Ow-Hw
    825    1    1237    1238  # Hw-Ow
    826    1    1238    1239  # Ow-Hw
    827    1    1240    1241  # Hw-Ow
    828    1    1241    1242  # Ow-Hw
    829    1    1243    1244  # Hw-Ow
    830    1    1244    1245  # Ow-Hw
    831    1    1246    1247  # Hw-Ow
    832    1    1247    1248  # Ow-Hw
    833    1    1249    1250  # Hw-Ow
    834    1    1250    1251  # Ow-Hw
    835    1    1252    1253  # Hw-Ow
    836    1    1253    1254  # Ow-Hw
    837    1    1255    1256  # Hw-Ow
    838    1    1256    1257  # Ow-Hw
    839    1    1258    1259  # Hw-Ow
    840    1    1259    1260  # Ow-Hw
    841    1    1261    1262  # Hw-Ow
    842    1    1262    1263  # Ow-Hw
    843    1    1264    1265  # Hw-Ow
    844    1    1265    1266  # Ow-Hw
    845    1    1267    1268  # Hw-Ow
    846    1    1268    1269  # Ow-Hw
    847    1    1270    1271  # Hw-Ow
    848    1    1271    1272  # Ow-Hw
    849    1    1273    1274  # Hw-Ow
    850    1    1274    1275  # Ow-Hw
    851    1    1276    1277  # Hw-Ow
    852    1    1277    1278  # Ow-Hw
    853    1    1279    1280  # Hw-Ow
    854    1    1280    1281  # Ow-Hw
    855    1    1282    1283  # Hw-Ow
    856    1    1283    1284  # Ow-Hw
    857    1    1285    1286  # Hw-Ow
    858    1    1286    1287  # Ow-Hw
    859    1    1288    1289  # Hw-Ow
    860    1    1289    1290  # Ow-Hw
    861    1    1291    1292  # Hw-Ow
    862    1    1292    1293  # Ow-Hw
    863    1    1294    1295  # Hw-Ow
    864    1    1295    1296  # Ow-Hw
    865    1    1297    1298  # Hw-Ow
    866    1    1298    1299  # Ow-Hw
    867    1    1300    1301  # Hw-Ow
    868    1    1301    1302  # Ow-Hw
    869    1    1303    1304  # Hw-Ow
    870    1    1304    1305  # Ow-Hw
    871    1    1306    1307  # Hw-Ow
    872    1    1307    1308  # Ow-Hw
    873    1    1309    1310  # Hw-Ow
    874    1    1310    1311  # Ow-Hw
    875    1    1312    1313  # Hw-Ow
    876    1    1313    1314  # Ow-Hw
    877    1    1315    1316  # Hw-Ow
    878    1    1316    1317  # Ow-Hw
    879    1    1318    1319  # Hw-Ow
    880    1    1319    1320  # Ow-Hw
    881    1    1321    1322  # Hw-Ow
    882    1    1322    1323  # Ow-Hw
    883    1    1324    1325  # Hw-Ow
    884    1    1325    1326  # Ow-Hw
    885    1    1327    1328  # Hw-Ow
    886    1    1328    1329  # Ow-Hw
    887    1    1330    1331  # Hw-Ow
    888    1    1331    1332  # Ow-Hw
    889    1    1333    1334  # Hw-Ow
    890    1    1334    1335  # Ow-Hw
    891    1    1336    1337  # Hw-Ow
    892    1    1337    1338  # Ow-Hw
    893    1    1339    1340  # Hw-Ow
    894    1    1340    1341  # Ow-Hw
    895    1    1342    1343  # Hw-Ow
    896    1    1343    1344  # Ow-Hw
    897    1    1345    1346  # Hw-Ow
    898    1    1346    1347  # Ow-Hw
    899    1    1348    1349  # Hw-Ow
    900    1    1349    1350  # Ow-Hw
    901    1    1351    1352  # Hw-Ow
    902    1    1352    1353  # Ow-Hw
    903    1    1354    1355  # Hw-Ow
    904    1    1355    1356  # Ow-Hw
    905    1    1357    1358  # Hw-Ow
    906    1    1358    1359  # Ow-Hw
    907    1    1360    1361  # Hw-Ow
    908    1    1361    1362  # Ow-Hw
    909    1    1363    1364  # Hw-Ow
    910    1    1364    1365  # Ow-Hw
    911    1    1366    1367  # Hw-Ow
    912    1    1367    1368  # Ow-Hw
    913    1    1369    1370  # Hw-Ow
    914    1    1370    1371  # Ow-Hw
    915    1    1372    1373  # Hw-Ow
    916    1    1373    1374  # Ow-Hw
    917    1    1375    1376  # Hw-Ow
    918    1    1376    1377  # Ow-Hw
    919    1    1378    1379  # Hw-Ow
    920    1    1379    1380  # Ow-Hw
    921    1    1381    1382  # Hw-Ow
    922    1    1382    1383  # Ow-Hw
    923    1    1384    1385  # Hw-Ow
    924    1    1385    1386  # Ow-Hw
    925    1    1387    1388  # Hw-Ow
    926    1    1388    1389  # Ow-Hw
    927    1    1390    1391  # Hw-Ow
    928    1    1391    1392  # Ow-Hw
    929    1    1393    1394  # Hw-Ow
    930    1    1394    1395  # Ow-Hw
    931    1    1396    1397  # Hw-Ow
    932    1    1397    1398  # Ow-Hw
    933    1    1399    1400  # Hw-Ow
    934    1    1400    1401  # Ow-Hw
    935    1    1402    1403  # Hw-Ow
    936    1    1403    1404  # Ow-Hw
    937    1    1405    1406  # Hw-Ow
    938    1    1406    1407  # Ow-Hw
    939    1    1408    1409  # Hw-Ow
    940    1    1409    1410  # Ow-Hw
    941    1    1411    1412  # Hw-Ow
    942    1    1412    1413  # Ow-Hw
    943    1    1414    1415  # Hw-Ow
    944    1    1415    1416  # Ow-Hw
    945    1    1417    1418  # Hw-Ow
    946    1    1418    1419  # Ow-Hw
    947    1    1420    1421  # Hw-Ow
    948    1    1421    1422  # Ow-Hw
    949    1    1423    1424  # Hw-Ow
    950    1    1424    1425  # Ow-Hw
    951    1    1426    1427  # Hw-Ow
    952    1    1427    1428  # Ow-Hw
    953    1    1429    1430  # Hw-Ow
    954    1    1430    1431  # Ow-Hw
    955    1    1432    1433  # Hw-Ow
    956    1    1433    1434  # Ow-Hw
    957    1    1435    1436  # Hw-Ow
    958    1    1436    1437  # Ow-Hw
    959    1    1438    1439  # Hw-Ow
    960    1    1439    1440  # Ow-Hw
    961    1    1441    1442  # Hw-Ow
    962    1    1442    1443  # Ow-Hw
    963    1    1444    1445  # Hw-Ow
    964    1    1445    1446  # Ow-Hw
    965    1    1447    1448  # Hw-Ow
    966    1    1448    1449  # Ow-Hw
    967    1    1450    1451  # Hw-Ow
    968    1    1451    1452  # Ow-Hw
    969    1    1453    1454  # Hw-Ow
    970    1    1454    1455  # Ow-Hw
    971    1    1456    1457  # Hw-Ow
    972    1    1457    1458  # Ow-Hw
    973    1    1459    1460  # Hw-Ow
    974    1    1460    1461  # Ow-Hw
    975    1    1462    1463  # Hw-Ow
    976    1    1463    1464  # Ow-Hw
    977    1    1465    1466  # Hw-Ow
    978    1    1466    1467  # Ow-Hw
    979    1    1468    1469  # Hw-Ow
    980    1    1469    1470  # Ow-Hw
    981    1    1471    1472  # Hw-Ow
    982    1    1472    1473  # Ow-Hw
    983    1    1474    1475  # Hw-Ow
    984    1    1475    1476  # Ow-Hw
    985    1    1477    1478  # Hw-Ow
    986    1    1478    1479  # Ow-Hw
    987    1    1480    1481  # Hw-Ow
    988    1    1481    1482  # Ow-Hw
    989    1    1483    1484  # Hw-Ow
    990    1    1484    1485  # Ow-Hw
    991    1    1486    1487  # Hw-Ow
    992    1    1487    1488  # Ow-Hw
    993    1    1489    1490  # Hw-Ow
    994    1    1490    1491  # Ow-Hw
    995    1    1492    1493  # Hw-Ow
    996    1    1493    1494  # Ow-Hw
    997    1    1495    1496  # Hw-Ow
    998    1    1496    1497  # Ow-Hw
    999    1    1498    1499  # Hw-Ow
   1000    1    1499    1500  # Ow-Hw

Angles

      1    1       1       2       3  # Hw-Ow-Hw
      2    1       4       5       6  # Hw-Ow-Hw
      3    1       7       8       9  # Hw-Ow-Hw
      4    1      10      11      12  # Hw-Ow-Hw
      5    1      13      14      15  # Hw-Ow-Hw
      6    1      16      17      18  # Hw-Ow-Hw
      7    1      19      20      21  # Hw-Ow-Hw
      8    1      22      23      24  # Hw-Ow-Hw
      9    1      25      26      27  # Hw-Ow-Hw
     10    1      28      29      30  # Hw-Ow-Hw
     11    1      31      32      33  # Hw-Ow-Hw
     12    1      34      35      36  # Hw-Ow-Hw
     13    1      37      38      39  # Hw-Ow-Hw
     14    1      40      41      42  # Hw-Ow-Hw
     15    1      43      44      45  # Hw-Ow-Hw
     16    1      46      47      48  # Hw-Ow-Hw
     17    1      49      50      51  # Hw-Ow-Hw
     18    1      52      53      54  # Hw-Ow-Hw
     19    1      55      56      57  # Hw-Ow-Hw
     20    1      58      59      60  # Hw-Ow-Hw
     21    1      61      62      63  # Hw-Ow-Hw
     22    1      64      65      66  # Hw-Ow-Hw
     23    1      67      68      69  # Hw-Ow-Hw
     24    1      70      71      72  # Hw-Ow-Hw
     25    1      73      74      75  # Hw-Ow-Hw
     26    1      76      77      78  # Hw-Ow-Hw
     27    1      79      80      81  # Hw-Ow-Hw
     28    1      82      83      84  # Hw-Ow-Hw
     29    1      85      86      87  # Hw-Ow-Hw
     30    1      88      89      90  # Hw-Ow-Hw
     31    1      91      92      93  # Hw-Ow-Hw
     32    1      94      95      96  # Hw-Ow-Hw
     33    1      97      98      99  # Hw-Ow-Hw
     34    1     100     101     102  # Hw-Ow-Hw
     35    1     103     104     105  # Hw-Ow-Hw
     36    1     106     107     108  # Hw-Ow-Hw
     37    1     109     110     111  # Hw-Ow-Hw
     38    1     112     113     114  # Hw-Ow-Hw
     39    1     115     116     117  # Hw-Ow-Hw
     40    1     118     119     120  # Hw-Ow-Hw
     41    1     121     122     123  # Hw-Ow-Hw
     42    1     124     125     126  # Hw-Ow-Hw
     43    1     127     128     129  # Hw-Ow-Hw
     44    1     130     131     132  # Hw-Ow-Hw
     45    1     133     134     135  # Hw-Ow-Hw
     46    1     136     137     138  # Hw-Ow-Hw
     47    1     139     140     141  # Hw-Ow-Hw
     48    1     142     143     144  # Hw-Ow-Hw
     49    1     145     146     147  # Hw-Ow-Hw
     50    1     148     149     150  # Hw-Ow-Hw
     51    1     151     152     153  # Hw-Ow-Hw
     52    1     154     155     156  # Hw-Ow-Hw
     53    1     157     158     159  # Hw-Ow-Hw
     54    1     160     161     162  # Hw-Ow-Hw
     55    1     163     164     165  # Hw-Ow-Hw
     56    1     166     167     168  # Hw-Ow-Hw
     57    1     169     170     171  # Hw-Ow-Hw
     58    1     172     173     174  # Hw-Ow-Hw
     59    1     175     176     177  # Hw-Ow-Hw
     60    1     178     179     180  # Hw-Ow-Hw
     61    1     181     182     183  # Hw-Ow-Hw
     62    1     184     185     186  # Hw-Ow-Hw
     63    1     187     188     189  # Hw-Ow-Hw
     64    1     190     191     192  # Hw-Ow-Hw
     65    1     193     194     195  # Hw-Ow-Hw
     66    1     196     197     198  # Hw-Ow-Hw
     67    1     199     200     201  # Hw-Ow-Hw
     68    1     202     203     204  # Hw-Ow-Hw
     69    1     205     206     207  # Hw-Ow-Hw
     70    1     208     209     210  # Hw-Ow-Hw
     71    1     211     212     213  # Hw-Ow-Hw
     72    1     214     215     216  # Hw-Ow-Hw
     73    1     217     218     219  # Hw-Ow-Hw
     74    1     220     221     222  # Hw-Ow-Hw
     75    1     223     224     225  # Hw-Ow-Hw
     76    1     226     227     228  # Hw-Ow-Hw
     77    1     229     230     231  # Hw-Ow-Hw
     78    1     232     233     234  # Hw-Ow-Hw
     79    1     235     236     237  # Hw-Ow-Hw
     80    1     238     239     240  # Hw-Ow-Hw
     81    1     241     242     243  # Hw-Ow-Hw
     82    1     244     245     246  # Hw-Ow-Hw
     83    1     247     248     249  # Hw-Ow-Hw
     84    1     250     251     252  # Hw-Ow-Hw
     85    1     253     254     255  # Hw-Ow-Hw
     86    1     256     257     258  # Hw-Ow-Hw
     87    1     259     260     261  # Hw-Ow-Hw
     88    1     262     263     264  # Hw-Ow-Hw
     89    1     265     266     267  # Hw-Ow-Hw
     90    1     268     269     270  # Hw-Ow-Hw
     91    1     271     272     273  # Hw-Ow-Hw
     92    1     274     275     276  # Hw-Ow-Hw
     93    1     277     278     279  # Hw-Ow-Hw
     94    1     280     281     282  # Hw-Ow-Hw
     95    1     283     284     285  # Hw-Ow-Hw
     96    1     286     287     288  # Hw-Ow-Hw
     97    1     289     290     291  # Hw-Ow-Hw
     98    1     292     293     294  # Hw-Ow-Hw
     99    1     295     296     297  # Hw-Ow-Hw
    100    1     298     299     300  # Hw-Ow-Hw
    101    1     301     302     303  # Hw-Ow-Hw
    102    1     304     305     306  # Hw-Ow-Hw
    103    1     307     308     309  # Hw-Ow-Hw
    104    1     310     311     312  # Hw-Ow-Hw
    105    1     313     314     315  # Hw-Ow-Hw
    106    1     316     317     318  # Hw-Ow-Hw
    107    1     319     320     321  # Hw-Ow-Hw
    108    1     322     323     324  # Hw-Ow-Hw
    109    1     325     326     327  # Hw-Ow-Hw
    110    1     328     329     330  # Hw-Ow-Hw
    111    1     331     332     333  # Hw-Ow-Hw
    112    1     334     335     336  # Hw-Ow-Hw
    113    1     337     338     339  # Hw-Ow-Hw
    114    1     340     341     342  # Hw-Ow-Hw
    115    1     343     344     345  # Hw-Ow-Hw
    116    1     346     347     348  # Hw-Ow-Hw
    117    1     349     350     351  # Hw-Ow-Hw
    118    1     352     353     354  # Hw-Ow-Hw
    119    1     355     356     357  # Hw-Ow-Hw
    120    1     358     359     360  # Hw-Ow-Hw
    121    1     361     362     363  # Hw-Ow-Hw
    122    1     364     365     366  # Hw-Ow-Hw
    123    1     367     368     369  # Hw-Ow-Hw
    124    1     370     371     372  # Hw-Ow-Hw
    125    1     373     374     375  # Hw-Ow-Hw
    126    1     376     377     378  # Hw-Ow-Hw
    127    1     379     380     381  # Hw-Ow-Hw
    128    1     382     383     384  # Hw-Ow-Hw
    129    1     385     386     387  # Hw-Ow-Hw
    130    1     388     389     390  # Hw-Ow-Hw
    131    1     391     392     393  # Hw-Ow-Hw
    132    1     394     395     396  # Hw-Ow-Hw
    133    1     397     398     399  # Hw-Ow-Hw
    134    1     400     401     402  # Hw-Ow-Hw
    135    1     403     404     405  # Hw-Ow-Hw
    136    1     406     407     408  # Hw-Ow-Hw
    137    1     409     410     411  # Hw-Ow-Hw
    138    1     412     413     414  # Hw-Ow-Hw
    139    1     415     416     417  # Hw-Ow-Hw
    140    1     418     419     420  # Hw-Ow-Hw
    141    1     421     422     423  # Hw-Ow-Hw
    142    1     424     425     426  # Hw-Ow-Hw
    143    1     427     428     429  # Hw-Ow-Hw
    144    1     430     431     432  # Hw-Ow-Hw
    145    1     433     434     435  # Hw-Ow-Hw
    146    1     436     437     438  # Hw-Ow-Hw
    147    1     439     440     441  # Hw-Ow-Hw
    148    1     442     443     444  # Hw-Ow-Hw
    149    1     445     446     447  # Hw-Ow-Hw
    150    1     448     449     450  # Hw-Ow-Hw
    151    1     451     452     453  # Hw-Ow-Hw
    152    1     454     455     456  # Hw-Ow-Hw
    153    1     457     458     459  # Hw-Ow-Hw
    154    1     460     461     462  # Hw-Ow-Hw
    155    1     463     464     465  # Hw-Ow-Hw
    156    1     466     467     468  # Hw-Ow-Hw
    157    1     469     470     471  # Hw-Ow-Hw
    158    1     472     473     474  # Hw-Ow-Hw
    159    1     475     476     477  # Hw-Ow-Hw
    160    1     478     479     480  # Hw-Ow-Hw
    161    1     481     482     483  # Hw-Ow-Hw
    162    1     484     485     486  # Hw-Ow-Hw
    163    1     487     488     489  # Hw-Ow-Hw
    164    1     490     491     492  # Hw-Ow-Hw
    165    1     493     494     495  # Hw-Ow-Hw
    166    1     496     497     498  # Hw-Ow-Hw
    167    1     499     500     501  # Hw-Ow-Hw
    168    1     502     503     504  # Hw-Ow-Hw
    169    1     505     506     507  # Hw-Ow-Hw
    170    1     508     509     510  # Hw-Ow-Hw
    171    1     511     512     513  # Hw-Ow-Hw
    172    1     514     515     516  # Hw-Ow-Hw
    173    1     517     518     519  # Hw-Ow-Hw
    174    1     520     521     522  # Hw-Ow-Hw
    175    1     523     524     525  # Hw-Ow-Hw
    176    1     526     527     528  # Hw-Ow-Hw
    177    1     529     530     531  # Hw-Ow-Hw
    178    1     532     533     534  # Hw-Ow-Hw
    179    1     535     536     537  # Hw-Ow-Hw
    180    1     538     539     540  # Hw-Ow-Hw
    181    1     541     542     543  # Hw-Ow-Hw
    182    1     544     545     546  # Hw-Ow-Hw
    183    1     547     548     549  # Hw-Ow-Hw
    184    1     550     551     552  # Hw-Ow-Hw
    185    1     553     554     555  # Hw-Ow-Hw
    186    1     556     557     558  # Hw-Ow-Hw
    187    1     559     560     561  # Hw-Ow-Hw
    188    1     562     563     564  # Hw-Ow-Hw
    189    1     565     566     567  # Hw-Ow-Hw
    190    1     568     569     570  # Hw-Ow-Hw
    191    1     571     572     573  # Hw-Ow-Hw
    192    1     574     575     576  # Hw-Ow-Hw
    193    1     577     578     579  # Hw-Ow-Hw
    194    1     580     581     582  # Hw-Ow-Hw
    195    1     583     584     585  # Hw-Ow-Hw
    196    1     586     587     588  # Hw-Ow-Hw
    197    1     589     590     591  # Hw-Ow-Hw
    198    1     592     593     594  # Hw-Ow-Hw
    199    1     595     596     597  # Hw-Ow-Hw
    200    1     598     599     600  # Hw-Ow-Hw
    201    1     601     602     603  # Hw-Ow-Hw
    202    1     604     605     606  # Hw-Ow-Hw
    203    1     607     608     609  # Hw-Ow-Hw
    204    1     610     611     612  # Hw-Ow-Hw
    205    1     613     614     615  # Hw-Ow-Hw
    206    1     616     617     618  # Hw-Ow-Hw
    207    1     619     620     621  # Hw-Ow-Hw
    208    1     622     623     624  # Hw-Ow-Hw
    209    1     625     626     627  # Hw-Ow-Hw
    210    1     628     629     630  # Hw-Ow-Hw
    211    1     631     632     633  # Hw-Ow-Hw
    212    1     634     635     636  # Hw-Ow-Hw
    213    1     637     638     639  # Hw-Ow-Hw
    214    1     640     641     642  # Hw-Ow-Hw
    215    1     643     644     645  # Hw-Ow-Hw
    216    1     646     647     648  # Hw-Ow-Hw
    217    1     649     650     651  # Hw-Ow-Hw
    218    1     652     653     654  # Hw-Ow-Hw
    219    1     655     656     657  # Hw-Ow-Hw
    220    1     658     659     660  # Hw-Ow-Hw
    221    1     661     662     663  # Hw-Ow-Hw
    222    1     664     665     666  # Hw-Ow-Hw
    223    1     667     668     669  # Hw-Ow-Hw
    224    1     670     671     672  # Hw-Ow-Hw
    225    1     673     674     675  # Hw-Ow-Hw
    226    1     676     677     678  # Hw-Ow-Hw
    227    1     679     680     681  # Hw-Ow-Hw
    228    1     682     683     684  # Hw-Ow-Hw
    229    1     685     686     687  # Hw-Ow-Hw
    230    1     688     689     690  # Hw-Ow-Hw
    231    1     691     692     693  # Hw-Ow-Hw
    232    1     694     695     696  # Hw-Ow-Hw
    233    1     697     698     699  # Hw-Ow-Hw
    234    1     700     701     702  # Hw-Ow-Hw
    235    1     703     704     705  # Hw-Ow-Hw
    236    1     706     707     708  # Hw-Ow-Hw
    237    1     709     710     711  # Hw-Ow-Hw
    238    1     712     713     714  # Hw-Ow-Hw
    239    1     715     716     717  # Hw-Ow-Hw
    240    1     718     719     720  # Hw-Ow-Hw
    241    1     721     722     723  # Hw-Ow-Hw
    242    1     724     725     726  # Hw-Ow-Hw
    243    1     727     728     729  # Hw-Ow-Hw
    244    1     730     731     732  # Hw-Ow-Hw
    245    1     733     734     735  # Hw-Ow-Hw
    246    1     736     737     738  # Hw-Ow-Hw
    247    1     739     740     741  # Hw-Ow-Hw
    248    1     742     743     744  # Hw-Ow-Hw
    249    1     745     746     747  # Hw-Ow-Hw
    250    1     748     749     750  # Hw-Ow-Hw
    251    1     751     752     753  # Hw-Ow-Hw
    252    1     754     755     756  # Hw-Ow-Hw
    253    1     757     758     759  # Hw-Ow-Hw
    254    1     760     761     762  # Hw-Ow-Hw
    255    1     763     764     765  # Hw-Ow-Hw
    256    1     766     767     768  # Hw-Ow-Hw
    257    1     769     770     771  # Hw-Ow-Hw
    258    1     772     773     774  # Hw-Ow-Hw
    259    1     775     776     777  # Hw-Ow-Hw
    260    1     778     779     780  # Hw-Ow-Hw
    261    1     781     782     783  # Hw-Ow-Hw
    262    1     784     785     786  # Hw-Ow-Hw
    263    1     787     788     789  # Hw-Ow-Hw
    264    1     790     791     792  # Hw-Ow-Hw
    265    1     793     794     795  # Hw-Ow-Hw
    266    1     796     797     798  # Hw-Ow-Hw
    267    1     799     800     801  # Hw-Ow-Hw
    268    1     802     803     804  # Hw-Ow-Hw
    269    1     805     806     807  # Hw-Ow-Hw
    270    1     808     809     810  # Hw-Ow-Hw
    271    1     811     812     813  # Hw-Ow-Hw
    272    1     814     815     816  # Hw-Ow-Hw
    273    1     817     818     819  # Hw-Ow-Hw
    274    1     820     821     822  # Hw-Ow-Hw
    275    1     823     824     825  # Hw-Ow-Hw
    276    1     826     827     828  # Hw-Ow-Hw
    277    1     829     830     831  # Hw-Ow-Hw
    278    1     832     833     834  # Hw-Ow-Hw
    279    1     835     836     837  # Hw-Ow-Hw
    280    1     838     839     840  # Hw-Ow-Hw
    281    1     841     842     843  # Hw-Ow-Hw
    282    1     844     845     846  # Hw-Ow-Hw
    283    1     847     848     849  # Hw-Ow-Hw
    284    1     850     851     852  # Hw-Ow-Hw
    285    1     853     854     855  # Hw-Ow-Hw
    286    1     856     857     858  # Hw-Ow-Hw
    287    1     859     860     861  # Hw-Ow-Hw
    288    1     862     863     864  # Hw-Ow-Hw
    289    1     865     866     867  # Hw-Ow-Hw
    290    1     868     869     870  # Hw-Ow-Hw
    291    1     871     872     873  # Hw-Ow-Hw
    292    1     874     875     876  # Hw-Ow-Hw
    293    1     877     878     879  # Hw-Ow-Hw
    294    1     880     881     882  # Hw-Ow-Hw
    295    1     883     884     885  # Hw-Ow-Hw
    296    1     886     887     888  # Hw-Ow-Hw
    297    1     889     890     891  # Hw-Ow-Hw
    298    1     892     893     894  # Hw-Ow-Hw
    299    1     895     896     897  # Hw-Ow-Hw
    300    1     898     899     900  # Hw-Ow-Hw
    301    1     901     902     903  # Hw-Ow-Hw
    302    1     904     905     906  # Hw-Ow-Hw
    303    1     907     908     909  # Hw-Ow-Hw
    304    1     910     911     912  # Hw-Ow-Hw
    305    1     913     914     915  # Hw-Ow-Hw
    306    1     916     917     918  # Hw-Ow-Hw
    307    1     919     920     921  # Hw-Ow-Hw
    308    1     922     923     924  # Hw-Ow-Hw
    309    1     925     926     927  # Hw-Ow-Hw
    310    1     928     929     930  # Hw-Ow-Hw
    311    1     931     932     933  # Hw-Ow-Hw
    312    1     934     935     936  # Hw-Ow-Hw
    313    1     937     938     939  # Hw-Ow-Hw
    314    1     940     941     942  # Hw-Ow-Hw
    315    1     943     944     945  # Hw-Ow-Hw
    316    1     946     947     948  # Hw-Ow-Hw
    317    1     949     950     951  # Hw-Ow-Hw
    318    1     952     953     954  # Hw-Ow-Hw
    319    1     955     956     957  # Hw-Ow-Hw
    320    1     958     959     960  # Hw-Ow-Hw
    321    1     961     962     963  # Hw-Ow-Hw
    322    1     964     965     966  # Hw-Ow-Hw
    323    1     967     968     969  # Hw-Ow-Hw
    324    1     970     971     972  # Hw-Ow-Hw
    325    1     973     974     975  # Hw-Ow-Hw
    326    1     976     977     978  # Hw-Ow-Hw
    327    1     979     980     981  # Hw-Ow-Hw
    328    1     982     983     984  # Hw-Ow-Hw
    329    1     985     986     987  # Hw-Ow-Hw
    330    1     988     989     990  # Hw-Ow-Hw
    331    1     991     992     993  # Hw-Ow-Hw
    332    1     994     995     996  # Hw-Ow-Hw
    333    1     997     998     999  # Hw-Ow-Hw
    334    1    1000    1001    1002  # Hw-Ow-Hw
    335    1    1003    1004    1005  # Hw-Ow-Hw
    336    1    1006    1007    1008  # Hw-Ow-Hw
    337    1    1009    1010    1011  # Hw-Ow-Hw
    338    1    1012    1013    1014  # Hw-Ow-Hw
    339    1    1015    1016    1017  # Hw-Ow-Hw
    340    1    1018    1019    1020  # Hw-Ow-Hw
    341    1    1021    1022    1023  # Hw-Ow-Hw
    342    1    1024    1025    1026  # Hw-Ow-Hw
    343    1    1027    1028    1029  # Hw-Ow-Hw
    344    1    1030    1031    1032  # Hw-Ow-Hw
    345    1    1033    1034    1035  # Hw-Ow-Hw
    346    1    1036    1037    1038  # Hw-Ow-Hw
    347    1    1039    1040    1041  # Hw-Ow-Hw
    348    1    1042    1043    1044  # Hw-Ow-Hw
    349    1    1045    1046    1047  # Hw-Ow-Hw
    350    1    1048    1049    1050  # Hw-Ow-Hw
    351    1    1051    1052    1053  # Hw-Ow-Hw
    352    1    1054    1055    1056  # Hw-Ow-Hw
    353    1    1057    1058    1059  # Hw-Ow-Hw
    354    1    1060    1061    1062  # Hw-Ow-Hw
    355    1    1063    1064    1065  # Hw-Ow-Hw
    356    1    1066    1067    1068  # Hw-Ow-Hw
    357    1    1069    1070    1071  # Hw-Ow-Hw
    358    1    1072    1073    1074  # Hw-Ow-Hw
    359    1    1075    1076    1077  # Hw-Ow-Hw
    360    1    1078    1079    1080  # Hw-Ow-Hw
    361    1    1081    1082    1083  # Hw-Ow-Hw
    362    1    1084    1085    1086  # Hw-Ow-Hw
    363    1    1087    1088    1089  # Hw-Ow-Hw
    364    1    1090    1091    1092  # Hw-Ow-Hw
    365    1    1093    1094    1095  # Hw-Ow-Hw
    366    1    1096    1097    1098  # Hw-Ow-Hw
    367    1    1099    1100    1101  # Hw-Ow-Hw
    368    1    1102    1103    1104  # Hw-Ow-Hw
    369    1    1105    1106    1107  # Hw-Ow-Hw
    370    1    1108    1109    1110  # Hw-Ow-Hw
    371    1    1111    1112    1113  # Hw-Ow-Hw
    372    1    1114    1115    1116  # Hw-Ow-Hw
    373    1    1117    1118    1119  # Hw-Ow-Hw
    374    1    1120    1121    1122  # Hw-Ow-Hw
    375    1    1123    1124    1125  # Hw-Ow-Hw
    376    1    1126    1127    1128  # Hw-Ow-Hw
    377    1    1129    1130    1131  # Hw-Ow-Hw
    378    1    1132    1133    1134  # Hw-Ow-Hw
    379    1    1135    1136    1137  # Hw-Ow-Hw
    380    1    1138    1139    1140  # Hw-Ow-Hw
    381    1    1141    1142    1143  # Hw-Ow-Hw
    382    1    1144    1145    1146  # Hw-Ow-Hw
    383    1    1147    1148    1149  # Hw-Ow-Hw
    384    1    1150    1151    1152  # Hw-Ow-Hw
    385    1    1153    1154    1155  # Hw-Ow-Hw
    386    1    1156    1157    1158  # Hw-Ow-Hw
    387    1    1159    1160    1161  # Hw-Ow-Hw
    388    1    1162    1163    1164  # Hw-Ow-Hw
    389    1    1165    1166    1167  # Hw-Ow-Hw
    390    1    1168    1169    1170  # Hw-Ow-Hw
    391    1    1171    1172    1173  # Hw-Ow-Hw
    392    1    1174    1175    1176  # Hw-Ow-Hw
    393    1    1177    1178    1179  # Hw-Ow-Hw
    394    1    1180    1181    1182  # Hw-Ow-Hw
    395    1    1183    1184    1185  # Hw-Ow-Hw
    396    1    1186    1187    1188  # Hw-Ow-Hw
    397    1    1189    1190    1191  # Hw-Ow-Hw
    398    1    1192    1193    1194  # Hw-Ow-Hw
    399    1    1195    1196    1197  # Hw-Ow-Hw
    400    1    1198    1199    1200  # Hw-Ow-Hw
    401    1    1201    1202    1203  # Hw-Ow-Hw
    402    1    1204    1205    1206  # Hw-Ow-Hw
    403    1    1207    1208    1209  # Hw-Ow-Hw
    404    1    1210    1211    1212  # Hw-Ow-Hw
    405    1    1213    1214    1215  # Hw-Ow-Hw
    406    1    1216    1217    1218  # Hw-Ow-Hw
    407    1    1219    1220    1221  # Hw-Ow-Hw
    408    1    1222    1223    1224  # Hw-Ow-Hw
    409    1    1225    1226    1227  # Hw-Ow-Hw
    410    1    1228    1229    1230  # Hw-Ow-Hw
    411    1    1231    1232    1233  # Hw-Ow-Hw
    412    1    1234    1235    1236  # Hw-Ow-Hw
    413    1    1237    1238    1239  # Hw-Ow-Hw
    414    1    1240    1241    1242  # Hw-Ow-Hw
    415    1    1243    1244    1245  # Hw-Ow-Hw
    416    1    1246    1247    1248  # Hw-Ow-Hw
    417    1    1249    1250    1251  # Hw-Ow-Hw
    418    1    1252    1253    1254  # Hw-Ow-Hw
    419    1    1255    1256    1257  # Hw-Ow-Hw
    420    1    1258    1259    1260  # Hw-Ow-Hw
    421    1    1261    1262    1263  # Hw-Ow-Hw
    422    1    1264    1265    1266  # Hw-Ow-Hw
    423    1    1267    1268    1269  # Hw-Ow-Hw
    424    1    1270    1271    1272  # Hw-Ow-Hw
    425    1    1273    1274    1275  # Hw-Ow-Hw
    426    1    1276    1277    1278  # Hw-Ow-Hw
    427    1    1279    1280    1281  # Hw-Ow-Hw
    428    1    1282    1283    1284  # Hw-Ow-Hw
    429    1    1285    1286    1287  # Hw-Ow-Hw
    430    1    1288    1289    1290  # Hw-Ow-Hw
    431    1    1291    1292    1293  # Hw-Ow-Hw
    432    1    1294    1295    1296  # Hw-Ow-Hw
    433    1    1297    1298    1299  # Hw-Ow-Hw
    434    1    1300    1301    1302  # Hw-Ow-Hw
    435    1    1303    1304    1305  # Hw-Ow-Hw
    436    1    1306    1307    1308  # Hw-Ow-Hw
    437    1    1309    1310    1311  # Hw-Ow-Hw
    438    1    1312    1313    1314  # Hw-Ow-Hw
    439    1    1315    1316    1317  # Hw-Ow-Hw
    440    1    1318    1319    1320  # Hw-Ow-Hw
    441    1    1321    1322    1323  # Hw-Ow-Hw
    442    1    1324    1325    1326  # Hw-Ow-Hw
    443    1    1327    1328    1329  # Hw-Ow-Hw
    444    1    1330    1331    1332  # Hw-Ow-Hw
    445    1    1333    1334    1335  # Hw-Ow-Hw
    446    1    1336    1337    1338  # Hw-Ow-Hw
    447    1    1339    1340    1341  # Hw-Ow-Hw
    448    1    1342    1343    1344  # Hw-Ow-Hw
    449    1    1345    1346    1347  # Hw-Ow-Hw
    450    1    1348    1349    1350  # Hw-Ow-Hw
    451    1    1351    1352    1353  # Hw-Ow-Hw
    452    1    1354    1355    1356  # Hw-Ow-Hw
    453    1    1357    1358    1359  # Hw-Ow-Hw
    454    1    1360    1361    1362  # Hw-Ow-Hw
    455    1    1363    1364    1365  # Hw-Ow-Hw
    456    1    1366    1367    1368  # Hw-Ow-Hw
    457    1    1369    1370    1371  # Hw-Ow-Hw
    458    1    1372    1373    1374  # Hw-Ow-Hw
    459    1    1375    1376    1377  # Hw-Ow-Hw
    460    1    1378    1379    1380  # Hw-Ow-Hw
    461    1    1381    1382    1383  # Hw-Ow-Hw
    462    1    1384    1385    1386  # Hw-Ow-Hw
    463    1    1387    1388    1389  # Hw-Ow-Hw
    464    1    1390    1391    1392  # Hw-Ow-Hw
    465    1    1393    1394    1395  # Hw-Ow-Hw
    466    1    1396    1397    1398  # Hw-Ow-Hw
    467    1    1399    1400    1401  # Hw-Ow-Hw
    468    1    1402    1403    1404  # Hw-Ow-Hw
    469    1    1405    1406    1407  # Hw-Ow-Hw
    470    1    1408    1409    1410  # Hw-Ow-Hw
    471    1    1411    1412    1413  # Hw-Ow-Hw
    472    1    1414    1415    1416  # Hw-Ow-Hw
    473    1    1417    1418    1419  # Hw-Ow-Hw
    474    1    1420    1421    1422  # Hw-Ow-Hw
    475    1    1423    1424    1425  # Hw-Ow-Hw
    476    1    1426    1427    1428  # Hw-Ow-Hw
    477    1    1429    1430    1431  # Hw-Ow-Hw
    478    1    1432    1433    1434  # Hw-Ow-Hw
    479    1    1435    1436    1437  # Hw-Ow-Hw
    480    1    1438    1439    1440  # Hw-Ow-Hw
    481    1    1441    1442    1443  # Hw-Ow-Hw
    482    1    1444    1445    1446  # Hw-Ow-Hw
    483    1    1447    1448    1449  # Hw-Ow-Hw
    484    1    1450    1451    1452  # Hw-Ow-Hw
    485    1    1453    1454    1455  # Hw-Ow-Hw
    486    1    1456    1457    1458  # Hw-Ow-Hw
    487    1    1459    1460    1461  # Hw-Ow-Hw
    488    1    1462    1463    1464  # Hw-Ow-Hw
    489    1    1465    1466    1467  # Hw-Ow-Hw
    490    1    1468    1469    1470  # Hw-Ow-Hw
    491    1    1471    1472    1473  # Hw-Ow-Hw
    492    1    1474    1475    1476  # Hw-Ow-Hw
    493    1    1477    1478    1479  # Hw-Ow-Hw
    494    1    1480    1481    1482  # Hw-Ow-Hw
    495    1    1483    1484    1485  # Hw-Ow-Hw
    496    1    1486    1487    1488  # Hw-Ow-Hw
    497    1    1489    1490    1491  # Hw-Ow-Hw
    498    1    1492    1493    1494  # Hw-Ow-Hw
    499    1    1495    1496    1497  # Hw-Ow-Hw
    500    1    1498    1499    1500  # Hw-Ow-Hw
