LAMMPS (4 Jul 2026 - Development - patch_4Jul2026-178-gc4fe7a5bcf)
# =============================================================================
# SPC/E 体相水：粘度（Green–Kubo）+ 平动/转动扩散用轨迹
# -----------------------------------------------------------------------------
# 体系：约 500 个 SPC/E（data.lmp：type 1 = Hw，type 2 = Ow）
# 流程：最小化 → NVT+NPT 平衡共 500 ps → NPT 生产 2 ns
# 生产段：
#   1) fix ave/correlate 应力相关 → 粘度 η（GK）——全程 2 ns
#   2) 疏轨迹 result_traj_trans.*  → 质心 MSD → 平动 D（全程 2 ns）
#   3) 密轨迹 result_traj_rot.*    → 取向 / 角 MSD → 转动 D_r（仅开头短窗口）
# =============================================================================

# ----- 可调参数 -----
variable        myrand          equal   58938           # 速度初始化随机种子
variable        mytemp          equal   300.0           # 目标温度 [K]
variable        mypress         equal   1.0             # 目标压力 [atm]
variable        tdamp           equal   100.0           # 热浴耦合 [fs]
variable        pdamp           equal   1000.0          # 压浴耦合 [fs]

# 平衡 / 生产时长（timestep = 1 fs）
variable        nvt_steps       equal   100000          # NVT 平衡 100 ps
variable        npt_eq_steps    equal   400000          # NPT 平衡 400 ps（与上合计 500 ps）
variable        prod_steps      equal   2000000         # NPT 生产总长 2 ns
variable        rot_steps       equal   200000          # 密轨迹只写开头 200 ps（水转动衰减快）

# 轨迹间隔（步）；平动疏、转动密
variable        dump_trans_every equal  500             # 0.5 ps → 质心 MSD
variable        dump_rot_every   equal  20              # 20 fs  → 取向 / 角 MSD

# Green–Kubo 粘度：采样间隔 × 相关长度 = 相关时间窗
#   窗长 = corr_nevery * corr_nrepeat * dt = 5*400*1 fs = 2 ps
variable        corr_nevery     equal   5
variable        corr_nrepeat    equal   400
variable        corr_nfreq      equal   2000            # 须能被 nevery*nrepeat 整除
variable        prod_rest       equal   ${prod_steps}-${rot_steps}
variable        prod_rest       equal   2000000-${rot_steps}
variable        prod_rest       equal   2000000-200000

# ----- 基本设置 -----
units           real
boundary        p p p

atom_style      full
bond_style      harmonic
angle_style     harmonic
special_bonds   lj 0.0 0.0 0.5 coul 0.0 0.0 0.8333

pair_style      lj/cut/coul/long  10.0  10.0
pair_modify     mix arithmetic  shift yes
kspace_style    pppm  1.0e-5

read_data       data.lmp
Reading data file ...
  orthogonal box = (-15 -15 -15) to (15 15 15)
  1 by 2 by 2 MPI processor grid
  reading atoms ...
  1500 atoms
  scanning bonds ...
  1 = max bonds/atom
  scanning angles ...
  1 = max angles/atom
  orthogonal box = (-15 -15 -15) to (15 15 15)
  1 by 2 by 2 MPI processor grid
  reading bonds ...
  1000 bonds
  reading angles ...
  500 angles
Finding 1-2 1-3 1-4 neighbors ...
  special bond factors lj:    0        0        0.5     
  special bond factors coul:  0        0        0.8333  
     2 = max # of 1-2 neighbors
     1 = max # of 1-3 neighbors
     1 = max # of 1-4 neighbors
     2 = max # of special neighbors
  special bonds CPU = 0.000 seconds
  read_data CPU = 0.011 seconds

# LJ：ε [kcal/mol]，σ [Å]
pair_coeff      1  1    0.000000    0.000000            # Hw
pair_coeff      2  2    0.155300    3.166000            # Ow

neighbor        2.0  bin
neigh_modify    delay 0  every 1  check yes

timestep        1.0                                     # [fs]

# ----- 能量最小化 -----
minimize        0.0  1.0e-8  1000  100000
PPPM initialization ...
  using 12-bit tables for long-range coulomb
  G vector (1/distance) = 0.2987938
  grid = 24 24 24
  stencil order = 5
  estimated absolute RMS force accuracy = 0.0033349308
  estimated relative force accuracy = 1.0043045e-05
  using double precision KISS FFT
  3d grid and FFT values/proc = 11191 3456
Generated 1 of 1 mixed pair_coeff terms from arithmetic mixing rule
Neighbor list info ...
  update: every = 1 steps, delay = 0 steps, check = yes
  max neighbors/atom: 2000, page size: 100000
  master list distance cutoff = 12
  ghost atom cutoff = 12
  binsize = 6, bins = 5 5 5
  1 neighbor lists, perpetual/occasional/extra = 1 0 0
  (1) pair lj/cut/coul/long, perpetual
      attributes: half, newton on
      pair build: half/bin/newton
      stencil: half/bin/3d
      bin: standard
Per MPI rank memory allocation (min/avg/max) = 9.02 | 9.026 | 9.033 Mbytes
   Step          Temp          E_pair         E_mol          TotEng         Press     
         0   0             -53.506787      1.1064287e-07 -53.506787      3785.2188    
      1000   0             -7223.3645      568.53091     -6654.8336     -507.10186    
Loop time of 2.43026 on 4 procs for 1000 steps with 1500 atoms

99.7% CPU use with 4 MPI tasks x no OpenMP threads

Minimization stats:
  Stopping criterion = max iterations
  Energy initial, next-to-last, final = 
     -53.5067870279672  -6654.78341664297  -6654.83358253125
  Force two-norm initial, final = 490.28785 11.967716
  Force max component initial, final = 41.761265 1.7607625
  Final line search alpha, max atom move = 0.024486972 0.043115741
  Iterations, force evaluations = 1000 1936

MPI task timing breakdown:
Section |  min time  |  avg time  |  max time  |%varavg| %total
---------------------------------------------------------------
Pair    | 1.0624     | 1.3331     | 1.512      |  16.2 | 54.85
Bond    | 0.0054414  | 0.0059143  | 0.0066946  |   0.7 |  0.24
Kspace  | 0.81273    | 0.99182    | 1.2625     |  18.8 | 40.81
Neigh   | 0.034114   | 0.034159   | 0.034201   |   0.0 |  1.41
Comm    | 0.050744   | 0.051977   | 0.05324    |   0.4 |  2.14
Output  | 1.5916e-05 | 1.8469e-05 | 2.6125e-05 |   0.0 |  0.00
Modify  | 0          | 0          | 0          |   0.0 |  0.00
Other   |            | 0.01331    |            |       |  0.55

Nlocal:            375 ave         426 max         347 min
Histogram: 2 0 0 1 0 0 0 0 0 1
Nghost:        4347.25 ave        4543 max        4114 min
Histogram: 1 0 0 1 0 0 0 0 1 1
Neighs:        85856.2 ave       98498 max       66101 min
Histogram: 1 0 0 0 0 1 0 0 1 1

Total # of neighbors = 343425
Ave neighs/atom = 228.95
Ave special neighs/atom = 2
Neighbor list builds = 28
Dangerous builds = 0
reset_timestep  0

# SPC/E：约束 O–H 键（bond type 1）与 H–O–H 角（angle type 1）
fix             myshake  all  shake  0.0001  20  0  b  1  a  1
Finding SHAKE clusters ...
       0 = # of size 2 clusters
       0 = # of size 3 clusters
       0 = # of size 4 clusters
     500 = # of frozen angles
  find clusters CPU = 0.000 seconds

# ----- 热力学输出 -----
thermo_style    custom  step  time  temp  press  lx  ly  lz  density  vol
thermo_modify   flush yes
thermo          1000

# ----- 初始速度 -----
velocity        all  create  ${mytemp}  ${myrand}  dist gaussian  mom yes  rot yes
velocity        all  create  300  ${myrand}  dist gaussian  mom yes  rot yes
velocity        all  create  300  58938  dist gaussian  mom yes  rot yes

write_data      result_atoms.data  nofix
System init for write_data ...
PPPM initialization ...
  using 12-bit tables for long-range coulomb
  G vector (1/distance) = 0.2987938
  grid = 24 24 24
  stencil order = 5
  estimated absolute RMS force accuracy = 0.0033349308
  estimated relative force accuracy = 1.0043045e-05
  using double precision KISS FFT
  3d grid and FFT values/proc = 11191 3456
Generated 1 of 1 mixed pair_coeff terms from arithmetic mixing rule

# =============================================================================
# 平衡段：NVT 100 ps + NPT 400 ps = 500 ps（此阶段不写生产轨迹 / 不积粘度）
# =============================================================================

# ----- 1. NVT 平衡 -----
fix             mynvt  all  nvt  temp  ${mytemp}  ${mytemp}  ${tdamp}
fix             mynvt  all  nvt  temp  300  ${mytemp}  ${tdamp}
fix             mynvt  all  nvt  temp  300  300  ${tdamp}
fix             mynvt  all  nvt  temp  300  300  100
run             ${nvt_steps}
run             100000
PPPM initialization ...
  using 12-bit tables for long-range coulomb
  G vector (1/distance) = 0.2987938
  grid = 24 24 24
  stencil order = 5
  estimated absolute RMS force accuracy = 0.0033349308
  estimated relative force accuracy = 1.0043045e-05
  using double precision KISS FFT
  3d grid and FFT values/proc = 11191 3456
Generated 1 of 1 mixed pair_coeff terms from arithmetic mixing rule
Per MPI rank memory allocation (min/avg/max) = 8.773 | 8.875 | 9.156 Mbytes
   Step          Time           Temp          Press            Lx             Ly             Lz          Density         Volume    
         0   0              300            925.46425      30             30             30             0.55397423     27000        
      1000   1000           311.39782     -1052.5785      30             30             30             0.55397423     27000        
      2000   2000           298.31313     -557.21196      30             30             30             0.55397423     27000        
      3000   3000           308.12636     -977.46373      30             30             30             0.55397423     27000        
      4000   4000           298.27174     -523.5681       30             30             30             0.55397423     27000        
      5000   5000           285.52409     -349.37934      30             30             30             0.55397423     27000        
      6000   6000           291.32301     -499.27943      30             30             30             0.55397423     27000        
      7000   7000           318.57867     -916.59264      30             30             30             0.55397423     27000        
      8000   8000           299.84215     -456.43063      30             30             30             0.55397423     27000        
      9000   9000           300.87403     -250.67176      30             30             30             0.55397423     27000        
     10000   10000          315.59751     -194.63524      30             30             30             0.55397423     27000        
     11000   11000          308.37304     -803.84205      30             30             30             0.55397423     27000        
     12000   12000          291.45815     -891.08714      30             30             30             0.55397423     27000        
     13000   13000          287.5397      -440.07796      30             30             30             0.55397423     27000        
     14000   14000          308.73376     -125.08658      30             30             30             0.55397423     27000        
     15000   15000          292.29819     -361.08413      30             30             30             0.55397423     27000        
     16000   16000          299.90241     -642.0322       30             30             30             0.55397423     27000        
     17000   17000          308.4042      -354.53994      30             30             30             0.55397423     27000        
     18000   18000          293.3474      -374.67688      30             30             30             0.55397423     27000        
     19000   19000          303.71054     -248.32924      30             30             30             0.55397423     27000        
     20000   20000          288.41334     -270.37452      30             30             30             0.55397423     27000        
     21000   21000          310.70636     -113.84978      30             30             30             0.55397423     27000        
     22000   22000          315.91163     -195.29796      30             30             30             0.55397423     27000        
     23000   23000          291.14551     -56.11975       30             30             30             0.55397423     27000        
     24000   24000          296.84442     -544.00853      30             30             30             0.55397423     27000        
     25000   25000          287.41463     -708.12121      30             30             30             0.55397423     27000        
     26000   26000          305.73298     -218.91582      30             30             30             0.55397423     27000        
     27000   27000          302.00826     -653.13652      30             30             30             0.55397423     27000        
     28000   28000          288.69953     -978.37688      30             30             30             0.55397423     27000        
     29000   29000          288.45138     -852.68907      30             30             30             0.55397423     27000        
     30000   30000          311.60901     -910.32722      30             30             30             0.55397423     27000        
     31000   31000          296.36125      268.66151      30             30             30             0.55397423     27000        
     32000   32000          305.57011     -657.71627      30             30             30             0.55397423     27000        
     33000   33000          305.32793     -227.84995      30             30             30             0.55397423     27000        
     34000   34000          308.05291     -564.25782      30             30             30             0.55397423     27000        
     35000   35000          297.42647     -538.04427      30             30             30             0.55397423     27000        
     36000   36000          306.5166      -291.62799      30             30             30             0.55397423     27000        
     37000   37000          298.20149     -795.42728      30             30             30             0.55397423     27000        
     38000   38000          294.57789     -372.40032      30             30             30             0.55397423     27000        
     39000   39000          299.2811      -424.40828      30             30             30             0.55397423     27000        
     40000   40000          297.26686     -817.43065      30             30             30             0.55397423     27000        
     41000   41000          308.17522     -80.184273      30             30             30             0.55397423     27000        
     42000   42000          294.84526     -257.40259      30             30             30             0.55397423     27000        
     43000   43000          296.48505     -907.91478      30             30             30             0.55397423     27000        
     44000   44000          315.29143      249.92505      30             30             30             0.55397423     27000        
     45000   45000          302.22121     -408.19539      30             30             30             0.55397423     27000        
     46000   46000          302.98422     -799.79201      30             30             30             0.55397423     27000        
     47000   47000          298.23793     -426.50505      30             30             30             0.55397423     27000        
     48000   48000          312.11134     -637.37828      30             30             30             0.55397423     27000        
     49000   49000          291.94707     -414.74132      30             30             30             0.55397423     27000        
     50000   50000          298.83639     -106.15079      30             30             30             0.55397423     27000        
     51000   51000          297.54479     -803.20942      30             30             30             0.55397423     27000        
     52000   52000          301.90342     -876.64455      30             30             30             0.55397423     27000        
     53000   53000          295.26718     -145.37068      30             30             30             0.55397423     27000        
     54000   54000          285.96645     -1401.529       30             30             30             0.55397423     27000        
     55000   55000          302.28739     -823.79178      30             30             30             0.55397423     27000        
     56000   56000          298.47345     -925.4851       30             30             30             0.55397423     27000        
     57000   57000          298.72735     -564.78524      30             30             30             0.55397423     27000        
     58000   58000          293.3537       115.91117      30             30             30             0.55397423     27000        
     59000   59000          317.28864     -373.45988      30             30             30             0.55397423     27000        
     60000   60000          296.15321     -810.047        30             30             30             0.55397423     27000        
     61000   61000          293.54288     -859.12821      30             30             30             0.55397423     27000        
     62000   62000          308.1293      -929.33052      30             30             30             0.55397423     27000        
     63000   63000          288.49434     -461.97176      30             30             30             0.55397423     27000        
     64000   64000          284.50512      37.115674      30             30             30             0.55397423     27000        
     65000   65000          300.47586      141.27138      30             30             30             0.55397423     27000        
     66000   66000          288.37871     -195.98326      30             30             30             0.55397423     27000        
     67000   67000          301.51552     -335.02486      30             30             30             0.55397423     27000        
     68000   68000          285.93437     -0.35264367     30             30             30             0.55397423     27000        
     69000   69000          303.55683      214.63854      30             30             30             0.55397423     27000        
     70000   70000          302.69269      367.86225      30             30             30             0.55397423     27000        
     71000   71000          294.06675     -466.94014      30             30             30             0.55397423     27000        
     72000   72000          291.84611     -738.27279      30             30             30             0.55397423     27000        
     73000   73000          299.78497      185.29483      30             30             30             0.55397423     27000        
     74000   74000          300.28926     -881.26314      30             30             30             0.55397423     27000        
     75000   75000          297.50276     -529.28739      30             30             30             0.55397423     27000        
     76000   76000          293.96675     -464.12506      30             30             30             0.55397423     27000        
     77000   77000          293.2182      -501.52614      30             30             30             0.55397423     27000        
     78000   78000          298.76588     -295.34184      30             30             30             0.55397423     27000        
     79000   79000          298.71759     -94.840586      30             30             30             0.55397423     27000        
     80000   80000          293.66941      52.759184      30             30             30             0.55397423     27000        
     81000   81000          292.35985     -510.39892      30             30             30             0.55397423     27000        
     82000   82000          301.20154     -303.3779       30             30             30             0.55397423     27000        
     83000   83000          310.12022     -623.64078      30             30             30             0.55397423     27000        
     84000   84000          307.21967      42.956713      30             30             30             0.55397423     27000        
     85000   85000          312.59054     -368.25929      30             30             30             0.55397423     27000        
     86000   86000          289.62047     -604.06699      30             30             30             0.55397423     27000        
     87000   87000          289.67283     -617.47682      30             30             30             0.55397423     27000        
     88000   88000          300.33239      170.31996      30             30             30             0.55397423     27000        
     89000   89000          306.2136       110.73177      30             30             30             0.55397423     27000        
     90000   90000          301.91422      136.79835      30             30             30             0.55397423     27000        
     91000   91000          300.65934     -516.57999      30             30             30             0.55397423     27000        
     92000   92000          303.06888     -307.68689      30             30             30             0.55397423     27000        
     93000   93000          305.26088      548.68713      30             30             30             0.55397423     27000        
     94000   94000          282.61808     -260.74543      30             30             30             0.55397423     27000        
     95000   95000          298.41711     -215.65575      30             30             30             0.55397423     27000        
     96000   96000          301.67634     -460.6554       30             30             30             0.55397423     27000        
     97000   97000          305.0226      -2.2191782      30             30             30             0.55397423     27000        
     98000   98000          293.3792      -569.48839      30             30             30             0.55397423     27000        
     99000   99000          300.94777      347.86181      30             30             30             0.55397423     27000        
    100000   100000         300.32847     -112.69283      30             30             30             0.55397423     27000        
Loop time of 115.839 on 4 procs for 100000 steps with 1500 atoms

Performance: 74.586 ns/day, 0.322 hours/ns, 863.268 timesteps/s, 1.295 Matom-step/s
99.4% CPU use with 4 MPI tasks x no OpenMP threads

MPI task timing breakdown:
Section |  min time  |  avg time  |  max time  |%varavg| %total
---------------------------------------------------------------
Pair    | 47.925     | 52.978     | 61.806     |  74.2 | 45.73
Bond    | 0.00398    | 0.0044077  | 0.0047309  |   0.4 |  0.00
Kspace  | 42.528     | 50.664     | 55.383     |  70.2 | 43.74
Neigh   | 6.0201     | 6.0236     | 6.0291     |   0.1 |  5.20
Comm    | 2.6032     | 3.2572     | 3.559      |  21.6 |  2.81
Output  | 0.00091908 | 0.0022818  | 0.0063433  |   4.9 |  0.00
Modify  | 2.6775     | 2.7109     | 2.7352     |   1.5 |  2.34
Other   |            | 0.1986     |            |       |  0.17

Nlocal:            375 ave         396 max         348 min
Histogram: 1 0 0 1 0 0 0 0 1 1
Nghost:        3757.25 ave        3830 max        3672 min
Histogram: 1 0 0 1 0 0 0 0 1 1
Neighs:        96241.8 ave      101649 max       91765 min
Histogram: 1 0 1 0 0 1 0 0 0 1

Total # of neighbors = 384967
Ave neighs/atom = 256.64467
Ave special neighs/atom = 2
Neighbor list builds = 4384
Dangerous builds = 0
unfix           mynvt

# ----- 2. NPT 平衡（收密度）-----
fix             mynpt  all  npt  temp  ${mytemp}  ${mytemp}  ${tdamp}                  iso  ${mypress}  ${mypress}  ${pdamp}
fix             mynpt  all  npt  temp  300  ${mytemp}  ${tdamp}                  iso  ${mypress}  ${mypress}  ${pdamp}
fix             mynpt  all  npt  temp  300  300  ${tdamp}                  iso  ${mypress}  ${mypress}  ${pdamp}
fix             mynpt  all  npt  temp  300  300  100                  iso  ${mypress}  ${mypress}  ${pdamp}
fix             mynpt  all  npt  temp  300  300  100                  iso  1  ${mypress}  ${pdamp}
fix             mynpt  all  npt  temp  300  300  100                  iso  1  1  ${pdamp}
fix             mynpt  all  npt  temp  300  300  100                  iso  1  1  1000
run             ${npt_eq_steps}
run             400000
PPPM initialization ...
  using 12-bit tables for long-range coulomb
  G vector (1/distance) = 0.2987938
  grid = 24 24 24
  stencil order = 5
  estimated absolute RMS force accuracy = 0.0033349308
  estimated relative force accuracy = 1.0043045e-05
  using double precision KISS FFT
  3d grid and FFT values/proc = 11191 3456
Generated 1 of 1 mixed pair_coeff terms from arithmetic mixing rule
Per MPI rank memory allocation (min/avg/max) = 9.154 | 9.161 | 9.169 Mbytes
   Step          Time           Temp          Press            Lx             Ly             Lz          Density         Volume    
    100000   100000         300.32847     -112.56518      30             30             30             0.55397423     27000        
    101000   101000         289.36275     -359.15556      29.639222      29.639222      29.639222      0.57445093     26037.566    
    102000   102000         306.04685      250.48658      29.077855      29.077855      29.077855      0.60836782     24585.956    
    103000   103000         297.30319      242.6388       28.557327      28.557327      28.557327      0.64224489     23289.098    
    104000   104000         297.23773      944.55077      27.997356      27.997356      27.997356      0.68155716     21945.781    
    105000   105000         290.17156     -184.36146      27.445904      27.445904      27.445904      0.72347027     20674.387    
    106000   106000         297.61819      580.50807      26.82255       26.82255       26.82255       0.77509177     19297.463    
    107000   107000         301.04256      574.64838      25.970315      25.970315      25.970315      0.85392881     17515.868    
    108000   108000         304.11519     -1090.7968      25.48549       25.48549       25.48549       0.90359612     16553.086    
    109000   109000         300.70696     -464.13679      25.277214      25.277214      25.277214      0.92611666     16150.562    
    110000   110000         302.81794     -1254.2527      25.066636      25.066636      25.066636      0.94965352     15750.275    
    111000   111000         302.85601      497.10727      24.805519      24.805519      24.805519      0.97996004     15263.178    
    112000   112000         287.66586      205.48427      24.629193      24.629193      24.629193      1.0011583      14939.999    
    113000   113000         305.28698      446.37405      24.804487      24.804487      24.804487      0.98008237     15261.273    
    114000   114000         310.91899     -232.36894      24.870221      24.870221      24.870221      0.97233159     15382.925    
    115000   115000         304.34506     -255.92886      24.844792      24.844792      24.844792      0.9753202      15335.789    
    116000   116000         296.97552     -92.413989      24.786537      24.786537      24.786537      0.98221315     15228.165    
    117000   117000         297.27544      982.58357      24.638399      24.638399      24.638399      1.0000366      14956.757    
    118000   118000         303.74419      135.42973      24.68466       24.68466       24.68466       0.99442466     15041.164    
    119000   119000         293.86566     -741.54283      24.84307       24.84307       24.84307       0.97552308     15332.599    
    120000   120000         295.18714      298.89199      24.733638      24.733638      24.733638      0.98852886     15130.873    
    121000   121000         288.28025      638.8891       24.799619      24.799619      24.799619      0.98065968     15252.288    
    122000   122000         292.08842     -15.127212      24.681845      24.681845      24.681845      0.99476493     15036.019    
    123000   123000         314.69733     -559.77436      24.777107      24.777107      24.777107      0.98333506     15210.791    
    124000   124000         300.30621      775.8462       24.633383      24.633383      24.633383      1.0006476      14947.625    
    125000   125000         289.21886      622.38651      24.614021      24.614021      24.614021      1.0030108      14912.405    
    126000   126000         294.065        1246.7666      24.707211      24.707211      24.707211      0.9917042      15082.425    
    127000   127000         305.3792      -232.8284       24.806284      24.806284      24.806284      0.97986936     15264.59     
    128000   128000         291.07745     -270.47648      24.707834      24.707834      24.707834      0.9916292      15083.566    
    129000   129000         296.25545     -372.17329      24.647561      24.647561      24.647561      0.99892183     14973.448    
    130000   130000         296.75763      117.69004      24.629663      24.629663      24.629663      1.0011011      14940.853    
    131000   131000         306.10748     -38.92089       24.758028      24.758028      24.758028      0.9856102      15175.679    
    132000   132000         313.05239     -56.728669      24.821724      24.821724      24.821724      0.97804201     15293.11     
    133000   133000         307.51119     -403.96622      24.719454      24.719454      24.719454      0.99023142     15104.857    
    134000   134000         304.65597     -698.75241      24.741634      24.741634      24.741634      0.98757073     15145.552    
    135000   135000         296.62153      498.35543      24.654996      24.654996      24.654996      0.99801838     14987.003    
    136000   136000         295.33203      312.78617      24.63472       24.63472       24.63472       1.0004847      14950.058    
    137000   137000         300.2286       607.94531      24.719921      24.719921      24.719921      0.99017533     15105.713    
    138000   138000         305.51496     -141.35424      24.82806       24.82806       24.82806       0.97729339     15304.825    
    139000   139000         303.30258      723.94544      24.732546      24.732546      24.732546      0.98865978     15128.869    
    140000   140000         301.73612      325.44317      24.675603      24.675603      24.675603      0.99552006     15024.614    
    141000   141000         287.83522     -509.31211      24.82305       24.82305       24.82305       0.97788522     15295.562    
    142000   142000         297.05511      7.3395686      24.716775      24.716775      24.716775      0.99055349     15099.946    
    143000   143000         309.64012     -602.0869       24.666883      24.666883      24.666883      0.99657619     15008.691    
    144000   144000         304.6068      -627.69127      24.878304      24.878304      24.878304      0.97138418     15397.929    
    145000   145000         296.73166     -65.28098       24.759218      24.759218      24.759218      0.98546803     15177.869    
    146000   146000         306.93239     -512.79351      24.784147      24.784147      24.784147      0.98249739     15223.76     
    147000   147000         286.28344     -15.265634      24.792166      24.792166      24.792166      0.98154435     15238.542    
    148000   148000         296.2307       272.73575      24.635553      24.635553      24.635553      1.0003831      14951.576    
    149000   149000         299.00458     -182.24958      24.781904      24.781904      24.781904      0.98276416     15219.627    
    150000   150000         301.08783     -250.62903      24.904301      24.904301      24.904301      0.9683453      15446.251    
    151000   151000         298.27362     -659.24722      24.898667      24.898667      24.898667      0.96900281     15435.77     
    152000   152000         293.96717      267.67806      24.826916      24.826916      24.826916      0.97742851     15302.709    
    153000   153000         297.60918     -72.013298      24.759027      24.759027      24.759027      0.98549092     15177.516    
    154000   154000         316.76349      959.39852      24.775794      24.775794      24.775794      0.98349142     15208.373    
    155000   155000         290.53895     -269.80289      24.624705      24.624705      24.624705      1.0017059      14931.832    
    156000   156000         292.74016      884.55025      24.642546      24.642546      24.642546      0.99953182     14964.31     
    157000   157000         312.35156      1026.373       24.750145      24.750145      24.750145      0.98655219     15161.189    
    158000   158000         306.25776      97.091619      24.697482      24.697482      24.697482      0.9928766      15064.616    
    159000   159000         299.94341      1211.1653      24.676255      24.676255      24.676255      0.99544109     15025.806    
    160000   160000         305.27907      253.53283      24.894526      24.894526      24.894526      0.96948643     15428.07     
    161000   161000         295.38161     -277.59726      24.768975      24.768975      24.768975      0.9843039      15195.82     
    162000   162000         303.46441      441.93113      24.682526      24.682526      24.682526      0.99468258     15037.264    
    163000   163000         309.81113      124.67216      24.785096      24.785096      24.785096      0.98238455     15225.508    
    164000   164000         299.75241      145.56842      24.783948      24.783948      24.783948      0.98252102     15223.394    
    165000   165000         302.04657     -178.89414      24.71036       24.71036       24.71036       0.99132511     15088.193    
    166000   166000         297.81844     -952.17179      24.804577      24.804577      24.804577      0.98007171     15261.439    
    167000   167000         291.16069     -1038.6056      24.6926        24.6926        24.6926        0.99346564     15055.684    
    168000   168000         292.15985      1023.2417      24.818551      24.818551      24.818551      0.97841713     15287.247    
    169000   169000         288.22284     -293.91428      24.800825      24.800825      24.800825      0.98051659     15254.514    
    170000   170000         295.95424      440.31365      24.68716       24.68716       24.68716       0.99412256     15045.735    
    171000   171000         297.64757     -20.985702      24.691739      24.691739      24.691739      0.99356957     15054.109    
    172000   172000         298.69712     -252.66801      24.845551      24.845551      24.845551      0.97523085     15337.194    
    173000   173000         308.95895     -596.36004      24.865063      24.865063      24.865063      0.9729368      15373.357    
    174000   174000         311.0405       57.267871      24.722055      24.722055      24.722055      0.98991886     15109.627    
    175000   175000         299.36162      106.75395      24.723837      24.723837      24.723837      0.98970488     15112.893    
    176000   176000         306.39559      400.11309      24.912302      24.912302      24.912302      0.9674126      15461.143    
    177000   177000         302.35327     -119.54253      24.804435      24.804435      24.804435      0.98008854     15261.177    
    178000   178000         295.40835     -807.73733      24.82731       24.82731       24.82731       0.97738201     15303.437    
    179000   179000         312.79213     -618.44147      24.766097      24.766097      24.766097      0.98464713     15190.522    
    180000   180000         293.88036      28.800673      24.741628      24.741628      24.741628      0.98757144     15145.542    
    181000   181000         301.7654      -104.05471      24.818827      24.818827      24.818827      0.97838456     15287.756    
    182000   182000         284.44272      1286.0996      24.60577       24.60577       24.60577       1.0040202      14897.414    
    183000   183000         307.3927      -245.2182       24.753641      24.753641      24.753641      0.98613426     15167.614    
    184000   184000         283.26946     -471.05978      24.765758      24.765758      24.765758      0.98468761     15189.898    
    185000   185000         301.30978      486.94106      24.621224      24.621224      24.621224      1.0021308      14925.501    
    186000   186000         300.1168       937.82626      24.617657      24.617657      24.617657      1.0025665      14919.014    
    187000   187000         297.07127      591.23764      24.839269      24.839269      24.839269      0.97597102     15325.562    
    188000   188000         294.72324     -415.525        24.780441      24.780441      24.780441      0.98293821     15216.932    
    189000   189000         298.5527      -37.428301      24.676713      24.676713      24.676713      0.99538571     15026.642    
    190000   190000         304.15426      319.20655      24.638168      24.638168      24.638168      1.0000647      14956.337    
    191000   191000         303.446        197.65026      24.836532      24.836532      24.836532      0.97629363     15320.498    
    192000   192000         285.27673      1410.7879      24.618466      24.618466      24.618466      1.0024677      14920.485    
    193000   193000         302.18911     -179.57636      24.780232      24.780232      24.780232      0.98296309     15216.547    
    194000   194000         295.46256      583.13899      24.812748      24.812748      24.812748      0.97910379     15276.526    
    195000   195000         296.48054      478.80921      24.692397      24.692397      24.692397      0.99349018     15055.312    
    196000   196000         295.75308     -912.07098      24.651487      24.651487      24.651487      0.99844459     14980.605    
    197000   197000         305.8552       286.72778      24.585297      24.585297      24.585297      1.0065306      14860.259    
    198000   198000         320.2051       423.25358      24.646649      24.646649      24.646649      0.99903268     14971.787    
    199000   199000         303.62961     -768.32852      24.750948      24.750948      24.750948      0.9864562      15162.664    
    200000   200000         311.82934      208.87593      24.658351      24.658351      24.658351      0.99761105     14993.122    
    201000   201000         305.87037      550.58632      24.787822      24.787822      24.787822      0.98206043     15230.534    
    202000   202000         301.04402      242.14719      24.723037      24.723037      24.723037      0.98980095     15111.427    
    203000   203000         292.9282       42.290511      24.767302      24.767302      24.767302      0.98450343     15192.74     
    204000   204000         296.61882      163.10149      24.794588      24.794588      24.794588      0.98125672     15243.008    
    205000   205000         300.66299     -863.90652      24.750028      24.750028      24.750028      0.98656624     15160.973    
    206000   206000         291.67838     -184.34511      24.756382      24.756382      24.756382      0.98580679     15172.653    
    207000   207000         295.28322     -631.51405      24.822512      24.822512      24.822512      0.97794886     15294.567    
    208000   208000         310.51724     -400.20622      24.873626      24.873626      24.873626      0.9719323      15389.245    
    209000   209000         291.44607     -430.33667      24.826968      24.826968      24.826968      0.97742234     15302.806    
    210000   210000         304.8532       1029.1981      24.60669       24.60669       24.60669       1.0039076      14899.084    
    211000   211000         296.48993     -442.11901      24.770811      24.770811      24.770811      0.98408509     15199.198    
    212000   212000         291.91786      203.93531      24.700948      24.700948      24.700948      0.99245873     15070.958    
    213000   213000         297.87567      932.96285      24.713063      24.713063      24.713063      0.99099993     15093.144    
    214000   214000         295.10425      154.32859      24.775131      24.775131      24.775131      0.98357041     15207.152    
    215000   215000         297.56573     -658.80429      24.894641      24.894641      24.894641      0.96947301     15428.283    
    216000   216000         302.78616      210.23519      24.931523      24.931523      24.931523      0.96517686     15496.957    
    217000   217000         303.19684      637.87185      24.812962      24.812962      24.812962      0.97907842     15276.922    
    218000   218000         280.17755      147.13445      24.738822      24.738822      24.738822      0.98790749     15140.39     
    219000   219000         311.04244      426.02008      24.71462       24.71462       24.71462       0.9908126      15095.997    
    220000   220000         295.67424     -565.37345      24.828274      24.828274      24.828274      0.97726814     15305.22     
    221000   221000         293.58516     -566.31788      24.737848      24.737848      24.737848      0.9880242      15138.601    
    222000   222000         298.54459     -246.98229      24.583672      24.583672      24.583672      1.0067301      14857.313    
    223000   223000         295.56734     -428.06527      24.729612      24.729612      24.729612      0.98901171     15123.486    
    224000   224000         311.95329      1016.8653      24.579273      24.579273      24.579273      1.0072708      14849.337    
    225000   225000         304.46152      859.58229      24.63202       24.63202       24.63202       1.0008137      14945.144    
    226000   226000         297.84835     -486.57596      24.631373      24.631373      24.631373      1.0008926      14943.966    
    227000   227000         314.47575     -316.05197      24.748133      24.748133      24.748133      0.9867929      15157.491    
    228000   228000         297.22899     -208.89924      24.65415       24.65415       24.65415       0.99812106     14985.461    
    229000   229000         295.84475      685.44324      24.8013        24.8013        24.8013        0.98046026     15255.391    
    230000   230000         288.94848     -446.26325      24.723479      24.723479      24.723479      0.98974791     15112.236    
    231000   231000         308.34844     -181.7642       24.604243      24.604243      24.604243      1.0042072      14894.64     
    232000   232000         297.90813     -499.39401      24.650327      24.650327      24.650327      0.99858556     14978.49     
    233000   233000         306.35239      342.01642      24.574488      24.574488      24.574488      1.0078592      14840.668    
    234000   234000         300.30046      403.02016      24.545638      24.545638      24.545638      1.0114172      14788.461    
    235000   235000         313.38234      46.867431      24.62521       24.62521       24.62521       1.0016442      14932.752    
    236000   236000         299.29212      241.06671      24.71086       24.71086       24.71086       0.99126489     15089.109    
    237000   237000         293.41073      295.71326      24.54          24.54          24.54          1.0121146      14778.272    
    238000   238000         307.0429       378.47458      24.77825       24.77825       24.77825       0.98319897     15212.897    
    239000   239000         295.78175      19.131517      24.765341      24.765341      24.765341      0.98473735     15189.131    
    240000   240000         308.83458     -388.4748       24.78393       24.78393       24.78393       0.98252319     15223.36     
    241000   241000         294.40491      189.74517      24.749982      24.749982      24.749982      0.98657175     15160.889    
    242000   242000         294.64913     -860.04011      24.632434      24.632434      24.632434      1.0007633      14945.896    
    243000   243000         297.85865      598.87249      24.464471      24.464471      24.464471      1.0215176      14642.238    
    244000   244000         286.49548      801.38383      24.467167      24.467167      24.467167      1.0211799      14647.08     
    245000   245000         317.22805     -327.42581      24.698622      24.698622      24.698622      0.99273912     15066.702    
    246000   246000         303.15025      1583.494       24.653529      24.653529      24.653529      0.99819652     14984.328    
    247000   247000         305.20211      468.51062      24.813086      24.813086      24.813086      0.97906381     15277.15     
    248000   248000         311.61777      216.09244      24.906117      24.906117      24.906117      0.96813356     15449.629    
    249000   249000         290.96549     -306.41973      24.688912      24.688912      24.688912      0.99391094     15048.938    
    250000   250000         302.71738     -395.54824      24.697813      24.697813      24.697813      0.99283678     15065.22     
    251000   251000         309.96315     -244.9007       24.728756      24.728756      24.728756      0.98911443     15121.915    
    252000   252000         317.91409     -357.93822      24.915148      24.915148      24.915148      0.96708112     15466.442    
    253000   253000         293.9126      -635.79335      24.660076      24.660076      24.660076      0.99740168     14996.269    
    254000   254000         298.60939     -190.60139      24.755722      24.755722      24.755722      0.98588568     15171.439    
    255000   255000         307.5225       469.38502      24.752557      24.752557      24.752557      0.98626392     15165.621    
    256000   256000         301.84374     -26.533405      24.770151      24.770151      24.770151      0.98416378     15197.983    
    257000   257000         287.33428     -302.48058      24.759553      24.759553      24.759553      0.98542805     15178.484    
    258000   258000         296.26102      473.49396      24.673486      24.673486      24.673486      0.99577628     15020.748    
    259000   259000         294.4424      -536.55557      24.725735      24.725735      24.725735      0.98947694     15116.375    
    260000   260000         303.20455     -821.7593       24.818013      24.818013      24.818013      0.9784808      15286.252    
    261000   261000         288.16792      199.29167      24.803118      24.803118      24.803118      0.98024463     15258.747    
    262000   262000         302.71637     -353.96025      24.779095      24.779095      24.779095      0.98309844     15214.452    
    263000   263000         307.24366      336.40898      24.601405      24.601405      24.601405      1.0045548      14889.486    
    264000   264000         305.93647      445.72128      24.731824      24.731824      24.731824      0.9887463      15127.545    
    265000   265000         286.2325      -575.29178      24.717658      24.717658      24.717658      0.99044729     15101.565    
    266000   266000         290.6236      -533.82161      24.840932      24.840932      24.840932      0.975775       15328.641    
    267000   267000         308.569       -247.7594       24.823044      24.823044      24.823044      0.97788602     15295.55     
    268000   268000         299.7775       757.51789      24.702379      24.702379      24.702379      0.99228624     15073.578    
    269000   269000         304.27341      999.80258      24.643402      24.643402      24.643402      0.99942766     14965.87     
    270000   270000         292.9931       229.9512       24.751708      24.751708      24.751708      0.98636541     15164.06     
    271000   271000         293.43833      138.06645      24.771363      24.771363      24.771363      0.98401936     15200.213    
    272000   272000         308.07483     -427.15578      24.800232      24.800232      24.800232      0.98058692     15253.42     
    273000   273000         300.81493     -818.32748      24.864339      24.864339      24.864339      0.97302175     15372.014    
    274000   274000         293.77642      274.4277       24.781705      24.781705      24.781705      0.98278787     15219.26     
    275000   275000         301.35316      835.66077      24.736218      24.736218      24.736218      0.98821953     15135.609    
    276000   276000         308.28992     -172.70439      24.67924       24.67924       24.67924       0.99507995     15031.259    
    277000   277000         302.20685      198.98501      24.726863      24.726863      24.726863      0.98934159     15118.443    
    278000   278000         305.27864      761.40091      24.647196      24.647196      24.647196      0.99896616     14972.784    
    279000   279000         299.63681      467.30276      24.638808      24.638808      24.638808      0.99998679     14957.502    
    280000   280000         306.21689      52.78033       24.793172      24.793172      24.793172      0.98142484     15240.397    
    281000   281000         309.91163      90.996883      24.802309      24.802309      24.802309      0.98034057     15257.253    
    282000   282000         301.87986      317.18091      24.71904       24.71904       24.71904       0.99028116     15104.099    
    283000   283000         304.39186      777.57251      24.853827      24.853827      24.853827      0.97425698     15352.525    
    284000   284000         304.49058      76.883919      24.768336      24.768336      24.768336      0.98438017     15194.642    
    285000   285000         296.78079     -86.506952      24.638751      24.638751      24.638751      0.99999374     14957.398    
    286000   286000         282.85449     -86.000431      24.672922      24.672922      24.672922      0.99584465     15019.716    
    287000   287000         306.4773       54.50906       24.777525      24.777525      24.777525      0.98328538     15211.56     
    288000   288000         295.86644     -389.73074      24.749527      24.749527      24.749527      0.98662609     15160.054    
    289000   289000         305.66367      319.60869      24.845613      24.845613      24.845613      0.9752236      15337.308    
    290000   290000         304.40092     -53.472996      24.655489      24.655489      24.655489      0.9979585      14987.902    
    291000   291000         288.746       -316.96825      24.833996      24.833996      24.833996      0.97659283     15315.804    
    292000   292000         292.64447     -1271.4542      24.857338      24.857338      24.857338      0.97384424     15359.031    
    293000   293000         290.61604      1036.3406      24.700989      24.700989      24.700989      0.9924538      15071.033    
    294000   294000         288.63269      603.47691      24.895444      24.895444      24.895444      0.96937922     15429.776    
    295000   295000         302.67682     -537.98061      24.734233      24.734233      24.734233      0.98845749     15131.965    
    296000   296000         302.34301     -426.38549      24.827681      24.827681      24.827681      0.97733817     15304.124    
    297000   297000         306.31221     -805.94011      24.7874        24.7874        24.7874        0.9821106      15229.756    
    298000   298000         307.92334     -888.2989       24.944208      24.944208      24.944208      0.96370509     15520.624    
    299000   299000         290.73732      453.26077      24.873966      24.873966      24.873966      0.97189245     15389.876    
    300000   300000         283.32797      1020.8163      24.709709      24.709709      24.709709      0.99140349     15087        
    301000   301000         304.24607      871.51959      24.666436      24.666436      24.666436      0.99663035     15007.876    
    302000   302000         305.87185     -424.91473      24.885548      24.885548      24.885548      0.97053611     15411.384    
    303000   303000         304.18441     -305.36768      24.807167      24.807167      24.807167      0.97976475     15266.22     
    304000   304000         296.35196     -146.28785      24.686178      24.686178      24.686178      0.99424116     15043.94     
    305000   305000         285.78063      854.50062      24.562387      24.562387      24.562387      1.0093497      14818.754    
    306000   306000         304.79344      344.79061      24.641474      24.641474      24.641474      0.99966222     14962.358    
    307000   307000         305.11409     -444.41982      24.722574      24.722574      24.722574      0.98985663     15110.577    
    308000   308000         304.73787      325.89867      24.845968      24.845968      24.845968      0.97518171     15337.966    
    309000   309000         296.45374     -666.09065      24.785154      24.785154      24.785154      0.98237762     15225.616    
    310000   310000         304.04031     -366.93945      24.813448      24.813448      24.813448      0.97902099     15277.818    
    311000   311000         307.28633     -607.6266       24.788645      24.788645      24.788645      0.98196263     15232.051    
    312000   312000         305.55592      490.50421      24.784947      24.784947      24.784947      0.98240224     15225.234    
    313000   313000         293.40493      77.621063      24.577025      24.577025      24.577025      1.0075472      14845.265    
    314000   314000         299.2699       1119.9218      24.729101      24.729101      24.729101      0.98907299     15122.549    
    315000   315000         306.27003      751.00096      24.62917       24.62917       24.62917       1.0011612      14939.956    
    316000   316000         295.9656       1326.3218      24.794207      24.794207      24.794207      0.98130192     15242.306    
    317000   317000         300.61924      56.819171      24.815456      24.815456      24.815456      0.97878328     15281.528    
    318000   318000         290.75968      497.57226      24.642356      24.642356      24.642356      0.99955484     14963.966    
    319000   319000         292.59974     -366.77271      24.830426      24.830426      24.830426      0.97701401     15309.201    
    320000   320000         302.13116     -80.547296      24.615802      24.615802      24.615802      1.0027931      14915.643    
    321000   321000         301.12661     -548.4722       24.76155       24.76155       24.76155       0.98518964     15182.157    
    322000   322000         291.12461      271.6265       24.710011      24.710011      24.710011      0.99136713     15087.553    
    323000   323000         303.70887      146.3785       24.734564      24.734564      24.734564      0.98841782     15132.572    
    324000   324000         302.63989     -580.79916      24.629697      24.629697      24.629697      1.0010969      14940.915    
    325000   325000         296.28328     -416.16829      24.841478      24.841478      24.841478      0.97571064     15329.652    
    326000   326000         317.88999     -574.98107      24.820447      24.820447      24.820447      0.97819298     15290.75     
    327000   327000         317.34547      267.94425      24.852419      24.852419      24.852419      0.97442251     15349.917    
    328000   328000         299.07833     -491.34526      24.791836      24.791836      24.791836      0.98158351     15237.934    
    329000   329000         303.3027       441.47472      24.72998       24.72998       24.72998       0.98896754     15124.161    
    330000   330000         297.06714      674.26008      24.692725      24.692725      24.692725      0.99345062     15055.911    
    331000   331000         302.01706     -392.95248      24.715724      24.715724      24.715724      0.99067979     15098.021    
    332000   332000         309.88382     -85.036517      24.881103      24.881103      24.881103      0.97105635     15403.127    
    333000   333000         299.76303     -750.83548      24.797462      24.797462      24.797462      0.9809156      15248.309    
    334000   334000         307.74907     -149.61852      24.822482      24.822482      24.822482      0.97795237     15294.512    
    335000   335000         302.402       -701.17704      24.899838      24.899838      24.899838      0.96886612     15437.947    
    336000   336000         299.05612     -930.9717       24.740339      24.740339      24.740339      0.98772576     15143.175    
    337000   337000         300.25305      637.79802      24.718119      24.718119      24.718119      0.9903919      15102.41     
    338000   338000         290.95609     -260.31863      24.767188      24.767188      24.767188      0.98451702     15192.53     
    339000   339000         291.99237     -788.71956      24.82096       24.82096       24.82096       0.97813227     15291.699    
    340000   340000         296.97481      1661.6107      24.724306      24.724306      24.724306      0.98964852     15113.754    
    341000   341000         297.16357      762.34248      24.628551      24.628551      24.628551      1.0012367      14938.83     
    342000   342000         298.8844      -56.034507      24.687633      24.687633      24.687633      0.99406549     15046.599    
    343000   343000         303.30102      145.96396      24.652151      24.652151      24.652151      0.99836392     14981.816    
    344000   344000         286.48319      767.90234      24.729395      24.729395      24.729395      0.98903768     15123.088    
    345000   345000         299.09958      119.59453      24.734586      24.734586      24.734586      0.98841509     15132.614    
    346000   346000         294.29354     -296.5727       24.795555      24.795555      24.795555      0.98114196     15244.791    
    347000   347000         288.92564     -182.83738      24.750744      24.750744      24.750744      0.98648064     15162.289    
    348000   348000         302.9553      -1033.1894      24.809525      24.809525      24.809525      0.97948542     15270.574    
    349000   349000         305.88525     -894.07101      24.647674      24.647674      24.647674      0.99890806     14973.655    
    350000   350000         304.87489     -424.86809      24.606018      24.606018      24.606018      1.0039898      14897.865    
    351000   351000         295.52845      4.5145783      24.890308      24.890308      24.890308      0.9699794      15420.229    
    352000   352000         296.76791     -303.16079      24.887775      24.887775      24.887775      0.97027562     15415.521    
    353000   353000         298.45177      51.671702      24.920487      24.920487      24.920487      0.96645976     15476.386    
    354000   354000         295.20459      547.38951      24.863734      24.863734      24.863734      0.97309284     15370.891    
    355000   355000         308.86459     -52.876625      24.705807      24.705807      24.705807      0.99187329     15079.854    
    356000   356000         296.36427     -316.84458      24.847203      24.847203      24.847203      0.97503637     15340.253    
    357000   357000         290.0368      -465.10682      24.894692      24.894692      24.894692      0.96946704     15428.378    
    358000   358000         303.21942     -1294.7495      24.82477       24.82477       24.82477       0.97768204     15298.741    
    359000   359000         319.62825     -386.38883      24.790973      24.790973      24.790973      0.98168604     15236.342    
    360000   360000         300.34991     -779.35418      24.900039      24.900039      24.900039      0.96884268     15438.321    
    361000   361000         293.46866      355.09274      24.622733      24.622733      24.622733      1.0019466      14928.245    
    362000   362000         300.27636     -258.61158      24.689428      24.689428      24.689428      0.99384865     15049.881    
    363000   363000         293.61389     -327.19533      24.765635      24.765635      24.765635      0.98470228     15189.672    
    364000   364000         299.92603     -287.5596       24.827735      24.827735      24.827735      0.97733175     15304.224    
    365000   365000         303.84035     -490.53647      24.72846       24.72846       24.72846       0.98914991     15121.373    
    366000   366000         293.85784     -776.66097      24.793263      24.793263      24.793263      0.98141399     15240.566    
    367000   367000         301.9567       118.74922      24.598056      24.598056      24.598056      1.0049651      14883.406    
    368000   368000         308.87905     -98.001451      24.637785      24.637785      24.637785      1.0001113      14955.639    
    369000   369000         299.31137     -42.16215       24.631889      24.631889      24.631889      1.0008297      14944.905    
    370000   370000         286.23552     -244.22202      24.666066      24.666066      24.666066      0.99667526     15007.199    
    371000   371000         294.55253     -174.51733      24.752463      24.752463      24.752463      0.98627513     15165.448    
    372000   372000         301.78758     -783.63891      24.911976      24.911976      24.911976      0.96745063     15460.535    
    373000   373000         301.47106      124.24558      24.872247      24.872247      24.872247      0.972094       15386.685    
    374000   374000         298.93542      63.481677      24.711687      24.711687      24.711687      0.99116547     15090.623    
    375000   375000         303.02077      230.90827      24.794719      24.794719      24.794719      0.98124116     15243.25     
    376000   376000         313.78898      369.48671      24.833443      24.833443      24.833443      0.97665798     15314.782    
    377000   377000         300.7546      -56.718154      24.802075      24.802075      24.802075      0.98036834     15256.821    
    378000   378000         303.89545      102.89379      24.786848      24.786848      24.786848      0.98217624     15228.738    
    379000   379000         303.19652      503.62576      24.606773      24.606773      24.606773      1.0038974      14899.236    
    380000   380000         282.77132     -1085.6579      24.628714      24.628714      24.628714      1.0012168      14939.127    
    381000   381000         307.669        320.56145      24.559631      24.559631      24.559631      1.0096895      14813.767    
    382000   382000         297.65635     -97.374285      24.598542      24.598542      24.598542      1.0049056      14884.289    
    383000   383000         298.51106     -153.18095      24.713696      24.713696      24.713696      0.99092375     15094.304    
    384000   384000         300.18804      547.73395      24.645689      24.645689      24.645689      0.99914936     14970.038    
    385000   385000         298.09171     -677.45465      24.652202      24.652202      24.652202      0.99835772     14981.909    
    386000   386000         294.99846      460.18092      24.613445      24.613445      24.613445      1.0030813      14911.358    
    387000   387000         309.17126      507.08984      24.76268       24.76268       24.76268       0.98505482     15184.235    
    388000   388000         292.62626     -816.36025      24.760266      24.760266      24.760266      0.98534289     15179.796    
    389000   389000         296.07353      230.47311      24.627361      24.627361      24.627361      1.0013819      14936.664    
    390000   390000         299.9644      -712.79755      24.746036      24.746036      24.746036      0.98704381     15153.638    
    391000   391000         298.56889     -83.310506      24.766443      24.766443      24.766443      0.98460589     15191.159    
    392000   392000         293.07563      603.82195      24.577186      24.577186      24.577186      1.0075274      14845.555    
    393000   393000         298.76423      456.41513      24.602385      24.602385      24.602385      1.0044346      14891.267    
    394000   394000         294.57581      1333.7852      24.598994      24.598994      24.598994      1.0048501      14885.11     
    395000   395000         300.22383      18.661555      24.707532      24.707532      24.707532      0.99166554     15083.013    
    396000   396000         307.35459      395.94591      24.667845      24.667845      24.667845      0.99645957     15010.448    
    397000   397000         295.14569      261.58114      24.645171      24.645171      24.645171      0.99921244     14969.093    
    398000   398000         300.44648      629.86284      24.780281      24.780281      24.780281      0.98295731     15216.637    
    399000   399000         294.34072      920.10154      24.736231      24.736231      24.736231      0.98821799     15135.632    
    400000   400000         306.64156      361.88459      24.708823      24.708823      24.708823      0.99151016     15085.377    
    401000   401000         296.54748     -16.65851       24.659193      24.659193      24.659193      0.99750884     14994.658    
    402000   402000         305.831       -320.21584      24.728936      24.728936      24.728936      0.98909283     15122.245    
    403000   403000         302.55664     -651.66978      24.812572      24.812572      24.812572      0.97912469     15276.2      
    404000   404000         293.8969       422.20372      24.669449      24.669449      24.669449      0.99626523     15013.376    
    405000   405000         288.30488     -1123.0552      24.806508      24.806508      24.806508      0.97984282     15265.004    
    406000   406000         295.44263     -665.39317      24.774517      24.774517      24.774517      0.98364352     15206.021    
    407000   407000         300.37102     -476.74326      24.589887      24.589887      24.589887      1.005967       14868.583    
    408000   408000         304.28248     -300.0727       24.746328      24.746328      24.746328      0.98700881     15154.175    
    409000   409000         304.0821       111.4831       24.731101      24.731101      24.731101      0.98883307     15126.218    
    410000   410000         305.30951      311.56958      24.761555      24.761555      24.761555      0.98518913     15182.165    
    411000   411000         304.26606      996.36296      24.648075      24.648075      24.648075      0.99885924     14974.387    
    412000   412000         296.29717      404.02542      24.793151      24.793151      24.793151      0.98142739     15240.358    
    413000   413000         314.79306      443.668        24.809697      24.809697      24.809697      0.97946509     15270.891    
    414000   414000         312.69623      58.846196      24.705641      24.705641      24.705641      0.99189332     15079.549    
    415000   415000         322.38581      492.28527      24.714437      24.714437      24.714437      0.99083465     15095.661    
    416000   416000         306.00251     -168.58009      24.666007      24.666007      24.666007      0.99668232     15007.093    
    417000   417000         304.95163      1336.4308      24.637474      24.637474      24.637474      1.0001492      14955.072    
    418000   418000         294.05927     -172.83384      24.87237       24.87237       24.87237       0.97207956     15386.914    
    419000   419000         310.78766     -1395.5915      24.986713      24.986713      24.986713      0.95879541     15600.1      
    420000   420000         293.45347     -447.71347      24.882744      24.882744      24.882744      0.97086428     15406.174    
    421000   421000         306.29915     -119.79758      24.824293      24.824293      24.824293      0.97773837     15297.86     
    422000   422000         291.71797     -919.0722       24.846583      24.846583      24.846583      0.97510936     15339.104    
    423000   423000         284.53912     -215.8382       24.69538       24.69538       24.69538       0.99313015     15060.77     
    424000   424000         304.25959     -723.50896      24.774568      24.774568      24.774568      0.98363752     15206.114    
    425000   425000         302.71233     -15.345333      24.779613      24.779613      24.779613      0.98303674     15215.407    
    426000   426000         281.69248     -675.87211      24.844227      24.844227      24.844227      0.97538679     15334.742    
    427000   427000         298.94463     -226.81951      24.588303      24.588303      24.588303      1.0061614      14865.71     
    428000   428000         293.89314     -419.62707      24.61964       24.61964       24.61964       1.0023242      14922.621    
    429000   429000         303.11352      205.97029      24.789524      24.789524      24.789524      0.98185817     15233.671    
    430000   430000         287.15693      687.75201      24.646926      24.646926      24.646926      0.998999       14972.292    
    431000   431000         299.46075     -963.33473      24.760646      24.760646      24.760646      0.98529759     15180.494    
    432000   432000         296.10233     -823.78024      24.620635      24.620635      24.620635      1.0022027      14924.43     
    433000   433000         288.63119     -137.93812      24.680258      24.680258      24.680258      0.99495679     15033.119    
    434000   434000         296.65268      847.15034      24.657012      24.657012      24.657012      0.99777357     14990.68     
    435000   435000         306.47332      885.28829      24.627568      24.627568      24.627568      1.0013565      14937.042    
    436000   436000         284.95337      258.7394       24.601273      24.601273      24.601273      1.0045709      14889.247    
    437000   437000         301.36228      272.05089      24.660806      24.660806      24.660806      0.99731311     14997.601    
    438000   438000         298.98859     -1871.1727      24.813366      24.813366      24.813366      0.97903069     15277.666    
    439000   439000         286.25936     -719.24906      24.740556      24.740556      24.740556      0.98769984     15143.573    
    440000   440000         294.4472      -15.905456      24.794797      24.794797      24.794797      0.98123185     15243.395    
    441000   441000         315.6947      -620.16618      24.747871      24.747871      24.747871      0.98682418     15157.01     
    442000   442000         305.90322     -142.94714      24.857565      24.857565      24.857565      0.97381757     15359.452    
    443000   443000         291.26827     -806.03784      24.847658      24.847658      24.847658      0.97498281     15341.095    
    444000   444000         294.79606     -631.33675      24.740325      24.740325      24.740325      0.98772747     15143.149    
    445000   445000         299.75972     -170.89082      24.779076      24.779076      24.779076      0.98310074     15214.417    
    446000   446000         295.32099     -236.62364      24.89544       24.89544       24.89544       0.9693797      15429.768    
    447000   447000         292.31304     -459.84179      24.633265      24.633265      24.633265      1.000662       14947.409    
    448000   448000         301.48283      2.8365001      24.764105      24.764105      24.764105      0.98488472     15186.858    
    449000   449000         295.94218     -622.08766      24.936486      24.936486      24.936486      0.96460069     15506.214    
    450000   450000         295.58044      242.92019      24.853286      24.853286      24.853286      0.97432058     15351.523    
    451000   451000         311.35474      150.75408      24.865451      24.865451      24.865451      0.9728913      15374.076    
    452000   452000         307.83705      1487.5846      24.708516      24.708516      24.708516      0.99154714     15084.814    
    453000   453000         301.01949     -770.24205      24.824781      24.824781      24.824781      0.97768076     15298.761    
    454000   454000         298.73305     -59.263789      24.740398      24.740398      24.740398      0.98771872     15143.283    
    455000   455000         294.47856      251.62584      24.591085      24.591085      24.591085      1.00582        14870.757    
    456000   456000         308.14354      207.30607      24.669011      24.669011      24.669011      0.99631831     15012.576    
    457000   457000         306.97003      983.64468      24.669925      24.669925      24.669925      0.99620758     15014.245    
    458000   458000         298.17737      476.51953      24.648677      24.648677      24.648677      0.99878607     14975.484    
    459000   459000         303.31371      72.940504      24.727047      24.727047      24.727047      0.98931947     15118.781    
    460000   460000         306.30767     -1097.4718      24.902542      24.902542      24.902542      0.96855055     15442.977    
    461000   461000         305.32221      453.20521      24.677501      24.677501      24.677501      0.99529033     15028.082    
    462000   462000         290.78601     -107.24802      24.616157      24.616157      24.616157      1.0027498      14916.288    
    463000   463000         305.601        569.37151      24.66833       24.66833       24.66833       0.99640083     15011.333    
    464000   464000         300.46159      545.45974      24.681302      24.681302      24.681302      0.99483058     15035.027    
    465000   465000         302.83367     -364.75558      24.78984       24.78984       24.78984       0.9818206      15234.254    
    466000   466000         303.73333     -272.60689      24.790452      24.790452      24.790452      0.98174795     15235.381    
    467000   467000         294.97806      9.6421926      24.772353      24.772353      24.772353      0.98390138     15202.036    
    468000   468000         308.31219      1442.701       24.537394      24.537394      24.537394      1.012437       14773.565    
    469000   469000         285.83825      563.17837      24.614875      24.614875      24.614875      1.0029064      14913.958    
    470000   470000         297.34532      94.055942      24.548147      24.548147      24.548147      1.0111072      14792.996    
    471000   471000         308.71669     -105.32319      24.587263      24.587263      24.587263      1.0062891      14863.824    
    472000   472000         305.99217     -1246.8892      24.775714      24.775714      24.775714      0.98350098     15208.225    
    473000   473000         306.5812      -171.34203      24.7673        24.7673        24.7673        0.98450369     15192.736    
    474000   474000         290.50326      430.4165       24.751883      24.751883      24.751883      0.98634445     15164.382    
    475000   475000         282.65047      397.0504       24.924978      24.924978      24.924978      0.96593742     15484.755    
    476000   476000         292.88005     -657.76814      24.82954       24.82954       24.82954       0.97711862     15307.563    
    477000   477000         312.37207     -1338.599       24.692933      24.692933      24.692933      0.99342552     15056.292    
    478000   478000         312.62571     -646.8028       24.771676      24.771676      24.771676      0.98398201     15200.79     
    479000   479000         303.01856     -925.85676      24.74935       24.74935       24.74935       0.98664731     15159.728    
    480000   480000         292.69933      423.60032      24.715765      24.715765      24.715765      0.9906749      15098.096    
    481000   481000         306.08541      34.950054      24.682615      24.682615      24.682615      0.99467179     15037.427    
    482000   482000         295.29811      1113.5952      24.751909      24.751909      24.751909      0.98634139     15164.429    
    483000   483000         295.9124       165.72191      24.698499      24.698499      24.698499      0.99275398     15066.476    
    484000   484000         307.16343      1269.451       24.588616      24.588616      24.588616      1.0061231      14866.277    
    485000   485000         295.18444      307.12732      24.608974      24.608974      24.608974      1.0036281      14903.234    
    486000   486000         300.13357      340.0916       24.547541      24.547541      24.547541      1.0111821      14791.9      
    487000   487000         313.1789       106.50075      24.762487      24.762487      24.762487      0.98507787     15183.88     
    488000   488000         300.61146      86.014903      24.836424      24.836424      24.836424      0.9763064      15320.297    
    489000   489000         311.57916      597.72857      24.754308      24.754308      24.754308      0.9860546      15168.84     
    490000   490000         303.83441      395.87528      24.85912       24.85912       24.85912       0.97363476     15362.336    
    491000   491000         298.35299     -589.22886      24.968083      24.968083      24.968083      0.96094328     15565.231    
    492000   492000         309.68494     -190.65552      24.740659      24.740659      24.740659      0.98768749     15143.762    
    493000   493000         306.60323     -318.01109      24.813161      24.813161      24.813161      0.97905492     15277.288    
    494000   494000         323.2384      -329.13054      24.817136      24.817136      24.817136      0.97858448     15284.633    
    495000   495000         299.46422     -963.86291      24.849136      24.849136      24.849136      0.97480876     15343.834    
    496000   496000         303.97982     -991.36974      24.77574       24.77574       24.77574       0.98349784     15208.274    
    497000   497000         306.28255     -935.9721       24.98344       24.98344       24.98344       0.95917233     15593.97     
    498000   498000         296.86049      180.10399      24.636622      24.636622      24.636622      1.000253       14953.521    
    499000   499000         293.50977     -795.03949      24.660683      24.660683      24.660683      0.99732808     14997.376    
    500000   500000         293.35466      284.23567      24.805441      24.805441      24.805441      0.97996926     15263.034    
Loop time of 614.596 on 4 procs for 400000 steps with 1500 atoms

Performance: 56.232 ns/day, 0.427 hours/ns, 650.834 timesteps/s, 976.251 katom-step/s
99.7% CPU use with 4 MPI tasks x no OpenMP threads

MPI task timing breakdown:
Section |  min time  |  avg time  |  max time  |%varavg| %total
---------------------------------------------------------------
Pair    | 327.8      | 329.89     | 332.01     |   8.3 | 53.68
Bond    | 0.018231   | 0.019958   | 0.022505   |   1.1 |  0.00
Kspace  | 177.15     | 179.33     | 181.49     |  11.5 | 29.18
Neigh   | 33.08      | 33.083     | 33.088     |   0.1 |  5.38
Comm    | 13.998     | 14.081     | 14.163     |   2.0 |  2.29
Output  | 0.0032936  | 0.0085219  | 0.024167   |   9.8 |  0.00
Modify  | 55.342     | 55.661     | 56.003     |   3.2 |  9.06
Other   |            | 2.516      |            |       |  0.41

Nlocal:            375 ave         382 max         367 min
Histogram: 1 0 0 0 1 0 1 0 0 1
Nghost:           6012 ave        6050 max        5972 min
Histogram: 1 0 1 0 0 0 0 1 0 1
Neighs:         133206 ave      137024 max      129925 min
Histogram: 1 0 0 1 1 0 0 0 0 1

Total # of neighbors = 532825
Ave neighs/atom = 355.21667
Ave special neighs/atom = 2
Neighbor list builds = 17330
Dangerous builds = 0

# 平衡结束：清零步数，再开生产输出
reset_timestep  0
write_data      result_atoms.eq.data  nofix
System init for write_data ...
PPPM initialization ...
  using 12-bit tables for long-range coulomb
  G vector (1/distance) = 0.31275913
  grid = 24 24 24
  stencil order = 5
  estimated absolute RMS force accuracy = 0.0018885609
  estimated relative force accuracy = 5.6873451e-06
  using double precision KISS FFT
  3d grid and FFT values/proc = 11191 3456
Generated 1 of 1 mixed pair_coeff terms from arithmetic mixing rule

# =============================================================================
# 生产段：继续 NPT 2 ns
#   - 疏轨迹全程 → 平动扩散（unwrap）
#   - 密轨迹仅开头 rot_steps → 转动扩散（控文件体积）
#   - 应力自相关全程 → 粘度（Green–Kubo）
# =============================================================================

# ----- 平动轨迹（疏，全程）：xsu/ysu/zsu 为 unwrap 分数坐标 -----
dump            dump_trans  all  custom  ${dump_trans_every}                  result_traj_trans.lammpstrj  id  mol  type  xsu  ysu  zsu
dump            dump_trans  all  custom  500                  result_traj_trans.lammpstrj  id  mol  type  xsu  ysu  zsu
dump_modify     dump_trans  sort id

# ----- 转动轨迹（密，短窗口）：取向衰减快，不必存满 2 ns -----
dump            dump_rot  all  custom  ${dump_rot_every}                  result_traj_rot.lammpstrj  id  mol  type  xsu  ysu  zsu
dump            dump_rot  all  custom  20                  result_traj_rot.lammpstrj  id  mol  type  xsu  ysu  zsu
dump_modify     dump_rot  sort id

# ----- Green–Kubo 粘度：非对角应力自相关 -----
#   η = (V / k_B T) ∫ <P_αβ(0) P_αβ(t)> dt ，三剪切分量平均
#   units real：P [atm]，V [Å³]，t [fs] → 换算到 Pa·s，再 ×1000 得 cP
variable        pxy             equal   pxy
variable        pxz             equal   pxz
variable        pyz             equal   pyz

fix             visc_corr  all  ave/correlate  ${corr_nevery}  ${corr_nrepeat}  ${corr_nfreq}                  v_pxy  v_pxz  v_pyz  type auto  file result_viscosity_correlate.dat                  ave running
fix             visc_corr  all  ave/correlate  5  ${corr_nrepeat}  ${corr_nfreq}                  v_pxy  v_pxz  v_pyz  type auto  file result_viscosity_correlate.dat                  ave running
fix             visc_corr  all  ave/correlate  5  400  ${corr_nfreq}                  v_pxy  v_pxz  v_pyz  type auto  file result_viscosity_correlate.dat                  ave running
fix             visc_corr  all  ave/correlate  5  400  2000                  v_pxy  v_pxz  v_pyz  type auto  file result_viscosity_correlate.dat                  ave running

variable        kB              equal   1.380649e-23    # [J/K]
variable        atm2Pa          equal   101325.0
variable        A3_to_m3        equal   1.0e-30
variable        fs_to_s         equal   1.0e-15
variable        convert         equal   ${atm2Pa}*${atm2Pa}*${A3_to_m3}*${fs_to_s}
variable        convert         equal   101325*${atm2Pa}*${A3_to_m3}*${fs_to_s}
variable        convert         equal   101325*101325*${A3_to_m3}*${fs_to_s}
variable        convert         equal   101325*101325*1e-30*${fs_to_s}
variable        convert         equal   101325*101325*1e-30*1e-15
# trap 积的是相关函数；再乘采样间隔 corr_nevery*dt 与单位换算
variable        scale           equal   vol*${convert}/(${kB}*${mytemp})*${corr_nevery}*dt
variable        scale           equal   vol*1.0266755625e-35/(${kB}*${mytemp})*${corr_nevery}*dt
variable        scale           equal   vol*1.0266755625e-35/(1.380649e-23*${mytemp})*${corr_nevery}*dt
variable        scale           equal   vol*1.0266755625e-35/(1.380649e-23*300)*${corr_nevery}*dt
variable        scale           equal   vol*1.0266755625e-35/(1.380649e-23*300)*5*dt
variable        eta_xy          equal   trap(f_visc_corr[3])*${scale}
variable        eta_xy          equal   trap(f_visc_corr[3])*1.89164470263451e-10
variable        eta_xz          equal   trap(f_visc_corr[4])*${scale}
variable        eta_xz          equal   trap(f_visc_corr[4])*1.89164470263451e-10
variable        eta_yz          equal   trap(f_visc_corr[5])*${scale}
variable        eta_yz          equal   trap(f_visc_corr[5])*1.89164470263451e-10
variable        viscosity_Pas   equal   (v_eta_xy+v_eta_xz+v_eta_yz)/3.0
variable        viscosity_cP    equal   v_viscosity_Pas*1000.0

# thermo 必须与 corr_nfreq 对齐：ave/correlate 只在 Nfreq 倍数步更新，
# 若 thermo 更密（如 1000）会报 Fix in variable not computed at compatible time
thermo_style    custom  step  time  temp  press  density  vol  v_viscosity_cP
WARNING: New thermo_style command, previous thermo_modify settings will be lost (src/output.cpp:1100)
thermo_modify   flush yes
thermo          ${corr_nfreq}
thermo          2000

# ----- 生产前段：疏+密轨迹同时开 -----
run             ${rot_steps}
run             200000
PPPM initialization ...
  using 12-bit tables for long-range coulomb
  G vector (1/distance) = 0.31275913
  grid = 24 24 24
  stencil order = 5
  estimated absolute RMS force accuracy = 0.0018885609
  estimated relative force accuracy = 5.6873451e-06
  using double precision KISS FFT
  3d grid and FFT values/proc = 11191 3456
Generated 1 of 1 mixed pair_coeff terms from arithmetic mixing rule
Per MPI rank memory allocation (min/avg/max) = 9.269 | 9.274 | 9.278 Mbytes
   Step          Time           Temp          Press         Density         Volume     v_viscosity_cP
         0   0              293.35466      243.40945      0.97996926     15263.034      0.028610851  
      2000   2000           293.7441       805.91669      0.98064654     15252.493      1.0182287    
      4000   4000           289.07081      443.15021      0.99138404     15087.296      0.2523477    
      6000   6000           302.68839      759.57919      0.99989157     14958.926      0.291452     
      8000   8000           296.87654      98.414707      0.97301785     15372.076      0.2448755    
     10000   10000          297.57878      674.44189      0.98718041     15151.541      0.4795249    
     12000   12000          297.47811     -91.37396       0.97903389     15277.617      0.50389903   
     14000   14000          304.9051      -446.97668      0.97158168     15394.799      0.48496048   
     16000   16000          285.01677      590.42989      0.97997151     15262.999      0.56799216   
     18000   18000          306.34629      422.27546      0.99681709     15005.064      0.60267224   
     20000   20000          308.71506     -217.02193      0.98593913     15170.616      0.82944136   
     22000   22000          286.93254      347.16356      0.98914979     15121.374      1.0547258    
     24000   24000          297.1629       24.036936      0.99293179     15063.778      0.96653348   
     26000   26000          295.95374     -793.46785      0.98525824     15181.1        0.99685222   
     28000   28000          309.09522      463.72563      0.99821807     14984.005      0.9372433    
     30000   30000          310.41588     -76.644587      0.97557301     15331.814      0.89280769   
     32000   32000          284.90864     -403.21174      0.95597859     15646.066      0.8554611    
     34000   34000          298.37585     -303.58764      0.9712096      15400.697      0.91903769   
     36000   36000          297.90911     -551.89757      0.99000421     15108.324      0.92170859   
     38000   38000          307.8819       137.15544      0.99670013     15006.825      0.89529314   
     40000   40000          290.48586     -164.60451      0.97749339     15301.694      0.87251588   
     42000   42000          293.5704       624.84686      0.98942532     15117.163      0.85301136   
     44000   44000          306.73876     -170.07096      0.99206973     15076.868      0.82164791   
     46000   46000          312.81199     -43.854517      0.97781648     15296.638      0.78890296   
     48000   48000          303.99        -74.851676      0.9837588      15204.239      0.85234937   
     50000   50000          293.10216     -385.58293      0.9852829      15180.721      0.82219463   
     52000   52000          288.94305     -1468.4146      0.98689172     15155.973      0.81820563   
     54000   54000          308.8957      -64.937803      0.96292397     15533.214      0.8149913    
     56000   56000          307.07329     -82.620906      0.98673858     15158.325      0.80839844   
     58000   58000          296.03857     -24.303732      0.98204616     15230.755      0.78442412   
     60000   60000          299.81151      842.85153      0.98452984     15192.332      0.78215553   
     62000   62000          301.97973     -568.3862       1.0035563      14904.3        0.76803093   
     64000   64000          288.98639      847.46644      1.0004318      14950.848      0.78259889   
     66000   66000          296.13713     -803.78165      0.983178       15213.221      0.78250306   
     68000   68000          303.02919     -338.32887      0.97012635     15417.893      0.77221102   
     70000   70000          300.04448      611.27226      0.99004695     15107.672      0.77559237   
     72000   72000          314.2479       537.11542      0.99549152     15025.044      0.79128637   
     74000   74000          292.9806       365.81913      0.98520825     15181.871      0.79414384   
     76000   76000          289.12598      641.27275      0.97939728     15271.948      0.77609844   
     78000   78000          312.34776      363.62423      0.98276332     15219.64       0.77263503   
     80000   80000          291.89699      375.63892      0.99252809     15069.905      0.76334276   
     82000   82000          293.10753      372.81501      0.96990731     15421.375      0.82222667   
     84000   84000          306.10518     -517.59922      0.9621838      15545.163      0.80279942   
     86000   86000          303.47728      703.35946      0.99126741     15089.071      0.8170873    
     88000   88000          312.53305      12.934097      0.99040836     15102.159      0.82452738   
     90000   90000          292.27729      201.94106      0.9838292      15203.152      0.82182511   
     92000   92000          319.70401      53.799694      0.98478456     15188.403      0.81902522   
     94000   94000          314.3274       400.24094      1.0041322      14895.752      0.81015467   
     96000   96000          291.26622     -966.10497      0.97861        15284.234      0.79284387   
     98000   98000          297.36072      1003.0577      0.9792703      15273.928      0.77820997   
    100000   100000         290.09785     -206.73375      0.98246913     15224.198      0.76551946   
    102000   102000         295.74518      826.86824      0.99802744     14986.867      0.75697863   
    104000   104000         302.48998      1011.6423      0.97994084     15263.477      0.79794289   
    106000   106000         304.5239       1059.7002      0.99256125     15069.402      0.81465545   
    108000   108000         294.68615     -173.29152      0.96361974     15521.999      0.8278585    
    110000   110000         304.34632      566.40672      0.98178909     15234.743      0.82170882   
    112000   112000         299.55063     -232.84497      0.991072       15092.046      0.80618003   
    114000   114000         298.29046     -574.96552      0.97089889     15405.625      0.84584059   
    116000   116000         297.62083      695.97784      0.99926275     14968.34       0.83516075   
    118000   118000         309.41081      68.932377      0.9655683      15490.675      0.85388034   
    120000   120000         311.67135     -429.64241      0.98158051     15237.98       0.84776561   
    122000   122000         295.82897      455.01686      0.98900351     15123.611      0.82642638   
    124000   124000         298.08048      111.57032      0.97157587     15394.891      0.82958772   
    126000   126000         292.12548     -600.08263      0.96957488     15426.662      0.8313599    
    128000   128000         292.85378      611.50923      0.99467849     15037.326      0.85037799   
    130000   130000         321.14421      776.96023      0.9892312      15120.13       0.85141422   
    132000   132000         284.67787      762.97341      1.0118334      14782.378      0.8414496    
    134000   134000         309.02013      328.91733      1.0010731      14941.271      0.84032272   
    136000   136000         295.54888     -658.29812      0.98928023     15119.381      0.83252221   
    138000   138000         297.95603     -1038.3805      0.96993099     15420.999      0.83316191   
    140000   140000         306.16412     -190.62451      0.9868522      15156.58       0.82259024   
    142000   142000         308.67469     -104.31343      0.97135556     15398.382      0.82082904   
    144000   144000         304.02114     -532.89216      0.96598612     15483.974      0.81662413   
    146000   146000         304.9994      -274.95503      0.98904416     15122.989      0.81172963   
    148000   148000         293.23868     -390.38812      1.0002646      14953.348      0.80226526   
    150000   150000         308.30961     -199.6509       0.9915802      15084.311      0.79632807   
    152000   152000         291.68315     -207.95567      0.98837821     15133.179      0.79681791   
    154000   154000         297.83519      219.37061      0.99638771     15011.53       0.78678101   
    156000   156000         299.28081      368.17665      0.98252079     15223.397      0.78221247   
    158000   158000         298.566        556.63392      1.0021275      14925.55       0.78249502   
    160000   160000         297.06195     -739.58172      1.001847       14929.729      0.78057358   
    162000   162000         289.89736     -38.030471      0.9901908      15105.477      0.78514938   
    164000   164000         310.93058      411.85924      1.0137649      14754.214      0.77769784   
    166000   166000         297.21379      448.31227      1.0097957      14812.208      0.77092953   
    168000   168000         292.82454      466.1261       1.0181638      14690.47       0.7730137    
    170000   170000         293.63398     -577.83951      0.97458982     15347.282      0.76977461   
    172000   172000         300.14097     -574.38055      0.97704885     15308.656      0.79116624   
    174000   174000         294.34775      135.88647      0.98748775     15146.825      0.78044738   
    176000   176000         303.91478     -202.48296      0.98423363     15196.904      0.77157645   
    178000   178000         294.28034      338.75421      0.99101234     15092.955      0.7653247    
    180000   180000         303.7605       516.97934      1.0081752      14836.017      0.77533091   
    182000   182000         297.17091     -849.38425      0.97545127     15333.728      0.7850975    
    184000   184000         293.62244      596.10517      0.98718005     15151.546      0.79077962   
    186000   186000         299.48028     -1085.0761      0.98054875     15254.014      0.78849044   
    188000   188000         316.46424     -129.25911      0.98865137     15128.998      0.7851688    
    190000   190000         293.43779     -238.17694      0.99056705     15099.739      0.79526215   
    192000   192000         296.49109     -8.797029       1.0040558      14896.885      0.79466256   
    194000   194000         290.65117     -41.114049      0.97843113     15287.028      0.78693936   
    196000   196000         289.91872     -285.40108      0.98615484     15167.298      0.77918102   
    198000   198000         298.5577      -195.60499      0.98425439     15196.584      0.8067793    
    200000   200000         299.02889      221.11652      0.97076456     15407.757      0.80502776   
Loop time of 329.791 on 4 procs for 200000 steps with 1500 atoms

Performance: 52.397 ns/day, 0.458 hours/ns, 606.444 timesteps/s, 909.666 katom-step/s
99.7% CPU use with 4 MPI tasks x no OpenMP threads

MPI task timing breakdown:
Section |  min time  |  avg time  |  max time  |%varavg| %total
---------------------------------------------------------------
Pair    | 184.91     | 185.87     | 186.78     |   5.8 | 56.36
Bond    | 0.0099947  | 0.010664   | 0.011305   |   0.4 |  0.00
Kspace  | 87.884     | 88.817     | 89.807     |   8.4 | 26.93
Neigh   | 16.398     | 16.4       | 16.402     |   0.0 |  4.97
Comm    | 6.9585     | 6.9958     | 7.0325     |   1.3 |  2.12
Output  | 2.3891     | 2.493      | 2.5837     |   4.7 |  0.76
Modify  | 27.815     | 28.054     | 28.166     |   2.6 |  8.51
Other   |            | 1.151      |            |       |  0.35

Nlocal:            375 ave         384 max         364 min
Histogram: 1 0 0 0 1 0 0 0 1 1
Nghost:        5910.25 ave        5973 max        5834 min
Histogram: 1 0 0 0 0 1 1 0 0 1
Neighs:         131894 ave      136628 max      128433 min
Histogram: 1 0 1 0 1 0 0 0 0 1

Total # of neighbors = 527575
Ave neighs/atom = 351.71667
Ave special neighs/atom = 2
Neighbor list builds = 8664
Dangerous builds = 0
undump          dump_rot

# ----- 生产后段：只保留疏轨迹 + 粘度，跑满 2 ns -----
run             ${prod_rest}
run             1800000
PPPM initialization ...
  using 12-bit tables for long-range coulomb
  G vector (1/distance) = 0.31253411
  grid = 24 24 24
  stencil order = 5
  estimated absolute RMS force accuracy = 0.0019063174
  estimated relative force accuracy = 5.7408184e-06
  using double precision KISS FFT
  3d grid and FFT values/proc = 11191 3456
Generated 1 of 1 mixed pair_coeff terms from arithmetic mixing rule
Per MPI rank memory allocation (min/avg/max) = 10.55 | 10.56 | 10.56 Mbytes
   Step          Time           Temp          Press         Density         Volume     v_viscosity_cP
    200000   200000         299.02889      296.0881       0.97076456     15407.757      0.80502776   
    202000   202000         294.72314     -836.36688      0.97944521     15271.201      0.79804116   
    204000   204000         289.93481     -245.36688      1.0078124      14841.358      0.78914946   
    206000   206000         301.69139     -110.25457      1.0022577      14923.611      0.78585634   
    208000   208000         295.87182     -581.56184      1.0041455      14895.556      0.79408314   
    210000   210000         306.83138      74.350866      0.98602828     15169.245      0.7965354    
    212000   212000         300.79299      205.13221      0.99588838     15019.057      0.79008887   
    214000   214000         296.97668     -288.81539      0.99054056     15100.143      0.78904586   
    216000   216000         291.22307      224.19766      0.9828195      15218.77       0.78655948   
    218000   218000         305.89502      1088.8185      1.0117139      14784.125      0.79014852   
    220000   220000         294.01396     -61.775131      1.0009845      14942.594      0.78144745   
    222000   222000         292.84541      242.02801      1.00755        14845.223      0.77787196   
    224000   224000         292.74318     -2041.3296      0.95869259     15601.773      0.77384108   
    226000   226000         297.60705      789.69674      0.98994819     15109.179      0.76908843   
    228000   228000         293.04941     -1.8078544      0.97323193     15368.695      0.76399805   
    230000   230000         301.18638     -956.85873      0.98360226     15206.659      0.76462445   
    232000   232000         313.67918     -738.11852      0.99449761     15040.061      0.76683352   
    234000   234000         302.31102     -54.757313      0.97654338     15316.579      0.77766672   
    236000   236000         301.88908     -444.62194      0.97004925     15419.118      0.79920722   
    238000   238000         311.06507     -137.96452      0.98686409     15156.397      0.80476161   
    240000   240000         299.15479      1073.8467      0.97730272     15304.679      0.79789893   
    242000   242000         316.96909      310.64857      0.97768888     15298.634      0.79047532   
    244000   244000         302.34837     -51.463325      0.97469275     15345.661      0.80262928   
    246000   246000         314.51915      351.87542      0.96387324     15517.916      0.809174     
    248000   248000         313.76428     -40.010638      0.99453095     15039.556      0.81018292   
    250000   250000         295.57373     -110.4918       0.98447545     15193.171      0.805477     
    252000   252000         291.1988       333.26875      1.0074924      14846.072      0.79986697   
    254000   254000         293.09721     -735.59336      0.99547877     15025.237      0.79225928   
    256000   256000         301.54031     -136.02818      0.99174676     15081.778      0.7883393    
    258000   258000         291.09613      773.44932      0.98455091     15192.007      0.78455745   
    260000   260000         305.63947     -6.5374674      0.97619966     15321.973      0.78100432   
    262000   262000         315.55052      460.41997      0.9885823      15130.055      0.78129058   
    264000   264000         306.96273     -730.91014      0.99121869     15089.813      0.77778457   
    266000   266000         300.33733     -97.795414      1.0028897      14914.206      0.77422961   
    268000   268000         282.12696      1021.3227      1.016951       14707.99       0.77688743   
    270000   270000         292.28471      846.51051      1.0024807      14920.291      0.77378884   
    272000   272000         287.59652      432.49423      0.99673627     15006.281      0.76989727   
    274000   274000         301.91565      386.46361      1.0081724      14836.059      0.76721948   
    276000   276000         294.84865     -669.11997      0.98235575     15225.955      0.76393225   
    278000   278000         300.25152      67.790029      0.99384929     15049.872      0.7620451    
    280000   280000         288.29182      1047.0406      0.9893639      15118.102      0.76483063   
    282000   282000         288.91861     -500.64286      0.97852779     15285.518      0.76795509   
    284000   284000         315.7448      -178.96845      0.98984624     15110.735      0.76103348   
    286000   286000         304.44005     -330.33631      0.99652716     15009.43       0.75817727   
    288000   288000         305.47264     -542.15974      0.98845209     15132.048      0.75448852   
    290000   290000         300.48095      999.67615      0.99680309     15005.275      0.74836218   
    292000   292000         298.12197     -820.44363      0.99785099     14989.517      0.74383815   
    294000   294000         296.73436     -486.90711      0.98951048     15115.862      0.73942192   
    296000   296000         289.90104      1005.7717      1.0015998      14933.413      0.73739676   
    298000   298000         291.08634      1628.2216      1.0077857      14841.752      0.73367499   
    300000   300000         303.41229     -850.51952      0.99979365     14960.391      0.74075732   
    302000   302000         301.06882     -973.43573      0.97014452     15417.604      0.7363664    
    304000   304000         291.8431       811.02071      0.99103837     15092.558      0.73816097   
    306000   306000         292.87966      841.49478      1.0001154      14955.578      0.73432372   
    308000   308000         300.58131     -527.434        0.97786104     15295.941      0.73524123   
    310000   310000         304.04809      608.37964      0.98606716     15168.647      0.72948565   
    312000   312000         290.72694      560.9951       0.98725896     15150.335      0.72567323   
    314000   314000         287.72157      782.39167      1.0046839      14887.573      0.72622539   
    316000   316000         294.10931     -680.44245      0.98736107     15148.768      0.72723557   
    318000   318000         297.99951     -864.19735      0.97570782     15329.696      0.7317198    
    320000   320000         305.99176      587.35449      0.9914725      15085.95       0.73457592   
    322000   322000         303.74379      369.57903      1.0007942      14945.434      0.7316268    
    324000   324000         305.52392      549.93921      1.0004562      14950.483      0.74399941   
    326000   326000         308.12895      480.21712      0.97821682     15290.377      0.74507148   
    328000   328000         315.19137     -337.47682      0.97392815     15357.708      0.74380562   
    330000   330000         316.58896      699.02065      0.99288069     15064.554      0.73905887   
    332000   332000         305.61585     -689.0062       0.9879557      15139.651      0.74315694   
    334000   334000         291.77096     -517.02364      0.99521224     15029.261      0.73960563   
    336000   336000         302.52848     -533.40523      0.98506166     15184.13       0.74399011   
    338000   338000         304.20766      139.95426      0.9813718      15241.221      0.74249203   
    340000   340000         297.93667     -221.64324      0.98081896     15249.812      0.75351306   
    342000   342000         285.62533     -282.59332      0.98513087     15183.063      0.75679061   
    344000   344000         297.41192      916.34243      1.0025044      14919.938      0.75302578   
    346000   346000         289.9906      -14.287285      1.0014236      14936.041      0.75247887   
    348000   348000         299.44916     -366.7637       0.98702892     15153.866      0.76037453   
    350000   350000         302.02381     -679.69582      0.97640253     15318.789      0.76700131   
    352000   352000         296.68709     -804.69508      0.99832871     14982.344      0.77177919   
    354000   354000         306.41203      302.04478      0.97766592     15298.993      0.76897388   
    356000   356000         296.21763      59.709168      0.98369728     15205.19       0.76393921   
    358000   358000         301.42743      28.300897      0.99638655     15011.548      0.76059235   
    360000   360000         292.20411     -57.64799       0.98802838     15138.537      0.7566666    
    362000   362000         288.79069     -115.59841      0.99240013     15071.848      0.75535759   
    364000   364000         286.51782      459.77042      0.99796353     14987.827      0.75391658   
    366000   366000         292.58326      1121.7845      0.98015807     15260.094      0.75366457   
    368000   368000         301.79514     -31.234841      0.98547733     15177.725      0.75303937   
    370000   370000         302.46859      175.63231      0.99054487     15100.077      0.76379352   
    372000   372000         298.63078      866.49114      0.99520919     15029.307      0.77264      
    374000   374000         296.01243      467.30384      0.99686503     15004.342      0.77288491   
    376000   376000         297.47631      136.69133      1.001838       14929.864      0.77705511   
    378000   378000         302.5457      -309.76407      0.99447431     15040.413      0.77450504   
    380000   380000         296.05668      526.54047      1.002795       14915.615      0.77388522   
    382000   382000         281.37612      1125.7489      0.96933291     15430.513      0.77169194   
    384000   384000         304.06023      87.60431       0.97773379     15297.931      0.76765381   
    386000   386000         299.80457     -447.42194      0.98408402     15199.215      0.76513351   
    388000   388000         294.26629     -88.208229      0.98017859     15259.775      0.76511279   
    390000   390000         308.55228     -7.9733563      0.97551505     15332.725      0.76753664   
    392000   392000         296.83434      258.07769      0.99391011     15048.951      0.76484433   
    394000   394000         308.96536      380.87609      0.991971       15078.369      0.76064954   
    396000   396000         293.13706      246.26536      0.99032335     15103.455      0.76294455   
    398000   398000         299.63135      500.16991      1.0032974      14908.146      0.76580015   
    400000   400000         297.88966      753.24067      1.0142517      14747.132      0.7693154    
    402000   402000         298.77414     -529.43046      0.99176854     15081.447      0.77203433   
    404000   404000         300.86758      194.31671      0.97603942     15324.488      0.77254745   
    406000   406000         304.94928     -624.81382      0.983182       15213.159      0.76970381   
    408000   408000         310.83471     -281.19201      0.99778589     14990.495      0.76776964   
    410000   410000         287.03061      177.51159      0.991682       15082.763      0.76312069   
    412000   412000         299.11693      581.35702      0.98768604     15143.784      0.76342379   
    414000   414000         304.78469      907.63861      1.0011292      14940.434      0.76364926   
    416000   416000         286.0394       433.34688      0.98450324     15192.743      0.76318345   
    418000   418000         298.84611      772.68718      1.0100535      14808.427      0.76061061   
    420000   420000         299.11221      544.19487      1.0210042      14649.601      0.75963946   
    422000   422000         297.80439     -44.211659      0.98615545     15167.289      0.7600842    
    424000   424000         311.37982      501.75803      0.97118745     15401.048      0.75884668   
    426000   426000         293.44824     -117.77301      0.97840245     15287.476      0.76180465   
    428000   428000         302.8261      -404.06441      0.96683956     15470.306      0.76548573   
    430000   430000         296.93133      545.17586      0.99538937     15026.586      0.76164392   
    432000   432000         308.70433     -1068.4208      0.95545877     15654.578      0.76133104   
    434000   434000         294.56848     -409.61303      0.98175941     15235.203      0.76226102   
    436000   436000         298.3792      -483.25782      0.97052012     15411.638      0.76100859   
    438000   438000         297.20988      1177.2387      1.0035109      14904.974      0.76014547   
    440000   440000         297.07583      388.92941      1.0133986      14759.547      0.76020985   
    442000   442000         295.45851      284.43256      0.98966162     15113.554      0.75859755   
    444000   444000         311.88769      354.15544      1.0045646      14889.34       0.75571137   
    446000   446000         299.17475      381.74498      1.0095333      14816.058      0.75357471   
    448000   448000         304.4871      -573.74907      0.97999199     15262.68       0.75160148   
    450000   450000         319.08829     -357.21462      0.97291558     15373.692      0.75064621   
    452000   452000         299.80495      91.142697      0.9940395      15046.992      0.7513465    
    454000   454000         297.95812      334.01231      0.97448107     15348.994      0.74959163   
    456000   456000         298.84766      248.88243      0.99887356     14974.172      0.74736074   
    458000   458000         303.03416      602.58039      0.97448663     15348.907      0.74374222   
    460000   460000         314.53967      24.459899      0.98601553     15169.441      0.74226836   
    462000   462000         305.2547      -399.61077      0.97977198     15266.107      0.74345529   
    464000   464000         307.46414     -1395.2801      0.98475906     15188.796      0.74732389   
    466000   466000         305.89963     -430.56348      0.95505399     15661.213      0.75520214   
    468000   468000         303.11932     -99.034017      0.98935548     15118.231      0.7539795    
    470000   470000         300.24322      750.22866      0.99359126     15053.78       0.75288821   
    472000   472000         300.03252     -385.78979      0.97645296     15317.998      0.74754113   
    474000   474000         311.40529      382.95339      0.98664772     15159.721      0.746061     
    476000   476000         298.2805      -164.90054      0.97753417     15301.055      0.74402199   
    478000   478000         290.36446     -857.69767      0.97477584     15344.353      0.74182676   
    480000   480000         302.69731     -80.82204       0.9653855      15493.608      0.74344411   
    482000   482000         301.34026      825.80564      1.000167       14954.807      0.74491472   
    484000   484000         286.75547      214.05737      0.98848715     15131.511      0.74131827   
    486000   486000         304.02342     -976.46967      0.97857756     15284.741      0.74067335   
    488000   488000         292.58253     -959.0018       0.97848977     15286.112      0.74266439   
    490000   490000         304.35877      480.30294      0.99625918     15013.467      0.74261783   
    492000   492000         297.49136     -360.52726      0.96678689     15471.149      0.74218232   
    494000   494000         313.30086     -821.87791      0.98068459     15251.901      0.7405688    
    496000   496000         294.00264     -263.01633      1.005036       14882.357      0.74357299   
    498000   498000         313.7034       265.4822       1.0025507      14919.25       0.7423014    
    500000   500000         305.77752     -1808.7558      0.97013098     15417.819      0.74284745   
    502000   502000         301.59014     -642.04998      0.9958374      15019.826      0.74110715   
    504000   504000         305.80575      173.98631      0.9957504      15021.138      0.73758912   
    506000   506000         301.1563      -281.53077      1.0007064      14946.746      0.73653701   
    508000   508000         296.24237      144.50842      0.9981524      14984.991      0.73649997   
    510000   510000         298.81039     -100.5415       0.99450161     15040          0.73882692   
    512000   512000         293.32924     -596.03586      0.97611165     15323.354      0.73818033   
    514000   514000         290.93326     -51.018059      0.98496071     15185.686      0.73600441   
    516000   516000         299.74125      703.48314      0.98912021     15121.827      0.734414     
    518000   518000         294.09123     -688.96157      0.9732689      15368.111      0.73374696   
    520000   520000         298.45637      295.0497       1.0030455      14911.89       0.73432718   
    522000   522000         307.35031      777.34676      0.97973435     15266.694      0.73361828   
    524000   524000         301.33452     -554.93901      0.99231342     15073.165      0.73366223   
    526000   526000         300.35608     -630.58431      0.99029765     15103.847      0.73376736   
    528000   528000         302.3675       367.20912      0.98466268     15190.283      0.73210129   
    530000   530000         303.47632     -58.990187      0.98315637     15213.556      0.72911595   
    532000   532000         300.51541      207.24319      1.0073104      14848.754      0.72681207   
    534000   534000         298.27499     -143.06695      0.97663161     15315.196      0.72840622   
    536000   536000         317.62527      397.97294      1.0071917      14850.504      0.72672794   
    538000   538000         297.10627      12.244983      0.97075437     15407.919      0.72483833   
    540000   540000         312.08381      207.00895      0.99518896     15029.612      0.72591956   
    542000   542000         300.1435      -58.608783      0.97711705     15307.587      0.72751926   
    544000   544000         300.84918     -227.46218      0.98687355     15156.252      0.72518058   
    546000   546000         287.9606       57.05977       0.99723154     14998.828      0.72305748   
    548000   548000         296.87564      1.4867067      0.97814545     15291.493      0.72565424   
    550000   550000         298.41204     -420.78258      0.96035956     15574.692      0.72308024   
    552000   552000         303.72862     -1176.4825      0.97130414     15399.198      0.72257808   
    554000   554000         290.20723      574.21863      1.0079184      14839.797      0.72170461   
    556000   556000         307.96682     -610.61339      0.97594506     15325.97       0.72194213   
    558000   558000         303.73962      474.61861      1.001142       14940.243      0.72330403   
    560000   560000         305.94683      242.55833      0.98968494     15113.198      0.72120161   
    562000   562000         302.3521      -487.98499      1.0084942      14831.324      0.72171635   
    564000   564000         307.51607      831.66925      1.0143681      14745.441      0.71932928   
    566000   566000         295.39404     -836.93167      0.99448428     15040.262      0.71816033   
    568000   568000         291.81022     -438.09675      0.98813806     15136.857      0.71657717   
    570000   570000         296.62785      408.57832      0.97931143     15273.287      0.71486524   
    572000   572000         290.15953     -891.75592      0.96470989     15504.458      0.71421672   
    574000   574000         302.91225     -1469.5877      0.98670429     15158.852      0.71287357   
    576000   576000         288.25892     -445.13004      0.98632221     15164.724      0.71612953   
    578000   578000         297.28341     -973.58332      0.98051277     15254.574      0.71437533   
    580000   580000         302.42327     -777.49781      1.0001421      14955.179      0.71278992   
    582000   582000         296.79963     -140.19607      1.0033832      14906.872      0.70999339   
    584000   584000         287.84972     -661.46799      0.98595317     15170.4        0.70757388   
    586000   586000         294.86212      232.65051      0.99729757     14997.835      0.70607765   
    588000   588000         290.17077     -72.200611      0.9869051      15155.768      0.70649714   
    590000   590000         302.22066     -39.571414      0.98349916     15208.253      0.71332154   
    592000   592000         309.28943      278.78217      0.9944706      15040.469      0.7148276    
    594000   594000         296.20271     -17.427819      0.98805325     15138.156      0.71441865   
    596000   596000         305.98104     -34.094518      0.99160108     15083.994      0.71561175   
    598000   598000         295.79134      818.87485      0.97611093     15323.365      0.71421354   
    600000   600000         296.30242     -311.45022      0.98881565     15126.484      0.71317649   
    602000   602000         312.5343      -295.85692      0.97173115     15392.431      0.71258317   
    604000   604000         302.24294     -492.67233      1.0011325      14940.385      0.71064338   
    606000   606000         287.73179      1878.8725      0.99526066     15028.53       0.70915918   
    608000   608000         305.06889      440.455        0.99291306     15064.063      0.70852846   
    610000   610000         319.83966      5.1416865      1.002613       14918.323      0.70805539   
    612000   612000         301.27684     -337.10736      0.99506515     15031.482      0.70534346   
    614000   614000         310.20686     -111.39752      0.996244       15013.696      0.70774016   
    616000   616000         301.31371      148.85216      0.9975925      14993.401      0.70736964   
    618000   618000         300.89983      830.41978      0.98844222     15132.199      0.70904194   
    620000   620000         295.28973     -223.86754      0.99495594     15033.132      0.70837639   
    622000   622000         292.32217     -508.76144      0.98044824     15255.578      0.70801443   
    624000   624000         299.07483     -34.950365      0.98665603     15159.593      0.70768723   
    626000   626000         287.76311      1453.938       0.99596398     15017.917      0.70840474   
    628000   628000         293.33168      187.23537      1.0020161      14927.21       0.70636857   
    630000   630000         303.05736      150.84         0.98385201     15202.799      0.70458717   
    632000   632000         297.79497     -934.25373      0.97531074     15335.937      0.70722389   
    634000   634000         288.72197     -512.07617      0.9858364      15172.197      0.70488864   
    636000   636000         312.96018     -167.55806      0.98988116     15110.202      0.70269963   
    638000   638000         304.57026     -425.42598      0.98584021     15172.139      0.70272506   
    640000   640000         303.83426     -387.18041      0.99627582     15013.216      0.70147785   
    642000   642000         305.50814      327.88087      0.98498722     15185.278      0.70385553   
    644000   644000         305.63342      105.06047      0.98729199     15149.828      0.70257069   
    646000   646000         290.33008     -499.54455      0.99282773     15065.357      0.7031153    
    648000   648000         294.68547     -272.75294      0.98260586     15222.079      0.70550369   
    650000   650000         309.55776     -61.27664       0.98757164     15145.539      0.70702126   
    652000   652000         298.32658      1221.8508      0.99480913     15035.351      0.70542893   
    654000   654000         302.27947     -91.802661      0.9699641      15420.472      0.70558903   
    656000   656000         298.38406     -98.015348      0.98868765     15128.443      0.70438101   
    658000   658000         296.61293     -362.71116      0.99955659     14963.94       0.70983137   
    660000   660000         310.09403      831.7818       1.0130055      14765.274      0.71897052   
    662000   662000         293.87737     -728.76829      0.98778188     15142.315      0.71999224   
    664000   664000         299.41859      804.41827      1.0046867      14887.531      0.71967713   
    666000   666000         296.53402     -360.2334       0.99690721     15003.708      0.71903264   
    668000   668000         309.50344      1011.7102      1.006144       14865.968      0.72021713   
    670000   670000         296.31881      385.95661      0.97072011     15408.462      0.72022095   
    672000   672000         296.95735      753.23691      1.0172638      14703.467      0.71796765   
    674000   674000         290.98341     -400.02374      0.97225752     15384.097      0.71583385   
    676000   676000         306.37482     -12.165719      0.9806522      15252.405      0.71742186   
    678000   678000         301.32801     -554.3941       0.98860672     15129.681      0.71613122   
    680000   680000         308.11373      524.57497      0.98151122     15239.056      0.71787529   
    682000   682000         295.35206     -536.34724      0.98584105     15172.126      0.71759768   
    684000   684000         306.47976     -451.81645      0.97437569     15350.654      0.71687687   
    686000   686000         300.95198      496.00538      0.99467269     15037.413      0.71647249   
    688000   688000         309.15662     -273.66387      1.0059395      14868.99       0.71561298   
    690000   690000         293.70508     -289.34424      0.9763016      15320.373      0.71488973   
    692000   692000         311.78884      55.823376      0.99202779     15077.505      0.71396814   
    694000   694000         295.71104     -525.05692      0.99076684     15096.694      0.71222625   
    696000   696000         307.63131     -459.46836      0.98581961     15172.456      0.71102583   
    698000   698000         299.46963     -518.95867      0.97256593     15379.219      0.71011624   
    700000   700000         301.00487     -533.50051      0.98595187     15170.42       0.70955936   
    702000   702000         301.99102      841.81724      1.0069408      14854.204      0.70951123   
    704000   704000         310.49772      252.16707      0.9848892      15186.789      0.70693672   
    706000   706000         302.681        58.795657      0.97531315     15335.899      0.7054238    
    708000   708000         314.66689      897.46138      0.9903219      15103.477      0.70388097   
    710000   710000         326.33525      430.26973      0.99050562     15100.676      0.70396034   
    712000   712000         306.47228     -240.84426      0.97220713     15384.895      0.70264376   
    714000   714000         307.50607     -4.1619231      0.98726497     15150.243      0.70144515   
    716000   716000         303.92867     -634.5339       0.98816393     15136.461      0.69957909   
    718000   718000         297.8602       320.21044      0.9878941      15140.595      0.69835106   
    720000   720000         299.81216     -79.547143      1.0117298      14783.892      0.7037917    
    722000   722000         291.34934      850.59047      0.9887499      15127.49       0.70273745   
    724000   724000         303.65169     -108.42191      0.97532269     15335.749      0.70052254   
    726000   726000         298.02257      312.32178      0.99042426     15101.916      0.70301541   
    728000   728000         302.21144      402.44859      0.99987755     14959.136      0.70062852   
    730000   730000         296.85717     -133.77772      0.99801683     14987.026      0.69805035   
    732000   732000         297.13579     -277.20307      0.99308827     15061.405      0.69922758   
    734000   734000         290.25878      325.29247      0.9833539      15210.5        0.69833128   
    736000   736000         311.24416     -4.3384401      1.0017678      14930.909      0.70003794   
    738000   738000         298.58106     -24.077288      1.000175       14954.687      0.70284003   
    740000   740000         319.32898      260.39132      0.99583324     15019.889      0.70406663   
    742000   742000         303.42675     -1140.835       0.97652472     15316.872      0.70308477   
    744000   744000         307.35786      661.91699      1.0133496      14760.261      0.70235835   
    746000   746000         296.81709     -186.80031      0.96998313     15420.17       0.70003514   
    748000   748000         297.43822     -392.53936      0.98296682     15216.489      0.69854103   
    750000   750000         290.70728     -599.18632      0.99218168     15075.167      0.69920117   
    752000   752000         303.44033      503.77263      0.9881691      15136.381      0.69891443   
    754000   754000         305.95566     -614.99379      0.98596944     15170.15       0.69911494   
    756000   756000         305.35242      222.47602      0.98522392     15181.629      0.69723933   
    758000   758000         299.26318      667.6008       0.99790423     14988.717      0.69537209   
    760000   760000         299.69131     -1007.9874      0.96595125     15484.533      0.69516971   
    762000   762000         305.4538       231.54694      1.0243402      14601.891      0.6941474    
    764000   764000         298.03034      123.80691      1.0003819      14951.594      0.69241979   
    766000   766000         290.83369     -152.64594      0.97716253     15306.875      0.6928627    
    768000   768000         307.41647      61.09093       0.99227916     15073.686      0.69137727   
    770000   770000         284.10247     -91.734512      0.99446021     15040.626      0.69022206   
    772000   772000         283.34626     -713.40909      0.98440526     15194.255      0.6886645    
    774000   774000         306.38639      510.81835      0.99136745     15087.548      0.6924249    
    776000   776000         293.14188     -251.08608      0.97778848     15297.076      0.69195289   
    778000   778000         297.87895      995.61851      0.98932601     15118.681      0.6912846    
    780000   780000         323.93415      704.0499       1.0000802      14956.105      0.69114639   
    782000   782000         294.01256      105.6687       0.99513262     15030.463      0.68928932   
    784000   784000         306.61848     -169.87812      1.005677       14872.872      0.68947884   
    786000   786000         301.68558     -789.04492      0.98794644     15139.793      0.69554502   
    788000   788000         309.58728      472.88787      0.99771098     14991.62       0.69560911   
    790000   790000         290.01062     -1012.2895      0.97880063     15281.257      0.69403792   
    792000   792000         293.08693     -203.33631      0.98886999     15125.653      0.69554366   
    794000   794000         301.59777     -6.517006       0.99130829     15088.449      0.69663817   
    796000   796000         303.97619     -192.91713      0.98014789     15260.253      0.69406788   
    798000   798000         294.6703       335.93312      1.001036       14941.825      0.69366334   
    800000   800000         305.04807      72.479558      0.95878277     15600.306      0.6921324    
    802000   802000         302.02076      770.69416      1.002803       14915.496      0.69361776   
    804000   804000         303.55708     -52.741457      0.97317932     15369.525      0.69401566   
    806000   806000         311.91528     -253.64162      0.99506968     15031.414      0.69272032   
    808000   808000         304.35193      603.37312      0.9819312      15232.538      0.69178081   
    810000   810000         303.5397      -783.60466      0.97839362     15287.614      0.69115812   
    812000   812000         302.5994       718.63779      1.0009512      14943.09       0.69000893   
    814000   814000         313.66342      968.04794      1.0060531      14867.312      0.69072218   
    816000   816000         289.75036      151.79296      1.000393       14951.428      0.69077469   
    818000   818000         289.36425     -322.85267      0.98620039     15166.597      0.69432157   
    820000   820000         297.93027     -733.10329      0.98151971     15238.924      0.69446855   
    822000   822000         308.558        300.50899      0.99680788     15005.203      0.69512722   
    824000   824000         300.17606      491.61137      0.97940104     15271.889      0.69334267   
    826000   826000         297.06027      542.6369       0.99841215     14981.092      0.69356481   
    828000   828000         306.77271      172.10667      0.98667647     15159.279      0.69249811   
    830000   830000         291.4926       16.811912      0.99346069     15055.759      0.69110176   
    832000   832000         305.71053      85.245712      0.98409545     15199.038      0.69098125   
    834000   834000         308.73137     -620.88086      0.9688276      15438.561      0.68943661   
    836000   836000         309.69616      1083.5301      0.97729209     15304.845      0.69054704   
    838000   838000         292.70069     -324.86634      0.99145861     15086.161      0.6890397    
    840000   840000         307.58051     -55.100747      0.99381645     15050.369      0.68726842   
    842000   842000         302.1698       968.43487      0.98641898     15163.237      0.68762239   
    844000   844000         294.59608     -44.310064      0.99410583     15045.988      0.68762361   
    846000   846000         319.04605      239.09092      0.99452593     15039.632      0.68855422   
    848000   848000         308.8079       188.72173      0.99372446     15051.762      0.68752986   
    850000   850000         281.51316      230.48279      0.99065832     15098.348      0.68725003   
    852000   852000         292.55349      1266.1354      0.98469414     15189.797      0.689539     
    854000   854000         304.97466     -130.50769      0.97479883     15343.991      0.68845706   
    856000   856000         280.02516     -205.27131      0.99723338     14998.8        0.6880048    
    858000   858000         309.62671      169.83318      1.0101992      14806.292      0.68795157   
    860000   860000         304.58286      325.10146      0.99129894     15088.591      0.69062886   
    862000   862000         305.16647     -589.60066      0.97001114     15419.724      0.69129831   
    864000   864000         304.00734     -1542.5622      0.95840507     15606.454      0.69064871   
    866000   866000         312.97155     -215.33687      1.0034438      14905.971      0.69082633   
    868000   868000         297.22661     -920.52851      0.95641846     15638.87       0.68940091   
    870000   870000         301.14188     -931.42879      0.96572934     15488.091      0.68835764   
    872000   872000         314.86484     -327.63432      0.98297626     15216.343      0.68690812   
    874000   874000         308.18434     -208.79258      0.97435773     15350.937      0.68581491   
    876000   876000         311.31199      877.37038      1.0024346      14920.977      0.68435739   
    878000   878000         305.32639      1185.4727      1.004664       14887.868      0.68276317   
    880000   880000         282.57192     -190.68915      0.98630882     15164.93       0.6816357    
    882000   882000         300.76248      668.8379       1.0032021      14909.563      0.6824943    
    884000   884000         285.98843      254.83735      1.0008443      14944.686      0.68131968   
    886000   886000         283.06755     -22.649547      0.9944579      15040.661      0.68118859   
    888000   888000         295.00815     -209.46799      0.97734182     15304.067      0.68006134   
    890000   890000         311.2157       75.752501      0.98347782     15208.583      0.6788016    
    892000   892000         298.20203      982.82177      0.997562       14993.859      0.67853629   
    894000   894000         300.25619      867.31962      0.99909528     14970.849      0.67787468   
    896000   896000         296.51685      60.557309      0.98269197     15220.745      0.67858049   
    898000   898000         318.80656     -924.31345      0.97829466     15289.161      0.67910953   
    900000   900000         300.01874     -183.62695      1.0034723      14905.548      0.67841829   
    902000   902000         303.14046     -972.76686      0.9744347      15349.725      0.67630197   
    904000   904000         298.98919      37.909941      0.9849021      15186.59       0.67505512   
    906000   906000         303.64457     -589.3489       0.9697734      15423.504      0.67451801   
    908000   908000         302.2499       149.19238      0.96834188     15446.305      0.67478728   
    910000   910000         303.73782      574.46065      0.99294573     15063.567      0.67913061   
    912000   912000         290.56153      714.15895      0.99239675     15071.9        0.67862375   
    914000   914000         290.45345     -667.66643      0.99299562     15062.81       0.67795795   
    916000   916000         323.00007     -100.82093      0.9853589      15179.55       0.67790036   
    918000   918000         307.69783     -103.29961      0.99964172     14962.665      0.67702422   
    920000   920000         289.84803      54.82866       0.99217623     15075.25       0.67833431   
    922000   922000         294.07743      220.64241      0.98296161     15216.57       0.67995261   
    924000   924000         304.94383      36.387985      0.98859762     15129.82       0.68202196   
    926000   926000         306.43756     -1182.0308      0.96584929     15486.168      0.68365396   
    928000   928000         296.42801      194.32436      0.98711385     15152.562      0.68544403   
    930000   930000         309.0419       575.62667      0.99905846     14971.401      0.68491485   
    932000   932000         307.59851     -1270.9028      0.97914211     15275.928      0.68404621   
    934000   934000         304.72674     -180.48888      0.98365483     15205.846      0.68288055   
    936000   936000         292.91162     -236.42125      0.98835492     15133.536      0.68459128   
    938000   938000         313.24685      462.83981      1.0051228      14881.072      0.68720324   
    940000   940000         304.5906       959.43926      0.99480411     15035.427      0.68591809   
    942000   942000         299.19781     -188.46807      0.98955281     15115.216      0.68589969   
    944000   944000         306.55018      464.10673      0.99646858     15010.312      0.68717352   
    946000   946000         316.18147     -259.86715      0.95815844     15610.471      0.68748544   
    948000   948000         300.39026     -337.2132       0.97916949     15275.501      0.68756234   
    950000   950000         295.11159      46.740027      0.97897899     15278.473      0.68691131   
    952000   952000         308.11284     -49.517356      0.98474311     15189.042      0.68639574   
    954000   954000         299.36185     -367.05457      0.98604506     15168.987      0.68623993   
    956000   956000         299.02156      762.80612      1.0038489      14899.956      0.68705925   
    958000   958000         309.21403     -187.45569      0.98664567     15159.753      0.6861044    
    960000   960000         311.73849     -636.42727      0.99389493     15049.181      0.68472186   
    962000   962000         293.53145     -491.83488      0.99824563     14983.591      0.68356253   
    964000   964000         310.88759      1.7606188      0.970326       15414.721      0.68285038   
    966000   966000         290.2898      -783.28038      0.98648979     15162.148      0.68276844   
    968000   968000         300.2724       168.87697      0.97543501     15333.984      0.68241918   
    970000   970000         296.19699      603.8471       1.0072616      14849.474      0.68212214   
    972000   972000         299.27467     -597.71669      0.99256943     15069.278      0.68240457   
    974000   974000         300.66877     -603.09911      0.97637366     15319.242      0.68126594   
    976000   976000         311.04566      1478.5578      1.0093943      14818.099      0.68195354   
    978000   978000         311.93056     -135.27541      0.99590479     15018.809      0.68365      
    980000   980000         309.43585     -626.6199       0.99448181     15040.3        0.68211289   
    982000   982000         310.91683     -337.04606      0.98207336     15230.333      0.68269112   
    984000   984000         293.60238     -118.54165      0.99276167     15066.36       0.68200231   
    986000   986000         281.08933      224.13219      1.0080813      14837.4        0.68599005   
    988000   988000         301.27391     -557.55384      0.99068933     15097.876      0.6848788    
    990000   990000         304.12846      684.42681      0.98102018     15246.684      0.68494754   
    992000   992000         303.03278     -224.64898      0.99833877     14982.193      0.68447373   
    994000   994000         296.16004      14.48902       0.98031984     15257.576      0.68495942   
    996000   996000         293.71853      835.16787      1.0065959      14859.293      0.68512372   
    998000   998000         296.00673      866.07855      0.99395339     15048.296      0.68383299   
   1000000   1000000        299.39052      358.88409      1.0086333      14829.278      0.68411373   
   1002000   1002000        302.64145      266.29181      0.99706339     15001.357      0.68397756   
   1004000   1004000        307.37668     -564.97632      0.98372756     15204.722      0.68298102   
   1006000   1006000        301.52619      549.59469      0.98678747     15157.574      0.68317428   
   1008000   1008000        302.30403     -503.79291      0.9554063      15655.438      0.68766142   
   1010000   1010000        303.4672      -424.11796      0.98289681     15217.573      0.68635319   
   1012000   1012000        290.00188     -1410.8105      0.9757072      15329.706      0.68508627   
   1014000   1014000        295.36382      892.87823      0.99104149     15092.511      0.68437411   
   1016000   1016000        289.97018      114.31236      0.98521134     15181.823      0.68469655   
   1018000   1018000        301.46796      454.50998      0.98740187     15148.143      0.68528754   
   1020000   1020000        311.63714     -955.2073       0.98664826     15159.713      0.68424715   
   1022000   1022000        309.81018      285.71765      0.99613945     15015.272      0.68272989   
   1024000   1024000        285.85644      370.83123      0.99315337     15060.417      0.68281297   
   1026000   1026000        298.99455      207.06598      0.98953928     15115.423      0.68238464   
   1028000   1028000        306.69716      230.37216      0.97710392     15307.793      0.68180482   
   1030000   1030000        304.47518     -210.25837      0.99309131     15061.359      0.68183025   
   1032000   1032000        307.27645      246.8701       0.99771581     14991.548      0.68078446   
   1034000   1034000        296.2066       497.06887      0.99970196     14961.764      0.68056494   
   1036000   1036000        297.35382     -129.79819      1.002569       14918.977      0.68309995   
   1038000   1038000        308.40754      236.48762      0.98633205     15164.573      0.68185123   
   1040000   1040000        311.57183     -326.28942      0.96547637     15492.15       0.68084097   
   1042000   1042000        299.24175      1186.2922      1.0039627      14898.267      0.6825813    
   1044000   1044000        295.36677      492.10042      0.99569544     15021.967      0.68289207   
   1046000   1046000        316.91035      374.38424      0.99802087     14986.966      0.68183346   
   1048000   1048000        295.30415      525.41403      1.002871       14914.484      0.6832653    
   1050000   1050000        309.54883      943.19883      1.0011098      14940.723      0.6822215    
   1052000   1052000        304.30741     -2.7771221      0.98972313     15112.615      0.68190515   
   1054000   1054000        307.82682      82.495406      0.98475845     15188.805      0.68170808   
   1056000   1056000        295.2595      -3.5131113      0.97854304     15285.28       0.68261511   
   1058000   1058000        301.81416     -7.2506122      1.0028202      14915.241      0.68546893   
   1060000   1060000        293.74623     -501.81912      0.97537963     15334.854      0.68518881   
   1062000   1062000        304.25362     -820.96372      0.99513048     15030.496      0.68492366   
   1064000   1064000        310.25001      383.02359      0.97409495     15355.078      0.68374429   
   1066000   1066000        292.19504      657.36091      0.99235944     15072.466      0.68324588   
   1068000   1068000        288.58738     -381.79662      0.97265198     15377.858      0.68290771   
   1070000   1070000        296.64721      797.91589      0.99295736     15063.39       0.68155377   
   1072000   1072000        298.20009     -226.89993      0.96638884     15477.522      0.6851846    
   1074000   1074000        291.63337      677.9304       0.99037316     15102.696      0.68292087   
   1076000   1076000        298.14587     -612.51603      0.96288136     15533.902      0.68259563   
   1078000   1078000        299.97845      434.12543      0.99564317     15022.756      0.68107964   
   1080000   1080000        299.95028      763.56065      0.98066627     15252.186      0.6826418    
   1082000   1082000        312.8469      -717.88969      0.97931257     15273.269      0.68339512   
   1084000   1084000        310.24576     -756.70423      0.96228655     15543.504      0.68314454   
   1086000   1086000        314.35414     -336.9132       0.9748087      15343.836      0.68295289   
   1088000   1088000        309.06132     -455.78498      0.99302027     15062.436      0.68163759   
   1090000   1090000        295.92504      331.43001      0.98646984     15162.455      0.68067406   
   1092000   1092000        298.90311      1334.6517      1.0127862      14768.471      0.6795346    
   1094000   1094000        309.11471      511.95497      0.99414792     15045.351      0.67848533   
   1096000   1096000        308.61776     -673.9006       0.97626181     15320.997      0.6796261    
   1098000   1098000        300.48202      84.609443      0.99047983     15101.069      0.6789568    
   1100000   1100000        308.23886     -532.10043      0.98944842     15116.811      0.67826019   
   1102000   1102000        313.06586     -79.399587      0.98261221     15221.981      0.67791384   
   1104000   1104000        302.94773     -647.81461      0.98216444     15228.921      0.67672785   
   1106000   1106000        316.41521     -355.26716      0.97056328     15410.952      0.68180115   
   1108000   1108000        301.84062      369.93766      0.99013821     15106.279      0.68455312   
   1110000   1110000        295.71844     -621.01124      0.99231816     15073.093      0.68468021   
   1112000   1112000        307.99582      1217.7421      0.97508929     15339.42       0.68452558   
   1114000   1114000        298.95173     -267.59623      0.99912122     14970.46       0.68387449   
   1116000   1116000        296.65678      946.92362      1.0030894      14911.237      0.68601985   
   1118000   1118000        313.91402     -311.73521      0.96187206     15550.201      0.68597826   
   1120000   1120000        323.41985     -545.62825      0.99162298     15083.661      0.68448617   
   1122000   1122000        304.92396     -821.38566      0.96794375     15452.659      0.68693957   
   1124000   1124000        302.84304     -568.12524      0.98250633     15223.621      0.68813268   
   1126000   1126000        284.65797     -369.99911      0.9957982      15020.417      0.68802119   
   1128000   1128000        288.38909      496.3812       0.99474363     15036.341      0.68986687   
   1130000   1130000        293.59782      328.7903       1.0073875      14847.618      0.68889643   
   1132000   1132000        296.05903      186.10816      0.9970347      15001.789      0.68843884   
   1134000   1134000        292.95648     -431.99389      0.98550692     15177.27       0.68736905   
   1136000   1136000        295.07241      351.38417      0.99708154     15001.084      0.68736166   
   1138000   1138000        303.32559     -128.74479      1.0056906      14872.669      0.68713865   
   1140000   1140000        297.12008      823.92278      0.99848349     14980.022      0.68665163   
   1142000   1142000        304.47194      299.00517      0.98082432     15249.728      0.68871372   
   1144000   1144000        294.3556      -671.14847      0.96555336     15490.914      0.6942031    
   1146000   1146000        292.04234     -218.4362       0.98419939     15197.433      0.69399728   
   1148000   1148000        288.39759     -1104.8435      0.97632495     15320.006      0.69276929   
   1150000   1150000        301.81239     -153.34072      0.99364079     15053.03       0.69186599   
   1152000   1152000        299.67956     -166.88066      0.99383899     15050.028      0.69228119   
   1154000   1154000        292.87284     -362.40697      1.0000412      14956.688      0.69101369   
   1156000   1156000        294.93671      217.72444      0.97216906     15385.497      0.69055561   
   1158000   1158000        289.43647     -1246.2653      0.98162557     15237.281      0.69152239   
   1160000   1160000        312.14062      726.95659      1.0069461      14854.126      0.6922434    
   1162000   1162000        295.80653     -392.56956      0.98492396     15186.253      0.69048909   
   1164000   1164000        299.78183      299.64558      0.98032309     15257.525      0.68977407   
   1166000   1166000        293.85067     -749.69262      0.97449086     15348.84       0.68934714   
   1168000   1168000        302.6123      -53.193379      0.98207753     15230.268      0.68815637   
   1170000   1170000        288.79567     -169.65714      1.0020329      14926.959      0.68986438   
   1172000   1172000        299.63955      787.96037      1.0090887      14822.586      0.68893735   
   1174000   1174000        306.04146      200.15316      0.9896933      15113.07       0.68786668   
   1176000   1176000        297.7896       305.30893      0.98401021     15200.355      0.68696126   
   1178000   1178000        310.41462      645.9606       0.99195827     15078.562      0.68659096   
   1180000   1180000        296.56154      271.69322      0.97639007     15318.984      0.68580323   
   1182000   1182000        299.03129     -418.61145      0.98833237     15133.881      0.68587763   
   1184000   1184000        290.91147     -290.0158       1.0012339      14938.871      0.68459174   
   1186000   1186000        296.08507     -893.60736      0.98199779     15231.505      0.68385993   
   1188000   1188000        280.56337     -9.9114224      0.97027808     15415.482      0.6829471    
   1190000   1190000        302.39179     -416.86645      0.98307556     15214.806      0.68229429   
   1192000   1192000        290.19152     -438.3892       0.95703196     15628.845      0.68180358   
   1194000   1194000        313.32719      423.72193      0.99868616     14976.982      0.68108951   
   1196000   1196000        294.57213      278.34943      0.99474103     15036.38       0.68081933   
   1198000   1198000        299.31083      189.11043      0.98867167     15128.687      0.68015934   
   1200000   1200000        296.15706      1145.9205      1.006455       14861.375      0.68040861   
   1202000   1202000        301.49663      351.68097      0.97565366     15330.547      0.67911328   
   1204000   1204000        296.34331     -155.07189      0.99513032     15030.498      0.6791656    
   1206000   1206000        301.60847     -984.20857      0.992037       15077.365      0.67975209   
   1208000   1208000        305.31591      181.03099      0.97830159     15289.053      0.68003778   
   1210000   1210000        295.22988      221.43809      0.98729812     15149.735      0.68249554   
   1212000   1212000        302.08731      674.13751      0.97938838     15272.087      0.68353637   
   1214000   1214000        296.56483      354.17199      0.97972949     15266.769      0.68417654   
   1216000   1216000        295.47731     -1033.3841      0.99044243     15101.639      0.68316124   
   1218000   1218000        292.45292      327.19461      0.99709045     15000.95       0.68238295   
   1220000   1220000        303.73589     -862.00201      0.98066977     15252.132      0.68256025   
   1222000   1222000        300.37364     -149.03593      0.98579974     15172.762      0.68144903   
   1224000   1224000        309.05272      84.339674      0.98043911     15255.72       0.68063313   
   1226000   1226000        302.02878     -732.93829      0.99063564     15098.694      0.67952099   
   1228000   1228000        303.86641     -695.19242      0.98499068     15185.224      0.67858179   
   1230000   1230000        297.92064     -875.6694       0.9829196      15217.221      0.67836963   
   1232000   1232000        289.68054      146.31875      0.99800042     14987.273      0.68004048   
   1234000   1234000        300.06079     -201.62716      0.97133302     15398.74       0.68012919   
   1236000   1236000        303.53742      54.009463      1.0082125      14835.467      0.67974386   
   1238000   1238000        302.97762     -50.562446      0.99775404     14990.973      0.67984468   
   1240000   1240000        296.44776      921.85768      1.0033532      14907.318      0.67921411   
   1242000   1242000        297.72978     -217.90442      0.97634142     15319.748      0.67805784   
   1244000   1244000        301.40505      293.86954      0.99078767     15096.377      0.67705961   
   1246000   1246000        294.05198      157.47463      1.004967       14883.378      0.67622689   
   1248000   1248000        292.13678     -162.50051      0.98706441     15153.321      0.67572678   
   1250000   1250000        293.04813     -1355.3203      0.97705992     15308.482      0.67466095   
   1252000   1252000        302.43907      349.28172      0.99334015     15057.586      0.67441057   
   1254000   1254000        277.28281      973.12654      0.9898004      15111.435      0.67593155   
   1256000   1256000        294.79939     -624.5323       0.99142726     15086.638      0.67687747   
   1258000   1258000        303.07563      978.80225      1.0212534      14646.026      0.6765111    
   1260000   1260000        311.97983     -1233.7653      0.9926837      15067.543      0.67701248   
   1262000   1262000        286.56566      358.55378      1.0009094      14943.714      0.67628052   
   1264000   1264000        294.33564      410.35573      1.000207       14954.208      0.67660521   
   1266000   1266000        309.04896     -416.34095      0.98484125     15187.528      0.67621713   
   1268000   1268000        296.57202      1271.8115      0.99592796     15018.46       0.67639935   
   1270000   1270000        291.95401      427.13444      0.99901674     14972.026      0.67575402   
   1272000   1272000        297.47935      308.19779      0.99009656     15106.915      0.67597844   
   1274000   1274000        309.81326     -75.084741      0.98307696     15214.785      0.67631722   
   1276000   1276000        296.02724     -1224.6264      0.95665448     15635.012      0.67640469   
   1278000   1278000        308.22635     -397.02753      0.97077182     15407.642      0.67609468   
   1280000   1280000        295.43284     -389.63237      0.96755206     15458.914      0.67562174   
   1282000   1282000        298.50613      14.350177      0.98524234     15181.345      0.67455411   
   1284000   1284000        289.98948     -91.399252      0.99234634     15072.665      0.6735714    
   1286000   1286000        295.44291      76.651178      0.97557098     15331.846      0.67291232   
   1288000   1288000        306.96         632.0743       0.98915264     15121.331      0.67247128   
   1290000   1290000        296.01039     -893.03983      0.96396512     15516.437      0.67385508   
   1292000   1292000        298.21709     -215.77495      0.97764503     15299.32       0.6730392    
   1294000   1294000        287.51061      278.34608      0.98982457     15111.066      0.67399103   
   1296000   1296000        303.32804     -512.02102      0.97841372     15287.3        0.67281945   
   1298000   1298000        301.13317     -1285.3317      0.98600891     15169.543      0.67258601   
   1300000   1300000        297.38429     -314.18886      0.99901371     14972.071      0.67222309   
   1302000   1302000        320.11807     -1057.5551      0.97231406     15383.203      0.67184235   
   1304000   1304000        306.62387      1193.4197      1.0192779      14674.412      0.67062735   
   1306000   1306000        309.72844     -614.58395      0.99078732     15096.382      0.66969444   
   1308000   1308000        303.14298     -628.30588      0.98627484     15165.453      0.66948267   
   1310000   1310000        308.41813      791.95432      0.98718001     15151.547      0.66952831   
   1312000   1312000        299.46206      27.836213      0.98835969     15133.463      0.66988301   
   1314000   1314000        303.14869      255.72412      1.0019152      14928.712      0.6689432    
   1316000   1316000        317.46595      434.0498       0.98762939     15144.653      0.66824858   
   1318000   1318000        295.61791      25.426743      0.96768362     15456.813      0.66800043   
   1320000   1320000        288.50802      299.02909      0.99660444     15008.266      0.66773886   
   1322000   1322000        291.21088     -1315.8078      0.98223044     15227.897      0.66910794   
   1324000   1324000        294.81809      449.19574      1.0004741      14950.217      0.6681806    
   1326000   1326000        291.21585      841.41711      0.97184721     15390.592      0.66866325   
   1328000   1328000        303.80595     -1426.0184      0.98887063     15125.643      0.66939322   
   1330000   1330000        299.75775      199.7928       0.97885327     15280.436      0.66851638   
   1332000   1332000        292.44139      379.53376      0.9984866      14979.975      0.6693939    
   1334000   1334000        289.41153     -1352.1345      0.9796126      15268.591      0.66908884   
   1336000   1336000        307.40686     -707.05327      0.97945555     15271.04       0.66855909   
   1338000   1338000        299.47006      310.5429       0.98631135     15164.891      0.66756961   
   1340000   1340000        286.95281      763.2404       0.99480051     15035.481      0.66671685   
   1342000   1342000        293.92284     -16.510321      0.99393434     15048.584      0.66658082   
   1344000   1344000        306.89713      997.33393      0.99265662     15067.954      0.66684956   
   1346000   1346000        309.51662     -39.772428      0.98857577     15130.155      0.66736974   
   1348000   1348000        295.00186     -193.32881      0.97796022     15294.389      0.6669716    
   1350000   1350000        307.68246      801.42077      0.9875948      15145.183      0.6670859    
   1352000   1352000        310.44153      1178.9582      0.98194807     15232.276      0.66747818   
   1354000   1354000        299.7617      -606.21937      0.9748225      15343.618      0.66811756   
   1356000   1356000        302.2094       1210.4918      0.99280211     15065.746      0.6683952    
   1358000   1358000        292.9252      -573.94622      0.98792139     15140.177      0.66787823   
   1360000   1360000        291.81949     -111.98279      0.98883073     15126.254      0.66800894   
   1362000   1362000        305.77544     -184.81388      0.985507       15177.268      0.66763437   
   1364000   1364000        306.89211     -537.11029      0.97872588     15282.424      0.66746705   
   1366000   1366000        295.95296     -796.06233      0.98777441     15142.43       0.66788716   
   1368000   1368000        294.77301      224.64205      0.99344875     15055.94       0.66720957   
   1370000   1370000        304.56112      57.505864      0.99131448     15088.354      0.66796601   
   1372000   1372000        294.49283      643.10495      1.0009869      14942.557      0.66935423   
   1374000   1374000        304.45903     -443.93171      0.9895283      15115.59       0.66860836   
   1376000   1376000        305.84891     -756.58748      0.98300388     15215.916      0.66844707   
   1378000   1378000        298.68291     -25.742521      1.0058716      14869.993      0.66794541   
   1380000   1380000        312.42631     -80.506322      0.98010449     15260.928      0.66751168   
   1382000   1382000        308.03237     -355.54543      0.9659686      15484.255      0.66661663   
   1384000   1384000        293.27192      1711.9567      0.98861914     15129.491      0.66586787   
   1386000   1386000        287.0409       154.94085      0.98961623     15114.247      0.66478162   
   1388000   1388000        291.80798     -197.89747      0.98642316     15163.172      0.66400178   
   1390000   1390000        298.97231      778.19978      0.98775674     15142.7        0.66368325   
   1392000   1392000        290.93369     -599.61213      0.97961701     15268.522      0.66432205   
   1394000   1394000        310.77754     -310.54541      0.98280278     15219.029      0.6649353    
   1396000   1396000        296.23469      584.46433      0.99954393     14964.129      0.6648296    
   1398000   1398000        310.74975     -57.973811      0.9917765      15081.326      0.66380751   
   1400000   1400000        288.17244      215.05266      0.98679264     15157.495      0.6636242    
   1402000   1402000        300.18445     -642.71269      0.98945885     15116.651      0.66335969   
   1404000   1404000        287.59074     -131.93766      0.99435309     15042.247      0.66347277   
   1406000   1406000        291.58047     -427.85234      0.99270471     15067.224      0.66276316   
   1408000   1408000        289.16304      140.05222      0.99367561     15052.502      0.66247244   
   1410000   1410000        304.47124     -211.8553       0.99168596     15082.703      0.66232498   
   1412000   1412000        288.49391     -400.6884       0.97422689     15352.999      0.66437789   
   1414000   1414000        293.0491       624.83062      0.99367252     15052.549      0.66277035   
   1416000   1416000        304.27353      288.72497      0.99320616     15059.617      0.66438088   
   1418000   1418000        296.24025      129.81127      0.99064947     15098.483      0.66602803   
   1420000   1420000        303.68414      283.43425      0.99760886     14993.155      0.66590397   
   1422000   1422000        291.19008     -768.11067      0.98432193     15195.541      0.66501248   
   1424000   1424000        297.61015     -897.41202      0.98008984     15261.156      0.66409295   
   1426000   1426000        278.58094     -1781.5911      0.96977317     15423.508      0.66510852   
   1428000   1428000        309.67727     -332.92451      0.9768541      15311.708      0.66419637   
   1430000   1430000        296.51424      76.954394      0.99631336     15012.651      0.66404207   
   1432000   1432000        293.05428     -72.304483      0.99096228     15093.717      0.66425113   
   1434000   1434000        307.83165     -744.55942      0.96889626     15437.467      0.6641116    
   1436000   1436000        300.23567     -395.41933      1.0046183      14888.545      0.66300932   
   1438000   1438000        306.8033       795.29148      0.9952268      15029.041      0.66294755   
   1440000   1440000        301.4604      -689.76406      0.96899932     15435.825      0.66314689   
   1442000   1442000        303.65347      791.72587      1.0018954      14929.008      0.66295362   
   1444000   1444000        296.8783       849.89381      0.98965731     15113.62       0.66321103   
   1446000   1446000        300.98408     -507.29436      0.98114354     15244.767      0.66313231   
   1448000   1448000        303.72116      813.44409      1.0048472      14885.153      0.66374947   
   1450000   1450000        311.4967       516.73304      0.98369096     15205.288      0.66541137   
   1452000   1452000        299.62801     -234.53615      1.0071262      14851.469      0.66593519   
   1454000   1454000        313.35921     -41.688656      0.98833697     15133.81       0.66727769   
   1456000   1456000        314.78695      684.29697      1.0021267      14925.563      0.66669044   
   1458000   1458000        293.34196     -136.83587      0.99395812     15048.224      0.66692654   
   1460000   1460000        291.64874      28.090813      0.97666635     15314.651      0.66641455   
   1462000   1462000        295.3724      -1273.92        0.98697535     15154.689      0.66577582   
   1464000   1464000        293.48441     -138.16811      0.97799254     15293.884      0.66681026   
   1466000   1466000        282.4977      -15.009892      0.98169275     15236.238      0.6666883    
   1468000   1468000        288.88508     -1143.8681      0.97618929     15322.135      0.66737452   
   1470000   1470000        297.11996      343.84036      0.97854441     15285.259      0.66688201   
   1472000   1472000        289.8715       730.08281      0.9710775      15402.792      0.66727111   
   1474000   1474000        303.21374      559.4977       0.99273605     15066.748      0.66655237   
   1476000   1476000        296.82014      1647.6886      1.0000354      14956.775      0.66757399   
   1478000   1478000        295.89119     -142.44873      0.99688692     15004.013      0.66745114   
   1480000   1480000        309.21153      181.01289      0.99791018     14988.628      0.66704617   
   1482000   1482000        297.11894      55.945654      0.9902961      15103.871      0.66706761   
   1484000   1484000        299.78967     -166.10747      0.95785634     15615.394      0.66886255   
   1486000   1486000        316.65816     -589.6795       0.98006886     15261.483      0.66880908   
   1488000   1488000        300.26275     -259.78381      0.97834522     15288.371      0.67100912   
   1490000   1490000        304.61218      274.63719      1.0036107      14903.493      0.67225431   
   1492000   1492000        290.96079      453.29953      1.0104204      14803.051      0.67054324   
   1494000   1494000        300.53387     -54.22141       0.97803469     15293.225      0.67075538   
   1496000   1496000        313.30119     -340.74816      0.99564039     15022.798      0.6704547    
   1498000   1498000        307.01917      313.05634      1.0049396      14883.784      0.67081002   
   1500000   1500000        296.01291     -313.17265      0.97458474     15347.362      0.67325319   
   1502000   1502000        296.02607     -409.36014      0.97821066     15290.474      0.67426573   
   1504000   1504000        299.21999      559.52267      0.98648641     15162.2        0.67317166   
   1506000   1506000        292.13769      60.557092      0.97459253     15347.239      0.6727607    
   1508000   1508000        303.03616     -453.36288      0.98060359     15253.161      0.67261276   
   1510000   1510000        298.34911     -278.39111      0.9989103      14973.621      0.67205907   
   1512000   1512000        304.61209      959.89331      1.013778       14754.023      0.67271378   
   1514000   1514000        301.12579      687.7638       1.0188579      14680.462      0.67192551   
   1516000   1516000        298.11701     -1733.0935      0.9821033      15229.869      0.67131028   
   1518000   1518000        293.72385      548.88149      0.98742285     15147.821      0.671712     
   1520000   1520000        286.46564      576.59077      1.00218        14924.768      0.67200199   
   1522000   1522000        302.86668     -1110.1934      0.98089937     15248.561      0.67171788   
   1524000   1524000        295.33752     -29.592531      0.9911664      15090.609      0.67147166   
   1526000   1526000        311.68811     -93.006338      0.97113001     15401.959      0.6708945    
   1528000   1528000        302.65168     -200.23038      0.97596089     15325.721      0.67054283   
   1530000   1530000        305.88932     -486.09177      0.98217628     15228.737      0.66952912   
   1532000   1532000        302.63173     -81.030698      0.99806198     14986.348      0.66929926   
   1534000   1534000        295.56285      322.97735      0.99467529     15037.374      0.66859221   
   1536000   1536000        296.10731     -847.47075      0.97919988     15275.027      0.66816401   
   1538000   1538000        301.04704     -730.25542      0.9760969      15323.586      0.66744338   
   1540000   1540000        286.93698      138.79217      1.0043055      14893.182      0.66783716   
   1542000   1542000        305.371        152.5516       0.99055095     15099.985      0.66818273   
   1544000   1544000        296.03936     -986.62539      0.97600593     15325.014      0.66790067   
   1546000   1546000        307.02751      336.09317      0.99307791     15061.562      0.66901382   
   1548000   1548000        303.80389      678.92905      1.0019834      14927.697      0.67055107   
   1550000   1550000        301.1806       322.97861      0.98940968     15117.402      0.67274214   
   1552000   1552000        303.68932      94.270904      0.99491701     15033.721      0.67254668   
   1554000   1554000        297.87591      245.96297      0.99399167     15047.716      0.67229947   
   1556000   1556000        315.21711     -254.00051      0.9792509      15274.231      0.67250821   
   1558000   1558000        286.06427      934.18229      0.99066036     15098.317      0.67278451   
   1560000   1560000        301.79312      965.67058      0.98556774     15176.333      0.67394707   
   1562000   1562000        304.76049      769.03809      0.99991278     14958.609      0.67359353   
   1564000   1564000        298.95842      1530.1617      1.016102       14720.279      0.67290707   
   1566000   1566000        290.75952     -678.25141      0.99060284     15099.194      0.67287426   
   1568000   1568000        302.54255      774.44339      1.0017012      14931.902      0.67356826   
   1570000   1570000        303.07234     -171.17873      0.97564038     15330.756      0.67266708   
   1572000   1572000        292.66097     -44.362379      0.97491428     15342.174      0.67246115   
   1574000   1574000        288.91899      494.34618      1.000156       14954.972      0.67253405   
   1576000   1576000        303.15622     -129.14147      0.98679164     15157.51       0.67209354   
   1578000   1578000        292.52605      171.74093      1.0013669      14936.887      0.67237689   
   1580000   1580000        313.65449      1492.2046      1.0086167      14829.523      0.67228687   
   1582000   1582000        303.26708      27.168407      0.97623449     15321.426      0.67158564   
   1584000   1584000        296.06802     -1819.7704      0.98962217     15114.157      0.67121818   
   1586000   1586000        302.46621     -181.11643      0.9866603      15159.528      0.67061776   
   1588000   1588000        300.78453      1715.9072      1.0142463      14747.211      0.66947946   
   1590000   1590000        295.56938      192.97893      0.99047468     15101.148      0.66906656   
   1592000   1592000        306.77896      125.86024      0.97357222     15363.323      0.66855093   
   1594000   1594000        299.59295     -531.10501      0.95688226     15631.29       0.66810751   
   1596000   1596000        298.30539     -379.43907      0.99001158     15108.212      0.66782387   
   1598000   1598000        295.9334       1132.2926      1.0096211      14814.77       0.66721404   
   1600000   1600000        321.55826     -1375.3707      0.98198601     15231.688      0.66968537   
   1602000   1602000        295.76873      583.94748      0.99020301     15105.291      0.67043091   
   1604000   1604000        286.03277     -375.8677       0.98030196     15257.854      0.67080895   
   1606000   1606000        288.09967     -995.25468      0.98433226     15195.382      0.67124817   
   1608000   1608000        303.67486      1362.9164      1.0058253      14870.678      0.67107518   
   1610000   1610000        294.46612     -951.72592      0.99065668     15098.373      0.67063285   
   1612000   1612000        308.2823       156.4282       0.99642322     15010.995      0.67014077   
   1614000   1614000        288.6601       118.00135      0.99966488     14962.318      0.67136761   
   1616000   1616000        283.17868      175.51267      0.9934058      15056.591      0.6718778    
   1618000   1618000        309.73861     -106.19301      0.97468045     15345.854      0.67137101   
   1620000   1620000        306.96303     -252.03664      0.98113844     15244.846      0.67222913   
   1622000   1622000        307.38366      197.99713      0.99502951     15032.021      0.67325549   
   1624000   1624000        288.01848      68.537804      0.98533292     15179.95       0.67348989   
   1626000   1626000        302.63198      546.69057      0.98934803     15118.344      0.67255018   
   1628000   1628000        295.59039     -421.04288      0.97844287     15286.845      0.67274584   
   1630000   1630000        288.75889     -469.195        0.97806796     15292.705      0.67252187   
   1632000   1632000        290.69176     -1385.564       0.99785162     14989.507      0.67314522   
   1634000   1634000        298.22192     -1088.2214      0.97556768     15331.898      0.67274058   
   1636000   1636000        295.14081      597.16606      0.99017759     15105.678      0.67206235   
   1638000   1638000        305.43797      545.81281      1.0010046      14942.293      0.67289978   
   1640000   1640000        308.86997      1168.1239      1.0138724      14752.65       0.67262672   
   1642000   1642000        301.91064      166.60995      0.99852291     14979.43       0.67218423   
   1644000   1644000        300.97378     -762.68804      0.97965914     15267.866      0.67237183   
   1646000   1646000        313.60621      512.65304      0.98050643     15254.672      0.67198633   
   1648000   1648000        290.84479     -20.690894      0.97602715     15324.681      0.67213863   
   1650000   1650000        301.62016     -219.16075      0.98647952     15162.306      0.67214333   
   1652000   1652000        305.59159     -653.81917      0.98952059     15115.708      0.67331604   
   1654000   1654000        285.19324      152.89081      1.0028855      14914.269      0.67245046   
   1656000   1656000        289.62939      531.8731       0.98786233     15141.082      0.6715303    
   1658000   1658000        306.68554     -201.98569      0.9899987      15108.408      0.67254065   
   1660000   1660000        298.67553      307.25483      1.0067928      14856.388      0.67184364   
   1662000   1662000        302.98546      279.22449      1.0163769      14716.297      0.67210576   
   1664000   1664000        294.90894     -399.68681      1.0071646      14850.904      0.67256776   
   1666000   1666000        298.59119      143.87847      0.99799788     14987.311      0.67150348   
   1668000   1668000        304.39592     -111.39241      0.99774344     14991.133      0.67111038   
   1670000   1670000        289.95844      92.908893      0.99593883     15018.296      0.67027508   
   1672000   1672000        303.63026     -298.88752      0.97576169     15328.85       0.67046452   
   1674000   1674000        299.06164      271.70525      1.0144571      14744.146      0.66990481   
   1676000   1676000        298.3167       75.727925      1.0237619      14610.139      0.66895655   
   1678000   1678000        292.05624     -769.66873      0.98184536     15233.87       0.66816427   
   1680000   1680000        305.49649      742.56972      0.96749685     15459.796      0.66780261   
   1682000   1682000        305.49437      280.64499      0.98114096     15244.807      0.66737079   
   1684000   1684000        288.90022      1504.5533      1.0001434      14955.159      0.66706324   
   1686000   1686000        306.07827      51.455481      0.98567857     15174.627      0.66772477   
   1688000   1688000        295.2893       812.64812      1.0020902      14926.106      0.66722623   
   1690000   1690000        288.64397     -419.90965      0.98215118     15229.126      0.6680313    
   1692000   1692000        292.32302     -634.3293       0.97087531     15405.999      0.66756761   
   1694000   1694000        296.09581     -110.18361      0.99696336     15002.863      0.6679071    
   1696000   1696000        286.56289     -1135.555       0.98595257     15170.41       0.66745675   
   1698000   1698000        285.88116     -409.33445      0.98394253     15201.4        0.6667681    
   1700000   1700000        301.66192      122.94632      0.99505099     15031.696      0.66609326   
   1702000   1702000        292.89033      146.68946      1.0070979      14851.887      0.66564353   
   1704000   1704000        292.93698     -372.04863      1.001828       14930.012      0.66491249   
   1706000   1706000        312.18327     -115.25696      1.0082196      14835.364      0.66435049   
   1708000   1708000        292.44541      1029.5483      1.0023608      14922.076      0.66348393   
   1710000   1710000        303.66715     -140.48384      0.97666776     15314.629      0.6633898    
   1712000   1712000        281.6374      -294.90594      0.96751086     15459.573      0.66356511   
   1714000   1714000        301.00806     -705.47244      0.97419103     15353.564      0.66591773   
   1716000   1716000        304.74368     -993.9968       0.98524652     15181.281      0.66646109   
   1718000   1718000        298.39074      814.95216      0.9975452      14994.112      0.66669011   
   1720000   1720000        290.94392     -722.54879      0.9821968      15228.419      0.66600304   
   1722000   1722000        301.23654     -402.31042      0.98196238     15232.054      0.66528015   
   1724000   1724000        315.42756      480.27358      0.99088654     15094.871      0.66511137   
   1726000   1726000        301.18217      206.21101      0.9740903      15355.152      0.66527517   
   1728000   1728000        285.59067     -41.752873      0.97830073     15289.066      0.66515237   
   1730000   1730000        311.15087      238.83001      0.9842111      15197.252      0.66464429   
   1732000   1732000        310.29719     -870.1548       0.9762518      15321.154      0.66377419   
   1734000   1734000        289.50355     -150.94177      0.97978292     15265.937      0.66307892   
   1736000   1736000        298.90415     -897.44453      0.98928851     15119.254      0.66573911   
   1738000   1738000        309.50885      272.70624      0.98377829     15203.938      0.66542066   
   1740000   1740000        294.19299     -635.13037      0.97530808     15335.979      0.66582306   
   1742000   1742000        302.29361      308.45117      0.98631499     15164.835      0.66519279   
   1744000   1744000        303.02013     -405.23662      0.96534037     15494.332      0.66596279   
   1746000   1746000        298.60475     -823.46394      0.97634414     15319.705      0.66570691   
   1748000   1748000        286.13197      229.36161      0.99200979     15077.779      0.6658348    
   1750000   1750000        291.01457      155.60838      0.9712482      15400.084      0.66533274   
   1752000   1752000        306.78115      1133.6297      0.99661181     15008.155      0.66589439   
   1754000   1754000        303.84357      1004.2073      0.99665192     15007.551      0.66555366   
   1756000   1756000        306.87394     -558.79577      0.98777189     15142.468      0.66487765   
   1758000   1758000        292.48072      279.22328      0.99913435     14970.263      0.66413058   
   1760000   1760000        298.4063       366.58056      0.96960512     15426.181      0.6639842    
   1762000   1762000        295.66047     -89.267123      0.97020755     15416.603      0.66387619   
   1764000   1764000        317.66962      278.62959      0.98207013     15230.383      0.66331512   
   1766000   1766000        291.33576     -164.04381      0.96857532     15442.583      0.66259046   
   1768000   1768000        305.56952      752.66197      1.000063       14956.362      0.66216846   
   1770000   1770000        306.60352     -570.66213      1.0076196      14844.198      0.66220907   
   1772000   1772000        303.09021     -460.44921      0.97837017     15287.981      0.66193647   
   1774000   1774000        298.25334      116.86172      0.99656291     15008.891      0.66130658   
   1776000   1776000        296.82207     -951.02284      0.99168215     15082.76       0.66103926   
   1778000   1778000        309.89788     -91.895061      0.98390786     15201.936      0.66090635   
   1780000   1780000        303.30375     -245.0466       0.99718347     14999.551      0.66105821   
   1782000   1782000        292.37689      50.057336      0.98372312     15204.791      0.66020169   
   1784000   1784000        313.81514      190.62142      0.97085254     15406.361      0.65995451   
   1786000   1786000        303.4995      -867.52339      0.96395226     15516.644      0.65879684   
   1788000   1788000        306.48631     -837.01806      0.97627003     15320.868      0.65894931   
   1790000   1790000        296.94296     -1240.4713      0.97743325     15302.635      0.65848041   
   1792000   1792000        294.4997      -553.45309      1.0014396      14935.802      0.65932738   
   1794000   1794000        307.0052       442.60663      1.0014807      14935.19       0.65939516   
   1796000   1796000        299.68894      605.19359      0.99759995     14993.289      0.65913386   
   1798000   1798000        307.00475     -100.29666      0.98106153     15246.041      0.658967     
   1800000   1800000        307.57177      179.95866      0.99692044     15003.509      0.65861642   
   1802000   1802000        312.4845       871.98875      0.99792666     14988.38       0.65790754   
   1804000   1804000        293.59788     -81.93553       1.0029917      14912.691      0.65769507   
   1806000   1806000        301.50605      399.55276      0.9870657      15153.302      0.65711945   
   1808000   1808000        289.29979     -501.10429      0.99938022     14966.58       0.65710949   
   1810000   1810000        289.29579      286.10541      0.99472905     15036.561      0.65658858   
   1812000   1812000        293.30732     -84.506313      0.98818128     15136.195      0.65625428   
   1814000   1814000        294.63397      748.26994      0.98948062     15116.319      0.65624834   
   1816000   1816000        308.41683      1561.0751      0.99001766     15108.119      0.65603855   
   1818000   1818000        303.60441     -7.0271119      0.99360115     15053.63       0.65645989   
   1820000   1820000        288.10711      476.63639      0.97529522     15336.181      0.65723161   
   1822000   1822000        310.28181     -732.80414      0.97833624     15288.511      0.65697909   
   1824000   1824000        290.10275     -1186.1665      0.96868199     15440.882      0.65644621   
   1826000   1826000        302.48528     -86.053279      0.99503865     15031.883      0.65593547   
   1828000   1828000        304.38152     -597.41309      0.99225008     15074.128      0.65683175   
   1830000   1830000        314.24217      375.54178      0.99546087     15025.507      0.65658035   
   1832000   1832000        298.90243      361.78466      0.98587994     15171.527      0.65719396   
   1834000   1834000        288.20932     -123.23147      0.99286147     15064.845      0.65789985   
   1836000   1836000        289.57195     -362.87266      0.98867158     15128.689      0.65853477   
   1838000   1838000        281.93844      542.29013      1.0078809      14840.349      0.65714232   
   1840000   1840000        301.55809     -14.144522      0.98640823     15163.402      0.65686726   
   1842000   1842000        297.35268      1303.1776      1.0006421      14947.706      0.65796642   
   1844000   1844000        293.4391      -45.804503      0.981048       15246.251      0.65800599   
   1846000   1846000        302.68591     -250.51206      0.9754694      15333.443      0.6581787    
   1848000   1848000        292.94346     -9.9047524      0.98874724     15127.531      0.65860798   
   1850000   1850000        295.01933     -830.41633      0.97427136     15352.298      0.65876077   
   1852000   1852000        289.72352      1461.2214      1.0124718      14773.058      0.65831377   
   1854000   1854000        284.81397     -247.97596      0.98965804     15113.609      0.65940876   
   1856000   1856000        297.57621      340.48568      0.99817188     14984.698      0.65957906   
   1858000   1858000        293.11508     -259.98195      0.97838477     15287.753      0.65981805   
   1860000   1860000        304.88459     -831.11168      0.98117782     15244.234      0.66173247   
   1862000   1862000        298.47481     -198.70752      0.98007975     15261.314      0.66145306   
   1864000   1864000        298.9676       1627.9952      1.0022451      14923.799      0.66092485   
   1866000   1866000        307.96812     -790.55529      0.99992481     14958.429      0.66046602   
   1868000   1868000        300.06064      367.31038      1.015492       14729.121      0.65991354   
   1870000   1870000        297.29502      841.77781      1.0032522      14908.818      0.6599019    
   1872000   1872000        312.76723      494.0807       0.99684785     15004.601      0.66011137   
   1874000   1874000        315.98267     -553.72575      0.97764266     15299.357      0.66059002   
   1876000   1876000        293.93359      541.66772      0.9783037      15289.02       0.66179165   
   1878000   1878000        293.06969      794.49785      0.97483365     15343.443      0.66143158   
   1880000   1880000        297.53393     -393.65359      0.96622624     15480.126      0.66114984   
   1882000   1882000        302.5514      -1400.8379      0.9818125      15234.38       0.66115408   
   1884000   1884000        299.14233      377.459        0.98392662     15201.646      0.66054344   
   1886000   1886000        298.63162      863.57091      0.97733727     15304.138      0.66023319   
   1888000   1888000        299.78041      287.7907       0.98674972     15158.154      0.65983867   
   1890000   1890000        301.22097     -1070.9982      0.98171449     15235.901      0.66032769   
   1892000   1892000        306.03009      569.10618      0.99299211     15062.863      0.66166348   
   1894000   1894000        312.53881      1046.1326      0.98954014     15115.409      0.66144374   
   1896000   1896000        303.39955      441.6871       0.96843306     15444.851      0.66168177   
   1898000   1898000        306.94832     -87.337423      0.97135553     15398.383      0.66120405   
   1900000   1900000        318.89441     -803.32345      0.99301379     15062.534      0.66168021   
   1902000   1902000        321.3827       885.84171      1.0016705      14932.36       0.66135246   
   1904000   1904000        303.74179      415.28918      1.0157136      14725.908      0.66095814   
   1906000   1906000        297.9447      -398.40227      0.97588442     15326.922      0.66040899   
   1908000   1908000        300.05943     -227.50409      0.98396971     15200.98       0.66087618   
   1910000   1910000        301.55061      798.22354      1.0035292      14904.703      0.66065733   
   1912000   1912000        288.4335      -911.76537      0.99659413     15008.421      0.66165132   
   1914000   1914000        306.72849      545.67974      0.98584308     15172.094      0.66213422   
   1916000   1916000        294.98757      193.68148      1.0002712      14953.249      0.66169761   
   1918000   1918000        292.92932      161.04711      0.98474266     15189.049      0.66232837   
   1920000   1920000        295.18003     -93.135905      0.98864486     15129.097      0.66257744   
   1922000   1922000        305.62494      35.928819      1.0061665      14865.635      0.66225076   
   1924000   1924000        297.92191     -427.29603      0.97565427     15330.537      0.66195629   
   1926000   1926000        285.40908     -963.05861      0.97817321     15291.059      0.66280188   
   1928000   1928000        304.13453     -50.246291      0.97951971     15270.039      0.6660226    
   1930000   1930000        290.80791     -541.65315      0.99269152     15067.424      0.66721616   
   1932000   1932000        304.79304      765.00255      0.99432172     15042.721      0.66921527   
   1934000   1934000        307.97262      19.450135      1.0042082      14894.624      0.66901007   
   1936000   1936000        292.60076     -364.0798       0.99191924     15079.155      0.66867642   
   1938000   1938000        285.32748     -49.396154      0.98529744     15180.496      0.66841578   
   1940000   1940000        282.71488     -732.77958      0.97607464     15323.935      0.66931823   
   1942000   1942000        304.61608     -718.4981       0.97077572     15407.58       0.66835328   
   1944000   1944000        293.5734       679.0671       0.97360561     15362.796      0.66794181   
   1946000   1946000        298.90642     -242.7459       0.98950264     15115.982      0.66816785   
   1948000   1948000        303.94347      198.46707      0.98929798     15119.109      0.66777731   
   1950000   1950000        291.56633      470.21216      0.98363399     15206.169      0.66816219   
   1952000   1952000        298.08073      1091.7305      0.99534576     15027.245      0.66857831   
   1954000   1954000        315.413       -296.5206       0.97317789     15369.548      0.66803078   
   1956000   1956000        305.06647      113.03879      0.9915772      15084.357      0.667998     
   1958000   1958000        298.39948      193.83313      0.98534984     15179.689      0.66759824   
   1960000   1960000        287.48712     -488.20182      0.96761554     15457.9        0.66739726   
   1962000   1962000        288.71936     -832.0488       0.98443822     15193.746      0.66725216   
   1964000   1964000        295.37733      614.95276      1.0054688      14875.951      0.66691597   
   1966000   1966000        299.60376     -290.7556       0.97608692     15323.742      0.66721913   
   1968000   1968000        303.15164     -124.61899      0.96810821     15450.034      0.66783829   
   1970000   1970000        308.30552      489.09374      0.99947087     14965.223      0.66734356   
   1972000   1972000        298.92324      141.08095      0.98216863     15228.856      0.66672717   
   1974000   1974000        314.76695      281.41513      0.98219626     15228.427      0.66648621   
   1976000   1976000        312.68977      444.78885      1.0005903      14948.48       0.6664771    
   1978000   1978000        305.2742       477.72167      0.99570329     15021.849      0.6658567    
   1980000   1980000        300.70802     -731.01462      0.97375386     15360.457      0.66593142   
   1982000   1982000        312.86032     -366.63308      0.97210575     15386.499      0.66622075   
   1984000   1984000        300.3815       318.4864       0.97421159     15353.24       0.66615657   
   1986000   1986000        301.12619      373.66062      0.98442103     15194.011      0.66625651   
   1988000   1988000        302.1127      -19.299049      0.99923357     14968.777      0.66743302   
   1990000   1990000        307.68397      182.45851      0.9943267      15042.646      0.66741547   
   1992000   1992000        294.03774      373.11025      0.98680783     15157.262      0.667491     
   1994000   1994000        294.94237      232.29613      0.98385218     15202.796      0.6671421    
   1996000   1996000        296.01416     -635.85005      0.97394232     15357.485      0.66640342   
   1998000   1998000        308.01206      511.84433      0.99328906     15058.36       0.66644318   
   2000000   2000000        292.09826      657.11876      0.97768315     15298.724      0.66650989   
Loop time of 3177.99 on 4 procs for 1800000 steps with 1500 atoms

Performance: 48.937 ns/day, 0.490 hours/ns, 566.395 timesteps/s, 849.593 katom-step/s
99.1% CPU use with 4 MPI tasks x no OpenMP threads

MPI task timing breakdown:
Section |  min time  |  avg time  |  max time  |%varavg| %total
---------------------------------------------------------------
Pair    | 1719.4     | 1723.5     | 1727       |   6.5 | 54.23
Bond    | 0.15422    | 0.15979    | 0.16539    |   1.0 |  0.01
Kspace  | 930.72     | 933.86     | 937.61     |   8.1 | 29.39
Neigh   | 153.78     | 153.8      | 153.83     |   0.2 |  4.84
Comm    | 69.978     | 70.43      | 70.84      |   4.8 |  2.22
Output  | 1.1752     | 1.3182     | 1.4023     |   7.6 |  0.04
Modify  | 266.83     | 268.15     | 269.69     |   6.2 |  8.44
Other   |            | 26.77      |            |       |  0.84

Nlocal:            375 ave         384 max         370 min
Histogram: 2 0 0 1 0 0 0 0 0 1
Nghost:        5953.25 ave        6003 max        5897 min
Histogram: 1 0 1 0 0 0 0 0 1 1
Neighs:         132939 ave      137719 max      130208 min
Histogram: 2 0 0 1 0 0 0 0 0 1

Total # of neighbors = 531757
Ave neighs/atom = 354.50467
Ave special neighs/atom = 2
Neighbor list builds = 78018
Dangerous builds = 0

# ----- 收尾：先取出 η，再 unfix（否则变量里的 f_visc_corr 已失效）-----
print           """
生产结束。
  平衡：NVT ${nvt_steps} 步 + NPT ${npt_eq_steps} 步（共 500 ps）
  生产：NPT ${prod_steps} 步（2 ns）
  平动轨迹：result_traj_trans.lammpstrj（全程，每 ${dump_trans_every} 步）
  转动轨迹：result_traj_rot.lammpstrj（仅前 ${rot_steps} 步，每 ${dump_rot_every} 步）
  粘度相关：result_viscosity_correlate.dat ；运行平均 η ≈ ${viscosity_cP} cP
"""
WARNING: Detected non-ASCII characters in input. Will try to continue by replacing with ASCII equivalents where known. (src/input.cpp:482)

����������
  ������NVT 100000 �� + NPT 400000 ������ 500 ps��
  ������NPT 2000000 ����2 ns��
  ����������result_traj_trans.lammpstrj���������� 500 ����
  ����������result_traj_rot.lammpstrj������ 200000 ������ 20 ����
  ����������result_viscosity_correlate.dat ���������� � �� 0.666509889582982 cP


undump          dump_trans
unfix           visc_corr
unfix           mynpt

write_data      result_atoms.prod.data  nofix
System init for write_data ...
PPPM initialization ...
  using 12-bit tables for long-range coulomb
  G vector (1/distance) = 0.31270346
  grid = 24 24 24
  stencil order = 5
  estimated absolute RMS force accuracy = 0.0018929396
  estimated relative force accuracy = 5.7005313e-06
  using double precision KISS FFT
  3d grid and FFT values/proc = 11191 3456
Generated 1 of 1 mixed pair_coeff terms from arithmetic mixing rule
Total wall time: 1:10:40
