LAMMPS data file via write_data, version 4 Jul 2026, timestep = 2000000, units = real

1500 atoms
2 atom types
1000 bonds
1 bond types
500 angles
1 angle types

-12.412380221656496 12.412380221656496 xlo xhi
-12.412380221656496 12.412380221656496 ylo yhi
-12.412380221656496 12.412380221656496 zlo zhi

Masses

1 1.008
2 15.999

Pair Coeffs # lj/cut/coul/long

1 0 0
2 0.1553 3.166

Bond Coeffs # harmonic

1 517.63 1

Angle Coeffs # harmonic

1 37.9505 109.47

Atoms # full

695 232 2 -0.8476 -10.579454364783578 -9.484588774062068 -9.93111266247307 0 -2 -1
93 31 1 0.4238 -3.6371310939723838 -3.3667276309648226 -12.393877140893371 -1 3 1
394 132 1 0.4238 -4.29320208272847 -4.8755337427875185 -11.070942521822953 1 0 1
210 70 1 0.4238 -5.618960772593323 -7.976463189681906 -9.660023010675351 -1 -2 0
634 212 1 0.4238 -11.219277836322224 -8.249015955430977 -8.223060317008134 0 2 0
1338 446 1 0.4238 -6.298279956586864 -9.340839494280365 -7.893267101544328 1 -1 1
209 70 2 -0.8476 -5.059472285322032 -8.148096067816144 -8.849155810651405 -1 -2 0
696 232 1 0.4238 -10.139773882408024 -10.168038214582904 -9.348387344645626 0 -2 -1
342 114 1 0.4238 -5.2777561276973195 -6.581767318015816 -8.382047756964814 -1 1 0
341 114 2 -0.8476 -5.919780339475731 -5.889439091971675 -8.0526885267978 -1 1 0
1261 421 1 0.4238 8.687990051592637 -0.055549845157912614 -7.373223258621721 1 2 1
636 212 1 0.4238 -11.406382271775165 -6.879906480729695 -7.352926299345246 0 2 0
635 212 2 -0.8476 -11.837236234019796 -7.490081200678568 -8.017789101227354 0 2 0
754 252 1 0.4238 10.221772745897796 -6.163443657781044 -7.657051787954745 -1 1 -3
745 249 1 0.4238 7.6374705369664735 -0.4976620682657664 -12.022267499395502 0 -2 0
657 219 1 0.4238 9.29260976368319 -9.788489910662395 -0.10851414402055039 1 0 -3
390 130 1 0.4238 -11.089557134133846 -1.7052613888824535 -8.541196547661944 -3 3 1
1245 415 1 0.4238 -8.506554136943949 -11.0142127252753 -7.725461409909999 0 0 1
1337 446 2 -0.8476 -7.190553814463108 -9.566870982688929 -7.502437159625446 1 -1 1
1336 446 1 0.4238 -7.709040482001319 -8.726030012093737 -7.347037943885828 1 -1 1
1244 415 2 -0.8476 -9.049320236439037 -11.645292696605948 -8.279658578164089 0 0 1
694 232 1 0.4238 -10.730520206196964 -9.870161811104428 -10.841334279043082 0 -2 -1
1115 372 2 -0.8476 10.901135050164003 -4.200294596582397 -0.4204536607794343 -3 1 0
208 70 1 0.4238 -4.546885806737969 -8.997941841928467 -8.971663649395827 -1 -2 0
973 325 1 0.4238 -3.002254633360417 -10.511116284649553 -9.188679440786883 -1 1 4
1119 373 1 0.4238 0.2001731623150036 -8.791500956524041 -6.454740500163317 4 -1 1
1118 373 2 -0.8476 -0.7145772179165437 -9.182691158977777 -6.555700246164918 4 -1 1
1117 373 1 0.4238 -1.2457504564729671 -8.627478168493269 -7.195688128423409 4 -1 1
852 284 1 0.4238 -1.5817610371951272 -10.433966012759152 -5.889008205688993 -2 0 1
340 114 1 0.4238 -5.582589956970434 -5.503902012551566 -7.193820206286565 -1 1 0
823 275 1 0.4238 -5.648788011691304 -9.52234728075975 -11.804648298690232 1 2 2
1266 422 1 0.4238 1.0108055355764307 -10.736681987564793 -8.063345695609668 2 1 0
1265 422 2 -0.8476 1.7365530532711357 -10.96419529915004 -8.71259094858654 2 1 0
974 325 2 -0.8476 -3.87839972767933 -10.52957645976723 -8.706993336805905 -1 1 4
975 325 1 0.4238 -3.8119393069214187 -11.13975489402869 -7.917527453720021 -1 1 4
851 284 2 -0.8476 -1.7892161757182503 -11.262795292614365 -5.369397544753855 -2 0 1
1007 336 2 -0.8476 -1.8059954097945106 -10.749961374499993 -10.543321197151135 2 0 -1
1008 336 1 0.4238 -2.182500181592099 -11.147994226496925 -11.379865007268776 2 0 -1
1006 336 1 0.4238 -0.8596101323805438 -10.469804062409663 -10.704126560258734 2 0 -1
291 97 1 0.4238 -9.37011989971501 -7.772801548756625 -9.8494514032481 -1 -1 2
1150 384 1 0.4238 -1.602852226734658 -7.7506591463769645 -9.151200279071356 0 1 5
1094 365 2 -0.8476 -1.6192049249704006 -7.732627415968919 -10.831459680714195 0 1 0
1151 384 2 -0.8476 -1.9718820186544068 -7.563821117863964 -8.240761126300992 0 1 5
763 255 1 0.4238 -3.0732272822004667 -12.310589904292991 -6.1735396173057016 3 -1 0
1425 475 1 0.4238 -5.541375035696984 -9.165770809693761 -5.2230137047799525 -1 2 0
1423 475 1 0.4238 -4.9779749355295095 -8.350706303056274 -6.521032384459213 -1 2 0
1424 475 2 -0.8476 -5.12076870059411 -8.312774747051934 -5.53201148419035 -1 2 0
1093 365 1 0.4238 -1.426702949566863 -8.638643728468638 -11.208379350346316 0 1 0
1466 489 2 -0.8476 11.643536290015094 -1.4850151125956224 -1.4456376935449753 -2 0 1
250 84 1 0.4238 1.210884657058747 -10.469209557198434 -10.226557364543972 -1 -4 3
1054 352 1 0.4238 -8.87279854080961 -2.6289931658933465 -11.609269345319651 1 1 1
1264 422 1 0.4238 2.3795027722322164 -10.200820628194805 -8.774768698562351 2 1 0
505 169 1 0.4238 3.0275637672875018 -6.400400375875887 -10.047909928520031 1 0 1
834 278 1 0.4238 2.6640561788482753 -7.465086299448814 -7.782445934822266 -1 0 1
506 169 2 -0.8476 3.5062173927197318 -6.5175444486603995 -9.177761147529669 1 0 1
507 169 1 0.4238 3.6734496574141833 -5.621688467524388 -8.766098258309869 1 0 1
905 302 2 -0.8476 4.3670230226089455 -9.073328510774733 -9.213615516619031 -1 -1 -1
906 302 1 0.4238 3.9639531994921864 -8.169084279562526 -9.354569382012885 -1 -1 -1
252 84 1 0.4238 0.9187902808563031 -11.265489644222125 -11.621986072326335 -1 -4 3
957 319 1 0.4238 -4.182825135394106 -11.913262846220572 -9.721598023241924 3 1 -1
762 254 1 0.4238 12.034531523700851 -0.022503637953798616 -4.252287738394812 -1 1 0
251 84 2 -0.8476 1.001131752458793 -10.363315703099227 -11.198555906820335 -1 -4 3
1283 428 2 -0.8476 -4.396230236168046 -0.5567421146512608 -10.70931920338618 1 0 0
833 278 2 -0.8476 2.3032266768959726 -8.030644625012936 -7.040868202419742 -1 0 1
904 302 1 0.4238 5.229805533474591 -8.979896459454967 -8.716757658291215 -1 -1 -1
191 64 2 -0.8476 2.649893717048842 -6.478456531198891 -12.0079636432389 -3 2 0
199 67 1 0.4238 4.262014883638626 -10.84013790357388 -9.725661643031406 -3 1 -1
200 67 2 -0.8476 4.642094503792448 -11.697752329934762 -10.07211343176185 -3 1 -1
124 42 1 0.4238 -5.292020910210194 -11.698812569697429 -5.5859911776145115 0 1 2
1477 493 1 0.4238 1.8049621874657351 -0.31138202340213894 -1.856035181964724 -1 2 -1
832 278 1 0.4238 1.8452485437959005 -7.447738973834167 -6.369698445931648 -1 0 1
1092 364 1 0.4238 6.033682549636575 -5.820261690287859 -8.06928634776754 -3 3 1
186 62 1 0.4238 9.412378395921037 -11.45007768616689 -7.113886625790479 -1 0 1
239 80 2 -0.8476 6.151741969374013 -10.824362630351239 -4.498603976285553 0 -1 3
1343 448 2 -0.8476 -1.4428222813358271 -6.632014666504179 -0.21594519168315499 -1 -1 1
222 74 1 0.4238 7.735282256874607 -2.2994045509254075 -0.45351766727411036 1 -1 1
11 4 2 -0.8476 9.345734918725087 -0.09738587785311559 -1.906480611846012 1 1 0
756 252 1 0.4238 11.336940673181582 -7.3002056535606 -8.018679570496834 -1 1 -3
755 252 2 -0.8476 10.358142332402382 -7.115981196476862 -7.929203266527311 -1 1 -3
928 310 1 0.4238 7.461345013076619 -11.930643613448044 -11.097427589778741 -2 0 0
649 217 1 0.4238 7.900846102135654 -10.092738612876381 -12.357140697157735 0 1 2
320 107 2 -0.8476 12.288579369038091 -12.059718200782454 -7.06431445297224 0 -3 -1
219 73 1 0.4238 9.278218255261828 -10.418749680641941 -8.992686259767124 1 1 -1
217 73 1 0.4238 8.090069291341331 -11.536637738152224 -8.920365193164207 1 1 -1
57 19 1 0.4238 8.720574947093011 -7.952923296729227 -11.54275367963956 0 -1 2
1379 460 2 -0.8476 10.798702009202911 -9.420023250900273 -9.726806477371413 -1 0 0
1378 460 1 0.4238 11.399310935191112 -9.412153004424395 -10.526305143126438 -1 0 0
1380 460 1 0.4238 10.879974944485317 -8.550145451606488 -9.240289918029795 -1 0 0
1396 466 1 0.4238 9.096643609997047 -7.022685429878118 -9.62346665259968 0 1 -2
216 72 1 0.4238 -8.354503229946651 -0.6424610844163325 -2.4813700750629804 -1 -1 0
1397 466 2 -0.8476 8.404736559840908 -6.946705670603539 -10.341437848590811 0 1 -2
576 192 1 0.4238 11.295239130146312 -11.202381658358128 -9.740368851033937 -2 0 0
218 73 2 -0.8476 8.636468904336118 -10.890230821299292 -8.387827485350629 1 1 -1
280 94 1 0.4238 8.790803351330188 -7.631406379536581 -6.854198075335124 -1 1 0
281 94 2 -0.8476 8.113800740648776 -7.701246867796268 -6.121544953461996 -1 1 0
325 109 1 0.4238 -1.121889991787567 -12.343755723299534 -0.8409794761275564 -2 -2 0
575 192 2 -0.8476 11.296859868189925 -12.17466928776215 -9.506605996831185 -2 0 0
122 41 2 -0.8476 10.601059686734194 -5.870699639275829 -3.019204656127841 0 1 2
837 279 1 0.4238 10.296293897088697 -0.08408180176805047 -9.56853623637693 -1 0 -1
1056 352 1 0.4238 -10.237821542531329 -3.3723873029387033 -11.108590277119152 1 1 1
290 97 2 -0.8476 -8.993386616137371 -6.848160007163753 -9.793758181394342 -1 -1 2
1055 352 2 -0.8476 -9.342664171757109 -3.0301805819511998 -10.822970454382327 1 1 1
366 122 1 0.4238 -12.372590422341865 -5.713941762897677 -8.645517646077614 0 -2 1
643 215 1 0.4238 -9.6703473659367 -1.6967996131847336 -0.9379440262921451 2 0 2
555 185 1 0.4238 -10.008976589055566 -3.1000632541267805 -9.372020670350937 1 1 1
34 12 1 0.4238 -7.388260114151227 -3.6863383659614684 -6.43394036347174 2 -1 -1
35 12 2 -0.8476 -7.895354764560159 -4.081587685325829 -7.19985418335511 2 -1 -1
36 12 1 0.4238 -7.4266785131503825 -4.904672085988676 -7.520581595236547 2 -1 -1
1129 377 1 0.4238 -9.863710976033223 -0.1417347925300092 -5.509397702703795 0 1 0
554 185 2 -0.8476 -10.347080343123086 -3.182098337090503 -8.434498822358254 1 1 1
553 185 1 0.4238 -9.660245370309216 -3.6417510570760356 -7.871499704522024 1 1 1
785 262 2 -0.8476 -11.295164749612596 -4.708507217746067 -12.060946045048222 -1 -1 2
399 133 1 0.4238 10.920901100714284 -3.238016990204944 -8.091847232769789 2 -2 2
289 97 1 0.4238 -9.648211561354849 -6.197705664571758 -10.178602232700944 -1 -1 2
364 122 1 0.4238 -11.903617560150995 -4.152063125347386 -8.73038085028233 0 -2 1
365 122 2 -0.8476 12.165037201712119 -4.76643394455846 -8.504894691304797 -1 -2 1
397 133 1 0.4238 10.923065679185518 -1.622798167119834 -8.331983903063577 2 -2 2
395 132 2 -0.8476 -4.497612984461647 -4.791393942394679 -12.046200884548448 1 0 1
1262 421 2 -0.8476 8.247891205705221 -0.7078090433630777 -6.756082323479206 1 2 1
519 173 1 0.4238 8.410770400090724 -1.0603787653716914 -3.4579215672358288 0 0 1
1355 452 2 -0.8476 -11.862061235749733 -6.2816599580751635 -0.32040824650627364 2 0 0
458 153 2 -0.8476 4.211773062895412 -0.10507022403021615 -0.07099202951096599 0 1 -1
783 261 1 0.4238 -9.50337659386425 -11.971135191519442 -1.0617337223413659 1 0 2
1020 340 1 0.4238 -5.769667255244783 -2.137160146888112 -8.349974046666928 0 2 0
920 307 2 -0.8476 0.8979721500384628 -0.20809069350380582 -9.10192043844732 2 1 0
91 31 1 0.4238 -3.555924040296839 -1.8204769912438845 -11.875112807797565 -1 3 1
1152 384 1 0.4238 -2.775680322628924 -6.974420738307002 -8.321423086512564 0 1 5
1019 340 2 -0.8476 -6.3049630817599684 -2.099352868015515 -9.193786752024774 0 2 0
1018 340 1 0.4238 -6.998712076564583 -2.819449128840599 -9.180956919648107 0 2 0
463 155 1 0.4238 -1.7792551026664292 -2.723299158865876 -6.222018022633311 1 0 1
464 155 2 -0.8476 -2.271265288732282 -3.418447106988081 -6.746123213616169 1 0 1
1144 382 1 0.4238 -12.101457584910074 -10.844434838363405 -0.8927859343136834 -1 1 1
465 155 1 0.4238 -1.6255320421307893 -4.108470090062529 -7.073060126149983 1 0 1
1282 428 1 0.4238 -4.906657837837277 -1.1404608538114438 -10.077870487849044 1 0 0
1116 372 1 0.4238 11.479201893927685 -4.984040304388156 -0.19335715690745928 -3 1 0
804 268 1 0.4238 -2.5890821543412734 -3.647677969643466 -0.8930589215257378 1 3 1
94 32 1 0.4238 -3.239460640504502 -4.298230045815121 -8.71497791102784 1 1 -1
96 32 1 0.4238 -4.649639821417643 -5.033119529884583 -9.086372905683078 1 1 -1
95 32 2 -0.8476 -3.8136982581668626 -4.633055729678861 -9.462061485366206 1 1 -1
1051 351 1 0.4238 -1.0800461088103042 -3.7232831754168245 -10.296264580131293 1 -1 -2
1053 351 1 0.4238 -1.5166002594049797 -3.1999543850921057 -11.78022879148414 1 -1 -2
1052 351 2 -0.8476 -0.799627820736653 -3.6569681207536373 -11.25384429196538 1 -1 -2
369 123 1 0.4238 4.557949140242991 -10.663073354335511 -11.6757366512351 1 2 2
1095 365 1 0.4238 -1.5536577084915049 -7.048584207321184 -11.557944019711012 0 1 0
185 62 2 -0.8476 9.704099013953874 -11.759635922129394 -6.208865258805382 -1 0 1
1188 396 1 0.4238 5.6689913637020215 -2.8493312795432573 -1.6526978080629955 -1 -3 -3
517 173 1 0.4238 7.911319061202496 -1.2323412642157958 -5.003101040958936 0 0 1
437 146 2 -0.8476 -6.835433726212323 -7.932981412535213 -11.098757633715524 0 1 0
1199 400 2 -0.8476 -0.40695618116049204 -4.927386290774199 -7.938312715332094 1 2 -3
1243 415 1 0.4238 -8.596494824080304 -11.790367802045159 -9.159370804542627 0 0 1
1198 400 1 0.4238 0.07131513424220337 -5.335794378924533 -7.160848643748607 1 2 -3
1200 400 1 0.4238 -0.8878133202436906 -5.6418608384073705 -8.446538495593229 1 2 -3
150 50 1 0.4238 3.839199973875589 -1.890752096333463 -11.192927069509642 0 1 3
192 64 1 0.4238 2.2923886288843907 -5.544923086208578 -11.981577314675144 -3 2 0
318 106 1 0.4238 1.3724915167582168 -1.937075620299959 -8.693309294285452 2 -2 -3
317 106 2 -0.8476 1.5472595766875088 -2.9176442611591895 -8.604244907655438 2 -2 -3
316 106 1 0.4238 0.693723671752279 -3.389645386404217 -8.383603766465159 2 -2 -3
81 27 1 0.4238 3.0102251104286104 -3.6955249547414013 -8.268428485130949 -1 0 2
372 124 1 0.4238 0.6453610999545543 -3.8313530315691544 -11.814496953034991 1 -2 2
371 124 2 -0.8476 1.567313856044061 -3.869490059665596 -12.199905325824258 1 -2 2
370 124 1 0.4238 2.1221391627789608 -3.1344237330871447 -11.810242369912471 1 -2 2
149 50 2 -0.8476 2.8496176499105275 -1.8552317318745235 -11.053436549221884 0 1 3
148 50 1 0.4238 2.65247865445496 -1.8096288969736918 -10.074126595234151 0 1 3
1091 364 2 -0.8476 6.386012520207666 -5.628216299933374 -8.98524104543401 -3 3 1
1418 473 2 -0.8476 1.562113316020442 -2.139000918156265 -5.023506785925885 0 0 1
1090 364 1 0.4238 5.653155335305131 -5.252035913435882 -9.55216210886159 -3 3 1
1417 473 1 0.4238 1.9473721931714927 -2.9086236737165834 -5.532670102471721 0 0 1
79 27 1 0.4238 4.585237468314515 -3.3325031372034974 -8.03571985151136 -1 0 2
80 27 2 -0.8476 3.9377709047451024 -4.067810235869992 -8.235973136717769 -1 0 2
389 130 2 -0.8476 -11.375760498130226 -0.7475432899045984 -8.570456418529623 -3 3 1
1395 465 1 0.4238 11.421506009657785 -3.1305709031295343 -11.897606989133266 -1 -2 3
946 316 1 0.4238 -11.043187064457685 -3.2275622687036165 -6.466949925448623 0 2 2
398 133 2 -0.8476 10.859395436771662 -2.3459227367783306 -7.644213192245282 2 -2 2
1187 396 2 -0.8476 4.718117055897563 -2.980497971060146 -1.9330989449989135 -1 -3 -3
947 316 2 -0.8476 -10.532084737678003 -3.259279182692829 -5.608020748275469 0 2 2
871 291 1 0.4238 6.270555761375574 -1.7051728008556477 -7.048746768845336 1 3 1
872 291 2 -0.8476 5.523643098537223 -1.8798882747967482 -7.690297258039973 1 3 1
1393 465 1 0.4238 11.524485976799683 -3.923512777907881 -10.473794930402326 -1 -2 3
747 249 1 0.4238 6.186020771881148 -1.0627682907373082 -11.53180792798594 0 -2 0
1394 465 2 -0.8476 10.922560885883792 -3.6931313633346523 -11.23838734458211 -1 -2 3
300 100 1 0.4238 5.311209918095132 -2.5774960994890996 -9.868153793942314 0 0 3
299 100 2 -0.8476 5.543518784350065 -2.317380610192462 -10.805364416599279 0 0 3
835 279 1 0.4238 10.79183325207642 -0.9847026353673787 -10.837365255513307 -1 0 -1
1398 466 1 0.4238 7.536626739070401 -6.65696056124897 -9.93841917101733 0 1 -2
1221 407 1 0.4238 7.90239580673512 -4.341702537411475 -10.0498082098969 0 -1 1
1220 407 2 -0.8476 8.06481848759663 -4.056068954555201 -10.994278059821053 0 -1 1
298 100 1 0.4238 6.262605734934533 -2.9206951550826403 -11.150207908880331 0 0 3
1219 407 1 0.4238 9.049154946129287 -4.017989221510295 -11.166390199839999 0 -1 1
803 268 2 -0.8476 -1.8375710832582843 -4.252087331898922 -1.1574667868782587 1 3 1
836 279 2 -0.8476 10.96989586192482 -0.7539735232045626 -9.880782665621409 -1 0 -1
1028 343 2 -0.8476 9.906221923464903 -3.5472345849276827 -5.599947715745595 0 2 -1
1029 343 1 0.4238 10.548918919062446 -3.1279093461190097 -6.241117870102986 0 2 -1
1027 343 1 0.4238 10.123371467961066 -3.252185583580923 -4.66947304822319 0 2 -1
56 19 2 -0.8476 9.103856348249439 -8.387182765635162 -12.35792543737118 0 -1 2
570 190 1 0.4238 8.406554892068796 -4.581471120743424 -5.089137381178822 0 -1 -1
948 316 1 0.4238 -9.848000482534477 -2.52992548171863 -5.600096959157936 0 2 2
282 94 1 0.4238 8.04432370643845 -6.823683351488579 -5.647154734702595 -1 1 0
873 291 1 0.4238 5.256875075866459 -1.023551253226234 -8.132465398071714 1 3 1
1131 377 1 0.4238 -8.268840418386795 -0.48894897833753426 -5.460077016631369 0 1 0
125 42 2 -0.8476 -5.931962552581355 -10.95017137107815 -5.412780622577356 0 1 2
824 275 2 -0.8476 -4.982233804742225 -10.262546696268918 -11.716322666905075 1 2 2
1431 477 1 0.4238 -10.290581464924626 -9.236156048008095 -4.978143431833595 -1 0 0
1462 488 1 0.4238 -8.995769998436737 -7.003964075753969 -0.5424732732635197 -1 3 -1
135 45 1 0.4238 -8.386496929465231 -7.943319734108785 -4.171179663980544 2 -2 0
134 45 2 -0.8476 -9.065012520524204 -8.581725606794626 -3.8077982489569195 2 -2 0
795 265 1 0.4238 -6.816241372410121 -10.819744793326802 -4.0740009823740175 -2 2 -1
133 45 1 0.4238 -9.272212739606907 -8.343517094251965 -2.858947888283709 2 -2 0
793 265 1 0.4238 -8.19170578240055 -10.116050968826803 -3.5453094484313303 -2 2 -1
1464 488 1 0.4238 -7.97717667045672 -8.196336655152997 -0.9977954732416909 -1 3 -1
1463 488 2 -0.8476 -8.914818800380434 -7.854690848152351 -1.0618020728982493 -1 3 -1
794 265 2 -0.8476 -7.531934247983208 -10.848229518529259 -3.376173510068246 -2 2 -1
293 98 2 -0.8476 -11.826862793411282 -12.061075521981701 -3.8900084917050366 -1 -1 1
294 98 1 0.4238 -11.751722083906367 -11.219729562283726 -4.425248422377296 -1 -1 1
1146 382 1 0.4238 11.99101838370141 -11.369259879204462 -2.2547405468174224 -2 1 1
766 256 1 0.4238 -6.519451700405869 -10.209245255307636 -0.5319252988684603 0 0 -2
767 256 2 -0.8476 -6.2721082391457585 -9.277618402545441 -0.2656858201994665 0 0 -2
964 322 1 0.4238 -7.403610492356258 -6.773436061856423 -5.948414704681723 -2 -2 0
965 322 2 -0.8476 -6.9940480206303475 -6.6527814965506495 -5.044151296120226 -2 -2 0
184 62 1 0.4238 9.330194136564655 -11.14867303090149 -5.511075645218503 -1 0 1
85 29 1 0.4238 5.2545673613619766 -7.610709340187242 -1.9077295339207918 0 1 -2
1145 382 2 -0.8476 11.877382702994362 -10.821883868317142 -1.4256099981938004 -2 1 1
1356 452 1 0.4238 -12.01930997397208 -6.759470743249359 -1.1846772628009514 2 0 0
238 80 1 0.4238 5.668224792083896 -11.681392878821391 -4.676653178985422 0 -1 3
87 29 1 0.4238 6.041233659292223 -8.20903869429075 -0.6078216159829338 0 1 -2
989 330 2 -0.8476 -3.924920848108295 -8.579517412094843 -1.5825694165683624 -1 0 0
768 256 1 0.4238 -5.560069408926777 -8.93391874870318 -0.8779456886357166 0 0 -2
850 284 1 0.4238 -0.9477902751448397 -11.782271991853621 -5.220611542789074 -2 0 1
1160 387 2 -0.8476 -4.086389461049643 -5.591669275167598 -3.2688495587882027 1 2 -2
1161 387 1 0.4238 -4.428446133885052 -6.530482168574036 -3.2286195808974405 1 2 -2
966 322 1 0.4238 -6.0484385468003445 -6.977660780007955 -5.06049352165678 -2 -2 0
1159 387 1 0.4238 -3.087547640939979 -5.598527257749538 -3.22132264591343 1 2 -2
988 330 1 0.4238 -3.541189956111211 -9.040640918098557 -2.382636332796563 -1 0 0
1375 459 1 0.4238 -1.9151037363427061 -10.649970055751293 -3.7713827733764806 0 1 0
1376 459 2 -0.8476 -2.0413862527134086 -10.327016887874427 -2.833435618393283 0 1 0
689 230 2 -0.8476 -1.289481551970102 -6.253672620255227 -3.4640643946780023 0 -1 -2
1377 459 1 0.4238 -2.2651036550733163 -11.10137724037258 -2.2415678110879886 0 1 0
690 230 1 0.4238 -0.9557874636292372 -7.098304607741874 -3.045451742707778 0 -1 -2
677 226 2 -0.8476 -0.42251523293455584 -8.362888557093356 -1.707048804688344 1 2 -1
1130 377 2 -0.8476 -9.18962661625347 -0.8789854509395596 -5.463981088739831 0 1 0
1186 396 1 0.4238 4.115174389132923 -2.4817480329045356 -1.3104437567593932 -1 -3 -3
1344 448 1 0.4238 -1.6688368319204052 -5.826580497161211 -0.7638359471341833 -1 -1 1
678 226 1 0.4238 -0.9510091274226795 -9.188451544107293 -1.9048659030546748 1 2 -1
990 330 1 0.4238 -3.24877176516404 -7.945679143459473 -1.2069864967887052 -1 0 0
630 210 1 0.4238 -8.540461995831542 -1.0849948478974394 -9.869690843664262 -1 2 1
126 42 1 0.4238 -6.381644065558366 -10.691541039654537 -6.267700366848907 0 1 2
1471 491 1 0.4238 4.006392111571488 -5.618307983792508 -1.1005521543892143 2 2 0
1472 491 2 -0.8476 4.3793215142573825 -5.928671361417469 -1.9749599799508262 2 2 0
676 226 1 0.4238 0.512209922448724 -8.617040004025105 -1.4586787007481745 1 2 -1
629 210 2 -0.8476 -8.792548530043819 -0.1431142819650173 -9.64764411359694 -1 2 1
1255 419 1 0.4238 1.4277947376639997 -0.9739177413758284 -12.032745927834586 0 0 -1
416 139 2 -0.8476 3.021593518813626 -12.294113701296599 -3.9632344861150743 0 1 1
270 90 1 0.4238 2.536987831524529 -8.885116755752529 -4.427463525713761 0 0 0
269 90 2 -0.8476 2.622029651534035 -9.764273198461451 -4.896337764835564 0 0 0
268 90 1 0.4238 2.778476480066338 -9.608134426850363 -5.871600269102318 0 0 0
417 139 1 0.4238 2.9015015728259463 -11.354830549588856 -4.284662591091971 0 1 1
1401 467 1 0.4238 7.032166215437131 -8.638943114909129 -7.061481794759474 1 -2 0
385 129 1 0.4238 4.53288900998915 -9.689421155743275 -0.43697387165367746 0 2 -1
438 146 1 0.4238 -6.705278897466945 -7.694202731997172 -12.061064907269568 0 1 0
386 129 2 -0.8476 3.751980486370007 -10.217355831224943 -0.1031210890527455 0 2 -1
197 66 2 -0.8476 2.6404998634046937 -6.214476355604266 -4.118057294224066 2 -1 -2
387 129 1 0.4238 3.6770305383594053 -11.06746065320216 -0.6243650182104828 0 2 -1
378 126 1 0.4238 4.929394274956868 -7.1695006094062474 -5.9652836024966325 -2 2 2
545 182 2 -0.8476 0.5862543208713138 -6.399044586166681 -5.6098187880104415 1 -1 -1
544 182 1 0.4238 -0.28406228840340475 -6.456005145931966 -5.120640450797418 1 -1 -1
198 66 1 0.4238 3.0819842756802966 -6.1648190615881395 -3.2221686078581255 2 -1 -2
240 80 1 0.4238 6.026720187509943 -10.204049409820396 -5.2729243817935405 0 -1 3
574 192 1 0.4238 11.64973033091371 -12.29376258702003 -8.578548844558412 -2 0 0
976 326 1 0.4238 8.808229365998505 -8.370533834202469 -2.1986721358776067 0 -1 -2
655 219 1 0.4238 10.404962275014176 -10.157994548508299 -1.2455015442055453 1 0 -3
319 107 1 0.4238 -11.747221840807555 -11.47303378995993 -6.881732511509177 1 -3 -1
1429 477 1 0.4238 -11.921539434569924 -9.210494278348662 -4.901199784908341 -1 0 0
1430 477 2 -0.8476 -11.127165907328447 -9.728400729077393 -5.218587595734849 -1 0 0
1240 414 1 0.4238 7.886596026878967 -10.534542581149122 -3.9639374203833384 1 1 0
109 37 1 0.4238 10.786463699885536 -8.34387450347787 -4.9442751503074405 -2 0 0
110 37 2 -0.8476 11.262573956514638 -8.879630926512394 -4.2469407432794535 -2 0 0
656 219 2 -0.8476 9.461431888724578 -9.864855860865749 -1.0911932638887578 1 0 -3
1400 467 2 -0.8476 6.550134071594245 -9.345270267752309 -7.57988125425012 1 -2 0
1399 467 1 0.4238 7.213059310479393 -9.988956369967426 -7.9622281469292675 1 -2 0
377 126 2 -0.8476 5.461209530874269 -6.4112246556694945 -6.342352551602837 -2 2 2
376 126 1 0.4238 6.268072474173389 -6.254347388140511 -5.772832702713835 -2 2 2
1242 414 1 0.4238 8.86450791048089 -10.41657569454906 -2.6614881242283843 1 1 0
1241 414 2 -0.8476 8.823771808419687 -10.647006781893868 -3.633719017523415 1 1 0
86 29 2 -0.8476 5.55537785193629 -8.446762738303518 -1.4489058582766958 0 1 -2
111 37 1 0.4238 10.608510086196 -9.473982313643429 -3.779032306909837 -2 0 0
978 326 1 0.4238 7.929464494529681 -7.901384512393381 -3.4926092992447124 0 -1 -2
388 130 1 0.4238 -12.29402848404078 -0.6858819105581677 -8.961574545805348 -3 3 1
977 326 2 -0.8476 8.33987948779882 -7.600445248936649 -2.631803885262246 0 -1 -2
784 262 1 0.4238 -11.056506204428468 -5.67256722264439 -12.17765608480958 -1 -1 2
1104 368 1 0.4238 -6.9520523604378415 -1.545482783878482 -0.833822536725539 1 -5 3
1354 452 1 0.4238 -10.945616745947282 -5.881515305441003 -0.3227146547826843 2 0 0
1211 404 2 -0.8476 -8.585946241761556 -7.31114162610718 -7.107420879031661 1 -1 2
1212 404 1 0.4238 -9.231876969765125 -6.650575492456725 -6.72477637340101 1 -1 2
1210 404 1 0.4238 -8.45387780067074 -7.12284600871955 -8.080608216161869 1 -1 2
741 247 1 0.4238 -4.9539643433417355 -2.115591117147309 -5.684611410146883 -1 -3 0
1320 440 1 0.4238 -8.743186645939584 -4.975311606703846 -0.5643059041153946 0 3 -1
214 72 1 0.4238 -8.821638817199293 -1.9690629647166435 -3.3111374722620885 -1 -1 0
714 238 1 0.4238 9.30668309773897 -11.749530724079122 -0.28893254802178236 -3 2 0
644 215 2 -0.8476 -10.288421995922512 -2.3914009248048966 -0.5698352024855811 2 0 2
215 72 2 -0.8476 -8.120939967819998 -1.5880278516126243 -2.707959002128445 -1 -1 0
1017 339 1 0.4238 -10.954239582577838 -4.566428420015063 -2.896241543083163 -3 -1 3
1016 339 2 -0.8476 -10.160727003125647 -3.9668917375389796 -2.791913286685547 -3 -1 3
1015 339 1 0.4238 -10.27833363802592 -3.396779571668878 -1.9788132498168933 -3 -1 3
1442 481 2 -0.8476 -7.536730157001308 -4.717734588721354 -3.227565807982948 2 -1 0
1441 481 1 0.4238 -8.50089486653916 -4.4541939391421055 -3.2579910275324213 2 -1 0
1443 481 1 0.4238 -7.373691435344721 -5.4609118065271245 -3.8764871424510483 2 -1 0
322 108 1 0.4238 -6.111757751534958 -3.7171567318181005 -4.209961474065178 1 0 0
324 108 1 0.4238 -6.813703976786033 -2.2428342678089788 -4.194248858540628 1 0 0
323 108 2 -0.8476 -5.972250421267119 -2.7444131627627755 -4.395162052135474 1 0 0
82 28 1 0.4238 -10.896608928082268 -5.107632481157345 -5.962604817612756 -1 3 2
83 28 2 -0.8476 -10.908749337052395 -6.1071154701598385 -5.932987038485358 -1 3 2
893 298 2 -0.8476 -11.950934200623204 -1.4165031476738008 -3.8443974516895687 0 -2 1
429 143 1 0.4238 7.247629690466157 -6.226895539608934 -2.1049207565852384 1 -1 0
782 261 2 -0.8476 -9.58327905217739 -12.39401742767105 -0.15908363146050744 1 0 2
114 38 1 0.4238 -4.004532626361311 -0.020591684562537793 -6.144650435159544 1 0 0
739 247 1 0.4238 -3.4903940555086663 -1.9513245184317736 -6.390005454846835 -1 -3 0
740 247 2 -0.8476 -4.443972221977971 -1.6507545182364396 -6.408369579407052 -1 -3 0
877 293 1 0.4238 -6.1098421541441175 -0.32092312621589514 -5.623080143796681 1 0 3
321 107 1 0.4238 11.5820296623042 -11.891617687702581 -6.376912647037169 0 -3 -1
177 59 1 0.4238 -6.367656435768668 -4.120431398320596 -2.082297693146471 -2 2 -1
422 141 2 -0.8476 -10.619040493028612 -7.392722444764879 -12.213890462258563 1 2 1
888 296 1 0.4238 -8.518613380430626 -12.36096163741383 -3.1136396455849664 1 1 1
688 230 1 0.4238 -0.7026813852771738 -5.49159104153783 -3.190406296822644 0 -1 -2
175 59 1 0.4238 -4.752105773476601 -4.320293865953259 -2.2113456062333414 -2 2 -1
176 59 2 -0.8476 -5.487325381258605 -3.9648769121363827 -1.6341784015679965 -2 2 -1
231 77 1 0.4238 -3.7761856848936137 -4.3121475585003886 -6.101821313165854 0 -1 0
249 83 1 0.4238 -1.4799782475719692 -0.7282945483288863 -4.762160084021712 -2 1 -1
247 83 1 0.4238 -0.08784707880638543 -1.363927949493048 -5.331847750139893 -2 1 -1
230 77 2 -0.8476 -4.476608499572763 -4.973462169313968 -5.8333781271198655 0 -1 0
229 77 1 0.4238 -4.321703798141169 -5.257442000216769 -4.887148278769948 0 -1 0
743 248 2 -0.8476 -5.272858901172346 -0.2806197411276674 -2.5105244421605564 1 2 3
744 248 1 0.4238 -5.659622408387743 -1.1515960817811273 -2.813517965907278 1 2 3
248 83 2 -0.8476 -1.0768309636096873 -1.4946099904095007 -5.262384439161601 -2 1 -1
221 74 2 -0.8476 7.507432243357675 -3.266323925538069 -0.5681585458380602 1 -1 1
84 28 1 0.4238 -10.930739188337597 -6.412117486310742 -4.980893974909933 -1 3 2
568 190 1 0.4238 7.332557978237551 -5.09334076751463 -3.9706015795423286 0 -1 -1
825 275 1 0.4238 -5.428059046618877 -11.067625854871213 -11.325070165333408 1 2 2
1332 444 1 0.4238 7.986055898290493 -0.38985983250065104 -0.7179821656042604 0 1 1
1263 421 1 0.4238 8.86158005743239 -1.4808190700021235 -6.5953566344672865 1 2 1
863 288 2 -0.8476 3.525722790528011 -0.36479915913305483 -4.446621517600689 -1 -1 0
436 146 1 0.4238 -7.497127256271076 -7.306728950140707 -10.686495064476084 0 1 0
196 66 1 0.4238 3.022394606075135 -5.510869952882351 -4.717294571696053 2 -1 -2
746 249 2 -0.8476 6.647424735262343 -0.40896165547193597 -12.131502949833557 0 -2 0
1287 429 1 0.4238 6.391929593218938 -2.061873087882139 -4.50828572546113 1 1 0
802 268 1 0.4238 -1.244071316981536 -3.780343104087903 -1.8095459182721714 1 3 1
522 174 1 0.4238 0.8074057939517107 -2.2705950522013616 -0.9302172588459096 1 -1 -1
521 174 2 -0.8476 0.28846349740959987 -1.4424932787809635 -0.7182306773814072 1 -1 -1
349 117 1 0.4238 -0.5896704974536107 -2.983316327149133 -4.02055018559576 0 2 1
1342 448 1 0.4238 -0.9966672197757482 -7.314473493374516 -0.7948981150023973 -1 -1 1
428 143 2 -0.8476 6.907567789251063 -5.318498987202117 -2.3481605440198416 1 -1 0
350 117 2 -0.8476 -0.3281824213240938 -3.675191424764261 -3.3475536171747526 0 2 1
1315 439 1 0.4238 2.645198895911941 -3.6814135636226535 -1.802891409709971 -1 3 -2
1317 439 1 0.4238 1.555627821327347 -4.261431885599206 -0.7337719257143109 -1 3 -2
546 182 1 0.4238 1.3302451603090084 -6.275564635222441 -4.953144206275853 1 -1 -1
1316 439 2 -0.8476 1.702424177568318 -3.609155854295649 -1.4773975299415498 -1 3 -2
351 117 1 0.4238 0.623975562124059 -3.5336383272740424 -3.0767222160341667 0 2 1
1473 491 1 0.4238 5.243277223459886 -5.458260543971682 -2.154640418980861 2 2 0
1419 473 1 0.4238 2.286168576060687 -1.4816492945417927 -4.814642158587786 0 0 1
627 209 1 0.4238 4.459306047135046 -3.723417178951866 -5.224289985482204 -4 -1 -1
862 288 1 0.4238 4.212261806790641 -1.0138248605083486 -4.774372403073832 -1 -1 0
1285 429 1 0.4238 5.076080086171951 -2.4339245623969106 -3.6156941462844023 1 1 0
626 209 2 -0.8476 3.578753640905882 -4.05803329390873 -5.5599244939131065 -4 -1 -1
625 209 1 0.4238 3.629449803284656 -4.19529667618303 -6.549156307126183 -4 -1 -1
1286 429 2 -0.8476 5.4042673874444045 -2.2161714715914 -4.534860921562241 1 1 0
121 41 1 0.4238 10.537893566379674 -5.057821163106051 -2.4402141444524603 0 1 2
892 298 1 0.4238 -11.309549999037447 -2.169310136841869 -3.9923810198730556 0 -2 1
894 298 1 0.4238 -12.354306764077936 -1.496598845973974 -2.9328779417219386 0 -2 1
12 4 1 0.4238 10.149921158457799 -0.6364306432041094 -1.6560687608182967 1 1 0
1465 489 1 0.4238 11.661188187649559 -2.4098807964376903 -1.0657641098149246 -2 0 1
569 190 2 -0.8476 7.715320719811141 -5.272242556645976 -4.8769556884767455 0 -1 -1
1467 489 1 0.4238 11.781850204981284 -0.8204001859493388 -0.7113708680269074 -2 0 1
427 143 1 0.4238 7.282148431482527 -4.641666723092083 -1.7144574430035189 1 -1 0
123 41 1 0.4238 9.719703831631152 -6.343064551870975 -3.0278510906796443 0 1 2
518 173 2 -0.8476 7.862471141288514 -1.6175390443978017 -4.081565356387017 0 0 1
1298 433 2 -0.8476 -11.72942375649231 -6.8342918000633555 -3.4261056098615557 0 1 0
1299 433 1 0.4238 -12.053156886077044 -7.77092181265444 -3.5599413643708964 0 1 0
1297 433 1 0.4238 12.326392857323148 -6.200586838762271 -3.5105703442428795 -1 1 0
628 210 1 0.4238 -9.68418889793935 -0.13459041893927193 -9.194988865011808 -1 2 1
421 141 1 0.4238 -10.125587047987501 -8.14268250859193 -11.773374366313822 1 2 1
520 174 1 0.4238 -0.533258912130357 -1.6867444301334409 -0.20334758157240948 1 -1 -1
1112 371 2 -0.8476 1.6566957734108207 -8.204667180890514 -0.23843581691556917 -2 0 0
1113 371 1 0.4238 2.1510468455923597 -7.335417625601865 -0.23479276690717207 -2 0 0
498 166 1 0.4238 -3.6538980379064743 -11.066034715689236 -12.374022489189212 1 -1 0
1331 444 2 -0.8476 7.27142484289004 -0.38699579269632167 -0.01849301266640202 0 1 1
54 18 1 0.4238 10.724882112719131 -8.369871584292003 -12.409847994898955 0 0 -1
279 93 1 0.4238 -9.468790638682243 -8.121518133926138 2.136989429019292 3 0 0
278 93 2 -0.8476 -9.164836525312275 -7.170216733905207 2.1882754852896578 3 0 0
277 93 1 0.4238 -9.157295102874025 -6.772784967997234 1.2706795243544553 3 0 0
1326 442 1 0.4238 -6.437389405193168 -7.514705556571081 2.2948798810276836 -1 0 1
1072 358 1 0.4238 -6.91583520508841 -10.701208387229268 5.361372290530418 2 0 0
667 223 1 0.4238 -6.625103428797096 -8.705263172193579 5.181499151186973 -1 2 -2
889 297 1 0.4238 -5.357094828444126 -4.130502701719179 0.049341402849346086 -1 1 0
295 99 1 0.4238 -8.876033412279721 -10.564959166292802 2.52109095745679 3 -1 -1
797 266 2 -0.8476 -7.4881013734143815 -7.283656565499859 4.23142135971222 -3 0 -1
796 266 1 0.4238 -8.167584979627257 -7.451784002171782 3.5172596391783015 -3 0 -1
798 266 1 0.4238 -7.6944562130981256 -6.419895957425401 4.691124860771922 -3 0 -1
1324 442 1 0.4238 -5.808978214136891 -8.528831568948561 1.1798684768625964 -1 0 1
118 40 1 0.4238 -11.81759130429474 -11.26012941567313 5.723257265281864 1 -1 1
700 234 1 0.4238 -9.862507956588459 -9.52212206428223 4.648159222398911 1 0 1
701 234 2 -0.8476 -10.626791751731268 -9.365812567397843 5.273802042109152 1 0 1
296 99 2 -0.8476 -9.60449567392146 -9.900878884867403 2.689408910729131 3 -1 -1
297 99 1 0.4238 -10.465153663477569 -10.24884810830768 2.3176884620253326 3 -1 -1
1325 442 2 -0.8476 -5.596321804949502 -7.938047235387655 1.9581628929501858 -1 0 1
668 223 2 -0.8476 -5.931662224051325 -9.32116057922168 5.555398327975915 -1 2 -2
669 223 1 0.4238 -5.156522868074515 -9.3719099792843 4.925656838117874 -1 2 -2
1404 468 1 0.4238 -0.5576735618159372 -11.257322931097612 6.1024777918328885 3 0 0
1403 468 2 -0.8476 -1.042414055258563 -11.643431547277872 5.317660289120786 3 0 0
1402 468 1 0.4238 -1.125430316286316 -10.949215523860468 4.602702937856345 3 0 0
243 81 1 0.4238 -4.6625673169101685 -9.235627085985474 2.972935463859838 -1 1 0
9 3 1 0.4238 -3.911895736296726 -11.60145478310092 3.886880402819947 3 0 2
242 81 2 -0.8476 -4.098397660096824 -9.679513883067195 3.6691164231507027 -1 1 0
482 161 2 -0.8476 -0.9082335871802805 -8.264377531206904 5.815607674782096 1 -2 0
241 81 1 0.4238 -3.1663234979999544 -9.320398563651828 3.621526444739386 -1 1 0
733 245 1 0.4238 -1.1644638534586083 -9.064462267616538 4.289121189418265 0 0 -1
734 245 2 -0.8476 -1.527905778589302 -9.555252790205806 3.4972705945441445 0 0 -1
735 245 1 0.4238 -0.8212084645133739 -9.621162484521152 2.79283738937258 0 0 -1
1360 454 1 0.4238 -3.511848109906399 -7.934253482448371 11.378810463870291 1 3 -1
483 161 1 0.4238 -1.402285324925458 -7.662957171483621 6.443459037959732 1 -2 0
481 161 1 0.4238 0.07405358484026081 -8.09478160691076 5.895231711381255 1 -2 0
1058 353 2 -0.8476 -3.350489984918898 -1.8856431551334154 9.744554567509583 0 1 -1
411 137 1 0.4238 -4.3156428176949735 -6.877859935467196 2.3204647454288283 1 -1 1
410 137 2 -0.8476 -3.7596803075781686 -6.052513655941586 2.4189625140811826 1 -1 1
409 137 1 0.4238 -2.7907070827720304 -6.298365273432065 2.3936800580493998 1 -1 1
220 74 1 0.4238 7.685583118248525 -3.7543250989763557 0.2863057068880205 1 -1 1
926 309 2 -0.8476 0.6991102022331752 -10.142971435352045 1.8372390443050346 0 0 -1
1293 431 1 0.4238 4.8342584419684105 -9.118387406079684 3.7526969839719926 1 1 -4
1041 347 1 0.4238 1.860272654901932 -7.443536618305884 4.207501783081962 0 2 -3
842 281 2 -0.8476 4.758749932133048 -8.663674239495236 2.0989624276671615 2 0 -1
843 281 1 0.4238 4.514749344452165 -9.32321850559814 1.3880078915135845 2 0 -1
1216 406 1 0.4238 0.2221303801345602 -11.73054708841351 0.9586494611927858 1 2 1
1040 347 2 -0.8476 2.14705056669254 -7.224307844367043 3.274931055476485 0 2 -3
1045 349 1 0.4238 1.3876932448289239 -12.109778323737888 6.816926476416003 0 4 -2
841 281 1 0.4238 3.939165767213657 -8.171761663702789 2.3927232540231262 2 0 -1
1077 359 1 0.4238 10.724538236212483 -4.8299246114153975 11.14103999233673 -3 0 1
1291 431 1 0.4238 5.597141861613755 -8.917432723306785 5.182462156816041 1 1 -4
1292 431 2 -0.8476 4.847070277340174 -9.386306837797616 4.716049044475495 1 1 -4
1303 435 1 0.4238 2.414229584545902 -7.795424032183174 6.351842453116884 3 3 -1
1304 435 2 -0.8476 1.5831478388298006 -7.336037314418927 6.038381478756919 3 3 -1
1046 349 2 -0.8476 0.8139634988389268 -11.493410029001634 7.35629200432381 0 4 -2
685 229 1 0.4238 6.615285026397759 -11.716341541937156 6.232001510413431 0 0 -1
1047 349 1 0.4238 1.3797798234053484 -10.766481481627645 7.745416159730276 0 4 -2
687 229 1 0.4238 5.347698022359298 -11.311362390733969 5.285525367766167 0 0 -1
1039 347 1 0.4238 1.3740069858400723 -6.8402055606437715 2.770094536736671 0 2 -3
24 8 1 0.4238 3.58085199429496 -11.876690997136508 3.0564354077068248 1 -1 1
1239 413 1 0.4238 9.489213178870573 -3.6038817135227266 7.153010625982407 -2 0 -1
1305 435 1 0.4238 1.3367634397437573 -6.614618908324147 6.685560764695236 3 3 -1
686 229 2 -0.8476 5.708907717133984 -11.99764633159055 5.9168203382603455 0 0 -1
1335 445 1 0.4238 7.66426528774589 -0.14087146567547748 8.507387785735721 2 0 0
580 194 1 0.4238 9.409750909890848 -11.644359362790091 4.740825349599942 0 1 0
119 40 2 -0.8476 12.22694070694847 -11.823283673257727 5.995455239162442 0 -1 1
64 22 1 0.4238 6.35172925179811 -8.16926880197861 1.6167159243689688 -1 -1 0
513 171 1 0.4238 -12.33895222351725 -9.194379516397504 0.9152820439080822 -1 1 -2
511 171 1 0.4238 -12.354705203592397 -7.561935531749852 0.9537704317245229 -1 1 -2
512 171 2 -0.8476 11.933241084034721 -8.387921848168146 1.1257264223232712 -2 1 -2
582 194 1 0.4238 10.912032153617018 -12.272948135289726 4.861776526797348 0 1 0
573 191 1 0.4238 8.28995645703761 -10.415323773376901 4.80994574954736 -2 0 0
1059 353 1 0.4238 -3.2585069619593607 -2.0147415682864125 10.731906359095722 0 1 -1
514 172 1 0.4238 8.1723124759085 -11.042730561925799 1.5622912831326512 0 2 -1
516 172 1 0.4238 9.353590633873003 -10.057389338730186 2.1102755209789867 0 2 -1
515 172 2 -0.8476 8.813671702776139 -10.318169687412901 1.3099805326953586 0 2 -1
65 22 2 -0.8476 7.160898022975756 -8.236094988921195 1.0329589302608053 -1 -1 0
66 22 1 0.4238 7.696277681242359 -9.038704762942393 1.2959762509824935 -1 -1 0
284 95 2 -0.8476 10.063394693338752 -8.997274512208724 3.257099552761412 -1 3 -2
283 95 1 0.4238 10.366410341577263 -9.032061619852708 4.209445182635911 -1 3 -2
285 95 1 0.4238 10.849469963704495 -8.82569822705479 2.66326618435397 -1 3 -2
1223 408 2 -0.8476 7.80566502564079 -7.929084747673821 4.269676330966469 0 1 -1
1224 408 1 0.4238 8.456201525905845 -8.121899598869213 3.5350910362081636 0 1 -1
722 241 2 -0.8476 9.458335276715575 -6.882671637719039 0.5478539238795079 -2 -2 0
721 241 1 0.4238 8.702625582048034 -7.528491163019659 0.439173667112211 -2 -2 0
723 241 1 0.4238 10.320945178156924 -7.385405925031599 0.6040102270459925 -2 -2 0
859 287 1 0.4238 2.4064727425553905 -11.570303629947922 4.91440297248872 2 -2 1
581 194 2 -0.8476 10.028788900506141 -12.351677405391541 4.399527781626861 0 1 0
1222 408 1 0.4238 8.299880951723674 -7.602702043380672 5.075415660819407 0 1 -1
1067 356 2 -0.8476 7.857831671579442 -3.07993814123234 9.910007080773857 2 1 -1
1277 426 2 -0.8476 -9.772480281360341 -5.398380872162937 4.18724049181846 1 0 0
1155 385 1 0.4238 6.231857399835816 -12.212689761945464 2.8899625966963676 -1 1 -2
1278 426 1 0.4238 -8.937712524244356 -5.136171469815416 4.67139074572351 1 0 0
1260 420 1 0.4238 -7.904734421117063 -3.3421430854853167 2.6481906070582704 0 1 1
1480 494 1 0.4238 -11.434147763553895 -2.22858921660616 4.872767556588645 2 0 -1
1481 494 2 -0.8476 -10.701796769893075 -2.8641499341621763 5.117139073115015 2 0 -1
1259 420 2 -0.8476 -7.689254029233404 -3.947234214677893 1.8817544318378663 0 1 1
1258 420 1 0.4238 -6.720153712812991 -3.860501744761642 1.6508560783136623 0 1 1
1107 369 1 0.4238 -12.386343220983749 -1.6639684530245784 3.3895442861276996 0 -2 -1
1106 369 2 -0.8476 12.093146835973 -1.4496718702322262 4.303248932169209 -1 -2 -1
360 120 1 0.4238 -6.488095282294675 -1.7473524511129597 3.5195989762669475 2 -1 -2
1276 426 1 0.4238 -9.551781230635743 -6.074886137895492 3.4846558953599467 1 0 0
1482 494 1 0.4238 -10.816642031745118 -3.7168587174282752 4.607541437821836 2 0 -1
1433 478 2 -0.8476 -7.423373274092698 -4.848102223038477 5.413812102389051 -1 0 0
1432 478 1 0.4238 -6.476009878253195 -4.606581522012187 5.203666493811828 -1 0 0
1105 369 1 0.4238 12.358565698583979 -0.5175813050318041 4.549726394362645 -1 -2 -1
1038 346 1 0.4238 -11.693948419127445 -6.171389374294341 4.778770269010584 -1 0 -1
660 220 1 0.4238 -12.343164888682212 -11.429708912513359 1.5771069455277125 -1 1 -1
860 287 2 -0.8476 2.5020165517967285 -10.835345547144705 4.243061346676125 2 -2 1
159 53 1 0.4238 -8.72674913541935 -1.340227583499093 2.631909301774745 2 0 -2
158 53 2 -0.8476 -8.554556500810131 -1.873530239024058 3.460117905414977 2 0 -2
157 53 1 0.4238 -9.412589266507103 -2.004236582585415 3.956793573240967 2 0 -2
425 142 2 -0.8476 -11.569394495857386 -0.9767291320910534 1.8030087274930666 1 -1 -1
1450 484 1 0.4238 -0.6538607898080713 -1.2608678304118133 1.735264524130311 -1 0 1
101 34 2 -0.8476 11.974609614382315 -2.0516763445078308 11.863126882667531 0 1 -2
1451 484 2 -0.8476 -1.5604884160026522 -0.9817313696739802 1.4188783135058904 -1 0 1
452 151 2 -0.8476 -11.537218304099397 -12.2490292440922 10.657194777408536 0 0 -2
358 120 1 0.4238 -5.043488866300386 -1.433510394108115 2.8259000783062445 2 -1 -2
359 120 2 -0.8476 -5.648806019903058 -1.20816357504372 3.58931408572929 2 -1 -2
361 121 1 0.4238 -4.595799119140661 -4.982144936496543 3.718036565647583 0 0 3
363 121 1 0.4238 -4.310959478253816 -3.4664515437123296 4.254825576876573 0 0 3
925 309 1 0.4238 1.309188871413408 -10.247547273508895 2.6226428681232163 0 0 -1
362 121 2 -0.8476 -4.911588011980845 -4.261875793851221 4.335678849485533 0 0 3
853 285 1 0.4238 -5.2701672279617275 -1.369496307331982 5.156414675059922 1 -1 -1
260 87 2 -0.8476 -1.3044734892699221 -3.8794795056130322 3.418893285461905 2 -2 0
1381 461 1 0.4238 -8.138370485974644 -0.4128041684685435 0.6533460867880885 1 0 0
461 154 2 -0.8476 -1.2607412339575408 -3.5125670807839313 6.347802311702739 -1 -2 -1
583 195 1 0.4238 -0.5471521681188314 -5.210273733591998 2.366801951346341 0 -1 -1
584 195 2 -0.8476 -0.3197130520324585 -6.127970419689073 2.041079602041101 0 -1 -1
460 154 1 0.4238 -2.221285827016006 -3.4461757011150436 6.617871205569304 -1 -2 -1
259 87 1 0.4238 -2.0838730440289144 -3.386933578409293 3.0316907561153337 2 -2 0
261 87 1 0.4238 -1.377522392598829 -3.8877862825161884 4.416182470787502 2 -2 0
1357 453 1 0.4238 1.1597275095325905 -1.8649949175232408 2.85950301338766 0 -1 2
329 110 2 -0.8476 -3.4060290790576317 -2.5382061407655883 2.4721005810596113 1 -1 2
328 110 1 0.4238 -4.032660532066265 -2.941679760823396 1.8053675542309175 1 -1 2
330 110 1 0.4238 -2.7647487365875385 -1.9316054399341454 2.002221897261937 1 -1 2
854 285 2 -0.8476 -5.129324749659683 -1.1368007959211877 6.118707310424383 1 -1 -1
682 228 1 0.4238 -5.150105452139733 -5.722977513032021 6.067697384806484 1 -2 -3
1359 453 1 0.4238 1.7826699039221463 -0.6618309118275612 1.9479433046131895 0 -1 2
1318 440 1 0.4238 -8.840677352041592 -5.160894344759136 1.0551560143118837 0 3 -1
258 86 1 0.4238 5.456719692871191 -5.1558171904308345 6.184335433670196 -2 0 0
92 31 2 -0.8476 -3.1418481467251524 -2.502118067907629 12.346408486397209 -1 3 0
1358 453 2 -0.8476 0.9439208708318052 -1.036062961066797 2.3434698818965343 0 -1 2
491 164 2 -0.8476 5.883123655513037 -6.1332734859252405 4.7355459130088855 0 0 3
492 164 1 0.4238 5.263954638822758 -5.916390276327576 3.980839180054246 0 0 3
845 282 2 -0.8476 2.225488540314135 -5.529785061317008 0.45893984033213775 1 -1 -1
432 144 1 0.4238 3.3252507811061562 -5.830192547422281 3.1010041587691926 2 -1 -1
1323 441 1 0.4238 1.4457808831548373 -3.4820617199039035 4.517810186409333 0 1 0
1322 441 2 -0.8476 1.219327967185528 -3.441894758935648 3.544621315082942 0 1 0
1321 441 1 0.4238 0.2343577876541083 -3.567537882709434 3.4261370525628645 0 1 0
844 282 1 0.4238 1.3928440203741452 -5.740140754703464 0.9712337214050175 1 -1 -1
431 144 2 -0.8476 4.161144922491156 -5.457813519352526 2.6977590493464314 2 -1 -1
430 144 1 0.4238 4.19279939387147 -4.469850462132261 2.8491466490502244 2 -1 -1
1043 348 2 -0.8476 5.239624041809096 -2.6038558887648673 3.2102837452726956 1 3 2
1044 348 1 0.4238 4.759334525404432 -1.8080279409981443 2.8415395746222467 1 3 2
1042 348 1 0.4238 6.207878882877813 -2.383588611377501 3.32841953469858 1 3 2
846 282 1 0.4238 2.9648139004694816 -5.316407395431409 1.0975785641885718 1 -1 -1
490 164 1 0.4238 6.573833117809615 -6.785421211481819 4.42311239128577 0 0 3
106 36 1 0.4238 4.71427889117855 -2.36625652458401 4.9128075637415645 -1 1 0
368 123 2 -0.8476 4.77623475821038 -10.358523836752964 12.221881699242482 1 2 1
497 166 2 -0.8476 -3.025824308008332 -11.539793664966062 11.833431913536689 1 -1 -1
585 195 1 0.4238 -0.7582961550266489 -6.285857108429569 1.1563720058695823 0 -1 -1
1050 350 1 0.4238 3.3427275636991336 -0.3630526840247974 4.028683459697411 -1 2 0
543 181 1 0.4238 2.335639732148966 -8.23393188758548 12.021334103184143 0 0 0
1073 358 2 -0.8476 -7.721189557970636 -11.29343160650404 5.335531275271008 2 0 0
486 162 1 0.4238 10.495554976861081 -1.8175805352995589 5.572483328812385 -1 -1 -1
312 104 1 0.4238 8.30132358306746 -2.6849859601413186 2.118342381086806 0 2 1
311 104 2 -0.8476 8.009033166748454 -1.7753863826435783 2.4136158137516572 0 2 1
424 142 1 0.4238 -10.61981016015736 -0.7484839486766273 1.5881027726708896 1 -1 -1
996 332 1 0.4238 8.915354559771563 -5.338067365498338 1.2122404855601414 -2 -1 0
995 332 2 -0.8476 8.622929665625827 -4.4454376624537835 1.5553013608894843 -2 -1 0
994 332 1 0.4238 8.268520754428879 -4.545455473626061 2.4850226218299323 -2 -1 0
1114 372 1 0.4238 10.258507071185408 -4.032391191781384 0.32709490360510407 -3 1 0
310 104 1 0.4238 7.677864046756289 -1.2590073137569373 1.6238871156748653 0 2 1
485 162 2 -0.8476 10.048564588628812 -1.6032084968044735 6.440950824685159 -1 -1 -1
392 131 2 -0.8476 8.216703501151882 -4.749486026483463 4.219652954871742 1 0 1
542 181 2 -0.8476 2.3592740958155876 -9.178265020871592 11.693207157149752 0 0 0
393 131 1 0.4238 8.859286257434897 -5.303407068811796 4.749039618423979 1 0 1
391 131 1 0.4238 7.390612211167925 -4.589629890994099 4.760032609740895 1 0 1
6 2 1 0.4238 8.947392407698986 -0.4431749674391341 3.4746795265537243 1 1 0
46 16 1 0.4238 -12.3717418853096 -10.627384213122422 9.689876591010117 1 2 -1
287 96 2 -0.8476 -7.298657898737313 -7.356124396853755 11.18610918344332 1 -2 -3
288 96 1 0.4238 -7.499133142295143 -8.332611934446126 11.106907199738956 1 -2 -3
1137 379 1 0.4238 -8.775854406464878 -11.231879814628105 9.58947451300175 -1 2 -1
474 158 1 0.4238 -9.399822953428966 -8.805995132552283 9.777667558577399 -1 3 -1
702 234 1 0.4238 -10.277855559825062 -9.24907607939537 6.203644497032418 1 0 1
473 158 2 -0.8476 -10.159359418920394 -8.157780598778155 9.723689325558862 -1 3 -1
472 158 1 0.4238 -9.81026620928638 -7.226140135572508 9.824540182768253 -1 3 -1
1082 361 2 -0.8476 -8.722565285778547 -5.254459366144965 10.110010037039189 -2 0 -1
48 16 1 0.4238 -11.604698075172912 -9.202725065758864 9.46943948872375 1 2 -1
1136 379 2 -0.8476 -8.437303537384127 -10.31833186272798 9.814872525243034 -1 2 -1
1135 379 1 0.4238 -7.601579047025273 -10.135436818155707 9.29708395101448 -1 2 -1
1081 361 1 0.4238 -8.10308192213662 -5.885344890253696 10.577145526322433 -2 0 -1
286 96 1 0.4238 -6.676178535736168 -7.083095311591699 10.45264704319822 1 -2 -3
47 16 2 -0.8476 12.336171282126928 -9.635138557521977 9.647613930505605 0 2 -1
407 136 2 -0.8476 -5.4230605052557825 -0.06980208077689376 10.500885564293528 1 0 0
406 136 1 0.4238 -6.3826940781526185 -0.013878771285680713 10.776507783061783 1 0 0
1036 346 1 0.4238 -11.89348815401113 -7.748001916210782 5.154374967210887 -1 0 -1
659 220 2 -0.8476 -11.540610218351791 -11.007973636518729 1.1551635801248672 -1 1 -1
891 297 1 0.4238 -4.8068994162921586 -4.754965100010397 1.454309368568755 -1 1 0
1392 464 1 0.4238 5.6987655200869565 -5.904913411671353 11.127156972404016 -1 1 1
1102 368 1 0.4238 -6.219861331714622 -2.2490461554961936 0.44504296430600815 1 -5 3
1156 386 1 0.4238 -6.035489039272112 -9.513315676173997 7.157458372747611 1 2 0
1157 386 2 -0.8476 -6.218691781714755 -9.635248317501926 8.132937764754415 1 2 0
1179 393 1 0.4238 -5.746057446873917 -8.174916617076168 8.687901808612567 -2 1 2
1178 393 2 -0.8476 -5.601224604180429 -7.207683306412608 8.896406172144058 -2 1 2
1158 386 1 0.4238 -5.647000064407233 -10.374115291401706 8.489637917322296 1 2 0
100 34 1 0.4238 -12.017157607591137 -2.0439143187133713 11.309906210967748 1 1 -2
224 75 2 -0.8476 -0.9726788643772792 -11.776612196130607 9.27425383891127 2 -2 2
1023 341 1 0.4238 -3.720446045318134 -11.150208638543836 8.579235598673677 2 1 -1
615 205 1 0.4238 -2.0224811202023965 -10.382499074955335 9.210364197019036 1 1 -2
967 323 1 0.4238 -5.732828138662011 -12.248868690303416 10.394093582804294 0 1 1
1022 341 2 -0.8476 -4.167900947156937 -11.720563088407307 9.268054233902905 2 1 -1
614 205 2 -0.8476 -2.3095738408356787 -9.431315435488546 9.32358705559354 1 1 -2
750 250 1 0.4238 -2.2311447539918507 -7.5167397778216225 8.55107777781677 -1 0 4
749 250 2 -0.8476 -2.2102237349874887 -6.9522935647171265 7.72587848182695 -1 0 4
748 250 1 0.4238 -3.1375992414343354 -6.650342393696319 7.504990772984232 -1 0 4
1177 393 1 0.4238 -5.478515822865146 -6.6978998588869905 8.044904975009112 -2 1 2
1362 454 1 0.4238 -4.2960530099682686 -6.900460929024093 10.387398349529112 1 3 -1
613 205 1 0.4238 -1.7553589086812913 -8.998235747833276 10.03441694584769 1 1 -2
426 142 1 0.4238 -12.18143714444145 -0.3909112657969285 1.2717721899941425 1 -1 -1
917 306 2 -0.8476 -0.7534922578184364 -7.110245976301052 10.656731816343624 -1 1 1
885 295 1 0.4238 1.260054961173557 -4.060083604137608 10.963550387537838 1 1 0
597 199 1 0.4238 6.664636829734681 -1.8477297777003052 9.910195447762877 0 0 0
916 306 1 0.4238 -1.2369647758510496 -6.270426690431378 10.40985366137085 -1 1 1
855 285 1 0.4238 -5.868688513584437 -0.5391447771423223 6.428770995074578 1 -1 -1
651 217 1 0.4238 6.398293908136752 -10.693857176250631 12.249456093922326 0 1 1
1406 469 2 -0.8476 1.9768507595195395 -12.163541418092636 10.431463634821139 1 0 0
650 217 2 -0.8476 7.369369353734159 -10.924925830566682 12.309544706464882 0 1 1
225 75 1 0.4238 -0.4645894514174067 -11.86794668844925 8.417811178160342 2 -2 2
223 75 1 0.4238 -0.33858368919102233 -11.559841334348125 10.016496762157196 2 -2 2
187 63 1 0.4238 2.567543867100335 -9.441936372489405 9.869853067488382 1 0 -1
188 63 2 -0.8476 2.570884569358043 -9.77434320333144 8.9267272148129 1 0 -1
918 306 1 0.4238 0.22793059014531103 -6.9848017648654785 10.511597858007066 -1 1 1
991 331 1 0.4238 4.860921112814145 -7.11248990447386 6.963190223026116 -2 1 -2
992 331 2 -0.8476 4.236735576253652 -7.444625762101817 7.670345929907534 -2 1 -2
993 331 1 0.4238 4.0630584807696 -6.71456156578998 8.331280346766478 -2 1 -2
189 63 1 0.4238 3.397046114112202 -9.45389759704694 8.46330216040708 1 0 -1
1407 469 1 0.4238 2.2617091600016135 -11.411692134476166 9.836846224304416 1 0 0
1175 392 2 -0.8476 0.6932855776866713 -5.205674637347222 7.625599729858198 -1 0 2
1373 458 2 -0.8476 3.4584501916482076 -5.207940939572805 9.015361498703092 2 -1 -1
1154 385 2 -0.8476 7.230937714913731 -12.191208327833701 2.8529649855887413 -1 1 -2
1174 392 1 0.4238 0.7238072022969817 -4.67973627524495 8.475569316007604 -1 0 2
963 321 1 0.4238 6.216456435414825 -8.227024563715169 10.70871916076028 1 2 3
895 299 1 0.4238 8.768264530308075 -11.43563795715811 11.40772333082938 -1 0 0
962 321 2 -0.8476 7.1423488872934 -7.855609059632854 10.639691092638355 1 2 3
896 299 2 -0.8476 9.425443638710432 -11.949786321209398 10.856580977918213 -1 0 0
572 191 2 -0.8476 8.246778942378635 -10.785951146504988 5.737718319998949 -2 0 0
379 127 1 0.4238 -10.722845421608378 -11.236614767540058 11.911376749594421 0 1 -3
1066 356 1 0.4238 7.746736897833992 -3.9584336636572104 10.37465160204796 2 1 -1
1074 358 1 0.4238 -7.558377869159589 -12.050015285353188 4.702234703747001 2 0 0
1169 390 2 -0.8476 7.18650023879138 -5.926878596240762 8.545562742942668 -1 1 2
961 321 1 0.4238 7.186357491056947 -7.209531552681041 9.877694067499998 1 2 3
171 57 1 0.4238 9.357588980694326 -9.624656145465346 9.267766153994623 -2 -1 1
1076 359 2 -0.8476 11.391169065805874 -5.572856059186969 11.201431954733632 -3 0 1
847 283 1 0.4238 7.588514482642408 -6.20808250740559 11.525329633605514 -4 -2 -2
76 26 1 0.4238 11.796610779308937 -9.464504261190381 6.191150812785267 1 2 3
571 191 1 0.4238 7.976989112908397 -10.062654224052926 6.373364313250089 -2 0 0
780 260 1 0.4238 9.720015451197325 -5.752688291079295 6.591210040912334 3 0 2
400 134 1 0.4238 6.849123004347851 -9.198763352742382 7.874728752415119 0 0 0
401 134 2 -0.8476 7.075652002425931 -8.533081094492218 7.163713537886651 0 0 0
78 26 1 0.4238 10.295688466403645 -9.269300831197643 6.80411912952231 1 2 3
77 26 2 -0.8476 10.88635661799058 -9.088539984515249 6.017716786034508 1 2 3
170 57 2 -0.8476 10.001109445884461 -9.404999316261163 8.534538271686296 -2 -1 1
169 57 1 0.4238 10.922257275107112 -9.319099574675754 8.914141687237333 -2 -1 1
402 134 1 0.4238 7.280889362440684 -7.6504764656049 7.586653118297668 0 0 0
1168 390 1 0.4238 7.904937019725724 -5.370788442037587 8.127707211149234 -1 1 2
381 127 1 0.4238 -9.389615226309667 -10.310899533260335 11.732069338502571 0 1 -3
848 283 2 -0.8476 7.4280492995128835 -5.2241130382504375 11.44757485024166 -4 -2 -2
1057 353 1 0.4238 -4.097057046433303 -1.246419325605805 9.560105748767775 0 1 -1
1126 376 1 0.4238 -7.580571893588093 -2.359145485442971 11.105222262241208 -1 1 -1
1037 346 2 -0.8476 -12.354508559128599 -6.865025609432939 5.0660335360065005 -1 0 -1
1434 478 1 0.4238 -7.669873124151996 -4.480891107794611 6.310687035310699 -1 0 0
1127 376 2 -0.8476 -8.330894428881471 -2.0158319312235715 11.670149521210075 -1 1 -1
147 49 1 0.4238 -8.358525965511067 -12.320019807553512 0.9476736374640086 1 0 -2
1083 361 1 0.4238 -9.001844846720928 -4.532024888662707 10.74253077245925 -2 0 -1
495 165 1 0.4238 11.341056732372989 -6.606253334748011 8.206186977981075 -2 2 -1
540 180 1 0.4238 -8.502850860599905 -4.747025298809736 8.45157895377643 1 3 -3
7 3 1 0.4238 -2.493331186951938 -12.377959991517919 4.113411350034574 3 0 2
128 43 2 -0.8476 -10.638829726447062 -2.072200007141358 10.445259311116295 -1 -1 -2
178 60 1 0.4238 -8.307943303394675 -2.445937324893512 7.4683428346078085 1 3 -3
180 60 1 0.4238 -9.36855034427764 -2.1395197967982202 6.265087444913537 1 3 -3
538 180 1 0.4238 -6.970871810172346 -4.211104601381985 8.271492356318355 1 3 -3
539 180 2 -0.8476 -7.905504603497858 -4.144626815452606 7.922159905147978 1 3 -3
915 305 1 0.4238 12.382770125231783 -4.220954069556592 7.655371588463065 -1 2 -3
914 305 2 -0.8476 -11.780063649165887 -3.47141532747556 7.661343463003735 0 2 -3
913 305 1 0.4238 -11.235072916297957 -3.501340305893123 6.823440893006119 0 2 -3
179 60 2 -0.8476 -8.802510094861848 -1.7275519277689622 6.9791412469232235 1 3 -3
127 43 1 0.4238 -9.810383121554263 -1.7603596844170326 10.910472901180682 -1 -1 -2
374 125 2 -0.8476 -6.057630630264478 -3.4109174326840765 10.76865558537608 1 1 -4
813 271 1 0.4238 12.317195473293756 -1.7984722189863067 8.606365980865833 0 2 -1
812 271 2 -0.8476 11.522958073033598 -1.1914916905363864 8.63379927454529 0 2 -1
146 49 2 -0.8476 -7.563698171930762 -12.2888361150735 1.5536994871944867 1 0 -2
1390 464 1 0.4238 4.303888501589979 -6.321683504697255 10.387411549630839 -1 1 1
1087 363 1 0.4238 9.00749585170106 -1.5412127643755777 10.441279866063983 0 0 1
462 154 1 0.4238 -0.7643789642093513 -2.711395384806446 6.682076529232747 -1 -2 -1
375 125 1 0.4238 -5.692660359482507 -3.868572356547512 11.579421024247162 1 1 -4
684 228 1 0.4238 -4.337917116582625 -4.636274462792365 6.976558561808394 1 -2 -3
683 228 2 -0.8476 -4.749710116842213 -5.5474975280733805 6.967075599862796 1 -2 -3
599 200 2 -0.8476 -3.7368776345025427 -3.0341399107434466 7.387244101504104 -1 1 0
600 200 1 0.4238 -4.24191525883395 -2.295523695297618 6.940730957775696 -1 1 0
367 123 1 0.4238 3.964809023842969 -9.9475470477112 11.80633637814779 1 2 1
658 220 1 0.4238 -11.0880723714807 -11.673092281270302 0.5611791531007662 -1 1 -1
598 200 1 0.4238 -3.5181513115884826 -2.768277507179537 8.326108794365306 -1 1 0
373 125 1 0.4238 -5.3118642588810925 -2.96545242012019 10.273292637283308 1 1 -4
301 101 1 0.4238 -1.578237497609253 -1.507982246565648 10.109396590624597 -3 1 0
405 135 1 0.4238 0.02106966169755431 -1.5576949325070188 8.26818543822353 1 0 0
890 297 2 -0.8476 -5.2495092112145745 -3.965164791774825 1.0296884398898138 -1 1 0
1361 454 2 -0.8476 -3.966885677056675 -7.04570219828411 11.320428518330303 1 3 -1
302 101 2 -0.8476 -0.5883077583863408 -1.634004593909415 10.04498153674041 -3 1 0
404 135 2 -0.8476 0.42574078917724734 -1.5558874373377183 7.353729947746357 1 0 0
256 86 1 0.4238 4.8007144335068315 -3.757481895721442 6.714351966784929 -2 0 0
257 86 2 -0.8476 5.282510920670356 -4.5893462581721085 6.989787366876882 -2 0 0
770 257 2 -0.8476 1.9368094859290519 -3.397114067598345 6.158100499948365 0 -1 -2
1075 359 1 0.4238 11.106310953531212 -6.2195868023264245 11.908953472120295 -3 0 1
1372 458 1 0.4238 4.084225341260195 -4.473346452948733 8.753125936451559 2 -1 -1
1176 392 1 0.4238 -0.2532811598124365 -5.275759732349356 7.310813004789765 -1 0 2
1374 458 1 0.4238 2.5561064584307136 -4.823462452383715 9.210153083542405 2 -1 -1
303 101 1 0.4238 -0.12507668575765862 -0.8671446520478021 10.489204323507819 -3 1 0
769 257 1 0.4238 1.7205576997737335 -4.269138188455649 6.597190815437877 0 -1 -2
771 257 1 0.4238 1.3647532870681918 -2.676122844719705 6.549143409095478 0 -1 -2
1256 419 2 -0.8476 1.1812696540635823 -0.19813643644292434 12.21117063355941 0 0 -2
22 8 1 0.4238 4.541607257148177 -11.231919831361056 1.9041239726306993 1 -1 1
403 135 1 0.4238 0.2218809468484153 -0.687997093369205 6.900741660726813 1 0 0
556 186 1 0.4238 4.681557182591989 -0.9625595185911937 6.814528132672663 1 1 1
558 186 1 0.4238 5.126591264927557 -0.8227256439440094 8.37945406996261 1 1 1
107 36 2 -0.8476 4.309312067138409 -2.314649898182866 5.825676417577683 -1 1 0
108 36 1 0.4238 3.4017462716753393 -2.734323288856805 5.811911094726858 -1 1 0
884 295 2 -0.8476 1.0522706739404715 -3.9836400827528315 9.988371945931997 1 1 0
883 295 1 0.4238 0.38808095558323075 -3.2498382322469457 9.84562106651963 1 1 0
557 186 2 -0.8476 4.5411062560175655 -0.44816334558375637 7.660495614074314 1 1 1
384 128 1 0.4238 10.852156445206619 -11.793997584677724 7.909189169941417 -2 0 -1
1238 413 2 -0.8476 9.1619434780075 -4.249645482028733 7.842847349871681 -2 0 -1
1068 356 1 0.4238 8.520025368806762 -3.1772394221444333 9.167024708800277 2 1 -1
102 34 1 0.4238 11.215291271413667 -1.682200130276506 11.327483301724618 0 1 -2
1391 464 2 -0.8476 4.825357207157685 -6.378933945707222 11.238754035484128 -1 1 1
484 162 1 0.4238 9.26722369256967 -1.0018152250432042 6.274146764027638 -1 -1 -1
1088 363 2 -0.8476 9.7643498657093 -0.9098887114781835 10.610373851309504 0 0 1
1170 390 1 0.4238 6.2971660591178615 -5.651675295208613 8.180406937684845 -1 1 2
1237 413 1 0.4238 9.943388011172116 -4.6953373375827345 8.279532849602486 -2 0 -1
494 165 2 -0.8476 11.332143428114877 -5.650859085067967 8.501370307441784 -2 2 -1
493 165 1 0.4238 11.732677275799732 -5.580512361919273 9.414942850377107 -2 2 -1
779 260 2 -0.8476 9.617859959851272 -6.503517497402679 5.93866817743478 3 0 2
778 260 1 0.4238 10.521685557170203 -6.824474529657997 5.655687609928134 3 0 2
595 199 1 0.4238 6.349223582656494 -0.6458909279022738 10.969770878911804 0 0 0
1089 363 1 0.4238 10.324843013129987 -0.8330186666768356 9.78579560174116 0 0 1
596 199 2 -0.8476 6.286944114474926 -0.9274454639485938 10.012253616215503 0 0 0
23 8 2 -0.8476 4.4577635871058 -11.961116831656181 2.5832654382678877 1 -1 1
811 271 1 0.4238 10.914767899023007 -1.4036120926860018 7.868880552534766 0 2 -1
496 166 1 0.4238 -3.4546547708438187 -11.642358817902139 10.935893204755974 1 -1 -1
52 18 1 0.4238 11.810048365789 -8.834361094087349 11.28652171004329 0 0 -2
1096 366 1 0.4238 -9.530641320494906 -0.18835648111522296 8.349842654677898 1 1 -1
927 309 1 0.4238 0.8425705303607458 -9.245123709796324 1.4209703246779672 0 0 -1
459 153 1 0.4238 3.996365039066136 -0.16078832673658638 0.9039365658316357 0 1 -1
861 287 1 0.4238 3.090659005235258 -10.117970245962798 4.615706330670786 2 -2 1
1382 461 2 -0.8476 -8.983952726485917 -0.22315132325127784 1.1523584065588273 1 0 0
1128 376 1 0.4238 -8.284970885489923 -1.0178847282279921 11.714684073495647 -1 1 -1
53 18 2 -0.8476 11.697251880382387 -8.410015040728268 12.18496381504077 0 0 -2
55 19 1 0.4238 8.551360988238597 -8.145147647946292 11.669239374649123 0 -1 1
849 283 1 0.4238 7.52062711868564 -4.799120577153258 12.34802009998564 -4 -2 -2
541 181 1 0.4238 1.9712621632593699 -9.782694689689137 12.388981802903983 0 0 0
129 43 1 0.4238 -10.572318481660188 -3.0542205472192077 10.268615566034548 -1 -1 -2
1103 368 2 -0.8476 -6.877917295967663 -1.5507375880337406 0.1634073956430506 1 -5 3
645 215 1 0.4238 -10.304212663979797 -2.3283729077745754 0.4280471754656511 2 0 2
382 128 1 0.4238 10.08485263325346 -12.220221763506581 9.286207994937534 -2 0 -1
1288 430 1 0.4238 -8.034562892740857 -0.08585970957397215 6.610484198032848 0 -1 0
1319 440 2 -0.8476 -9.239434941099127 -5.426511048445367 0.17741349954017696 0 3 -1
786 262 1 0.4238 -12.019456838766741 -4.4640274986431265 12.119127305399157 -1 -1 1
1111 371 1 0.4238 2.280942009637517 -8.944183678136325 0.013403613471318795 -2 0 0
1452 484 1 0.4238 -1.487069921488736 -0.12191895185046242 0.9135831636803932 -1 0 1
1049 350 2 -0.8476 3.782436312823682 -0.4769485978130046 3.1377991719448666 -1 2 0
380 127 2 -0.8476 -10.115791291062177 -10.583053755024245 12.363410254011583 0 1 -3
396 132 1 0.4238 -4.342367569851453 -5.670734249624042 12.328390516902607 1 0 0
423 141 1 0.4238 -11.515178243528831 -7.716300553872679 12.30718398701544 1 2 0
190 64 1 0.4238 3.5584181891689255 -6.47576086916138 12.398984813052019 -3 2 -1
1071 357 1 0.4238 -10.655036763350349 2.9912374689827512 -8.522440498964547 1 -1 0
910 304 1 0.4238 -10.714315854246141 5.004117181998398 -8.0573079819385 3 -1 0
911 304 2 -0.8476 -10.170544548917709 4.481208813781384 -7.400900634107133 3 -1 0
912 304 1 0.4238 -9.644504996259148 5.109845308583457 -6.828109747711179 3 -1 0
1070 357 2 -0.8476 -11.21506857202146 2.387463241058759 -9.089725634221873 1 -1 0
444 148 1 0.4238 -12.376477756787173 3.572866495205666 -5.788140608702673 2 -1 0
1069 357 1 0.4238 -11.237384871722401 1.4741205728512732 -8.683156573636674 1 -1 0
944 315 2 -0.8476 -7.728552411050329 5.537323822174054 -8.49903581776624 2 -1 -1
1498 500 1 0.4238 -8.866747710175789 1.2350021079096276 -10.951095124509528 0 0 -1
578 193 2 -0.8476 -5.167234992841453 9.409087986769636 -12.339075687504792 2 -1 0
343 115 1 0.4238 7.314404159918427 3.422253962584133 -12.345366738279226 -2 -1 0
724 242 1 0.4238 12.185460590554415 2.098469965194285 -9.864115197437686 0 -2 -1
160 54 1 0.4238 -6.56953627725782 4.845757069372132 -11.961112967917652 -1 -3 2
945 315 1 0.4238 -7.223403823974437 5.352905396742711 -9.342128975007673 2 -1 -1
864 288 1 0.4238 3.652509322503237 0.5146004333090577 -4.905503166501186 -1 -1 0
1139 380 2 -0.8476 -3.2778130343805376 1.4450454247160458 -1.6077657768024998 2 1 2
922 308 1 0.4238 -1.1164717829820177 1.2652930439484003 -3.8156437813564743 0 0 0
1500 500 1 0.4238 -10.136790283392271 2.2610685979574274 -10.923140500875675 0 0 -1
21 7 1 0.4238 3.01183220071311 3.323637587651392 -0.9198205400392544 1 -2 1
112 38 1 0.4238 -3.0819806592615038 0.964893907073856 -5.225781571307888 1 0 0
1004 335 2 -0.8476 11.10491094317741 8.712602939167665 -12.281893076308508 -2 1 -1
161 54 2 -0.8476 -6.135431564574387 4.7639137479152165 -11.063980946705783 -1 -3 2
1470 490 1 0.4238 -5.8585195655813855 2.869568137877211 -10.970697337122552 -1 0 -3
878 293 2 -0.8476 -6.876189590755765 0.2128095461731121 -5.265544057180703 1 0 3
1134 378 1 0.4238 -2.507306148675733 4.423840360656021 -8.09743033095086 1 1 2
1133 378 2 -0.8476 -2.228855968955541 3.758271459565899 -8.789871434379275 1 1 2
1132 378 1 0.4238 -1.9077229955541863 2.924534196522451 -8.340708215649906 1 1 2
1005 335 1 0.4238 11.583044702847667 9.588644848940406 -12.219195433534342 -2 1 -1
1469 490 2 -0.8476 -5.429974879121608 1.967206165144404 -10.925055591729977 -1 0 -3
1468 490 1 0.4238 -5.533396796243971 1.595375540723504 -10.002539028471798 -1 0 -3
1413 471 1 0.4238 3.804201572688738 8.170766322912337 -2.034575973732298 -1 0 0
997 333 1 0.4238 -2.4419342178224515 6.133586850655872 -6.5562446173995115 -1 -1 1
970 324 1 0.4238 -3.104102863134692 4.272361168509375 -10.295544547931213 -1 -3 0
998 333 2 -0.8476 -2.2028128841502497 6.550525756181264 -7.43315677815881 -1 -1 1
1489 497 1 0.4238 -1.17336197141662 3.7413667693622923 -10.158280333820464 -5 2 0
971 324 2 -0.8476 -3.338828513791663 4.855376787831554 -11.073354015659309 -1 -3 0
292 98 1 0.4238 -10.949057405520715 12.284726700684997 -3.896922330721185 -1 -2 1
162 54 1 0.4238 -5.166117513607211 4.99761776210905 -11.140164224805176 -1 -3 2
999 333 1 0.4238 -2.7885719677576226 7.344595059298706 -7.5954291779805985 -1 -1 1
1411 471 1 0.4238 4.741946404617957 6.83416601670889 -2.007439611802712 -1 0 0
415 139 1 0.4238 3.588189173459382 12.025468891157187 -4.614199546972188 0 0 1
457 153 1 0.4238 4.785964976373963 0.695962934521182 -0.24022744842771585 0 1 -1
604 202 1 0.4238 3.228108746883775 2.021645140381585 -6.9931231384535915 -2 1 0
632 211 2 -0.8476 3.7446131273880194 3.0895101856945946 -10.732818979266996 0 1 4
633 211 1 0.4238 3.424111394458075 2.6329195701262833 -9.902882274718046 0 1 4
606 202 1 0.4238 1.8062448483658127 1.9244521972597717 -7.79027981331329 -2 1 0
605 202 2 -0.8476 2.7751297762294573 2.157259964013088 -7.87426426613899 -2 1 0
589 197 1 0.4238 3.7847129953962177 5.35911532297297 -7.816990823076414 -1 3 1
631 211 1 0.4238 3.8594905930746624 2.4143637245656286 -11.46149724565176 0 1 4
590 197 2 -0.8476 4.420830557461683 4.649042409209409 -7.515092207281582 -1 3 1
591 197 1 0.4238 3.98373429693107 3.753347739823349 -7.596756098599138 -1 3 1
435 145 1 0.4238 2.8030634989080756 4.832532287147734 -11.006902614264623 -1 0 0
642 214 1 0.4238 5.738692738286167 4.075741340916748 -10.917425254877207 -1 -2 0
434 145 2 -0.8476 1.9927053366630414 5.418391234230034 -10.99793891010407 -1 0 0
1460 487 2 -0.8476 2.543168567792325 6.372292175815359 -8.536870765028985 2 0 0
1459 487 1 0.4238 2.2015098697737354 5.9394537393684015 -9.371083626723735 2 0 0
17 6 2 -0.8476 11.811575747728932 6.548377758640731 -4.386342998389367 0 1 0
982 328 1 0.4238 3.9753709397853125 0.8493636606776409 -8.46227192289084 -1 1 1
1162 388 1 0.4238 -7.270550655385423 10.361775593317896 -0.23189670763566492 2 -3 2
98 33 2 -0.8476 0.41556463751157224 1.263211008729316 -6.872403223452501 0 1 -1
1065 355 1 0.4238 10.252708546766423 8.846938469227657 -1.9061667342667878 -1 1 1
1490 497 2 -0.8476 -0.49979807155307654 3.6443797280690564 -10.891012470735214 -5 2 0
1409 470 2 -0.8476 0.4661544139169589 12.041136851450089 -12.316596165042201 0 -3 1
1478 493 2 -0.8476 1.9661544587685995 0.5200365412603336 -2.38777857669461 -1 2 -1
1491 497 1 0.4238 0.1165540140765664 4.431809275017089 -10.883544936049454 -5 2 0
10 4 1 0.4238 9.636703011994461 0.7959636916650314 -2.2489057520239006 1 1 0
1440 480 1 0.4238 -6.513153718578802 0.934327566120368 -7.531349647736808 0 1 1
641 214 2 -0.8476 6.230182661864097 4.618749838227268 -11.59828528844915 -1 -2 0
640 214 1 0.4238 5.575468458314765 5.145750640853086 -12.140143624756227 -1 -2 0
983 328 2 -0.8476 4.832058888193048 0.4536422489304073 -8.793151298526737 -1 1 1
934 312 1 0.4238 10.04427955579281 2.2532212905647473 -5.411259302688401 1 -2 -1
335 112 2 -0.8476 9.20838858911515 1.0615022799176472 -8.72028733202388 2 1 0
984 328 1 0.4238 5.566623269774736 1.1261474987429008 -8.702914211941225 -1 1 1
1300 434 1 0.4238 6.50443818411202 2.700754625224718 -7.599021824871899 -1 0 1
1301 434 2 -0.8476 6.51891058729745 2.5926092899818443 -8.593047136929345 -1 0 1
1302 434 1 0.4238 7.144216379629485 3.263170338808491 -8.99221048672679 -1 0 1
334 112 1 0.4238 9.98053411739904 1.5467418035647196 -9.130561281636396 2 1 0
336 112 1 0.4238 8.377269472180187 1.6073565501220504 -8.826471806476412 2 1 0
875 292 2 -0.8476 3.10833798470809 11.893892145928865 -1.425678843461493 -1 -1 2
726 242 1 0.4238 11.192696508260715 1.4326066769514778 -10.976612492894125 0 -2 -1
742 248 1 0.4238 -5.889867693453397 0.46431238528498575 -2.7642313611330973 1 2 3
1438 480 1 0.4238 -7.349539277391813 0.7182986583302213 -8.917132084578473 0 1 1
725 242 2 -0.8476 11.265989699874359 2.1225995528895822 -10.256522827525517 0 -2 -1
1368 456 1 0.4238 11.059961499321302 3.6960438039943053 -11.488936580988902 0 -1 -3
1063 355 1 0.4238 10.275742468188527 9.105828012383471 -3.5183231293361965 -1 1 1
943 315 1 0.4238 -8.484726510927612 4.8884021232013435 -8.414818881458077 2 -1 -1
73 25 1 0.4238 -10.041863807884498 8.034582073960694 -11.891593270041726 0 -2 -1
1426 476 1 0.4238 -5.922696443319293 5.71322507456585 -6.644978418410962 2 0 2
1203 401 1 0.4238 -11.592327139129713 6.203432550420404 -9.838998503289504 -1 0 0
1202 401 2 -0.8476 -10.811009250446087 6.442433943027476 -9.262446862928234 -1 0 0
75 25 1 0.4238 -10.099248034154442 8.984580670647004 -10.56463737946728 0 -2 -1
623 208 2 -0.8476 9.120152547946427 8.151986868752482 -5.249674032943057 -3 -2 0
42 14 1 0.4238 -6.9405191421566315 11.087445740506611 -10.75219544069874 3 -2 -1
532 178 1 0.4238 -6.344128651830104 9.151029495302135 -10.93074957656378 -1 0 0
533 178 2 -0.8476 -7.07427974155306 9.334018081126425 -10.272429396268521 -1 0 0
534 178 1 0.4238 -7.953700992048848 9.068912183225818 -10.667812775806265 -1 0 0
826 276 1 0.4238 -7.182407095613465 8.907070106572709 -8.560649693743057 -3 0 -1
74 25 2 -0.8476 -9.540725666452575 8.706329004603658 -11.346059036839664 0 -2 -1
828 276 1 0.4238 -7.20190067697218 7.671068539867795 -7.493633760626878 -3 0 -1
1201 401 1 0.4238 -10.046832093860834 6.730734193751482 -9.839427879830234 -1 0 0
137 46 2 -0.8476 -11.196372233131688 9.31365947669086 -9.484384533737325 -1 0 2
1001 334 2 -0.8476 -12.340000638741609 11.451620003716714 -11.687145014899917 0 -1 0
136 46 1 0.4238 -10.71945354488258 9.752077846716043 -8.72259140264437 -1 0 2
1109 370 2 -0.8476 -10.147267298481694 10.558161236872126 -7.373009739201691 1 0 -1
479 160 2 -0.8476 2.3339319774058964 5.303363904169176 -1.1177797526698408 -2 -1 0
712 238 1 0.4238 9.748620838988318 11.95164756433387 -1.3884130320361627 -3 1 0
1284 428 1 0.4238 -4.959515186458695 0.22840699213799098 -10.966695185978267 1 0 0
1110 370 1 0.4238 -9.739299521361803 11.464800774662153 -7.480521117422315 1 0 -1
1499 500 2 -0.8476 -9.288243298598427 2.0248510172493326 -11.396596064767932 0 0 -1
306 102 1 0.4238 -0.2184609492374463 11.141811267888565 -7.406759457147765 1 -2 2
757 253 1 0.4238 -2.4146295910858466 8.047931871539303 -11.159176251215086 -1 -2 -1
758 253 2 -0.8476 -2.2678421263898425 7.12895011877381 -11.525122699127982 -1 -2 -1
923 308 2 -0.8476 -2.0392428639783127 0.8922090036684782 -3.9120421451717333 0 0 0
153 51 1 0.4238 -1.908186499290089 10.315307050269977 -11.222105368503929 0 -1 -1
827 276 2 -0.8476 -7.038627932124524 8.65137942464129 -7.604646416779265 -3 0 -1
956 319 2 -0.8476 -4.293355738873133 11.934854745164044 -9.90583611181733 3 0 -1
1143 381 1 0.4238 -0.21297287473625381 9.948002878660967 -9.43847866363567 0 -2 2
152 51 2 -0.8476 -2.1331660828349417 10.259480676137665 -10.249347166971663 0 -1 -1
151 51 1 0.4238 -2.91276854878582 10.854133871037822 -10.052882284754686 0 -1 -1
931 311 1 0.4238 11.523167907086494 1.3002007322128506 -0.27184864736797165 -1 0 -1
865 289 1 0.4238 -4.451371169091645 7.926889589346407 -9.017373245101794 1 0 -1
1350 450 1 0.4238 -0.6593791841142984 7.163717407063492 -7.6091749453049795 -1 -2 0
866 289 2 -0.8476 -4.060548715358067 8.463503267624644 -8.269513309613705 1 0 -1
867 289 1 0.4238 -4.631558834404875 9.267188326432594 -8.102095276713037 1 0 -1
955 319 1 0.4238 -5.24491634448846 11.747209107331988 -10.14937988223739 3 0 -1
338 113 2 -0.8476 -1.738402679570516 10.144966530433896 -7.2615638523786075 -1 2 -3
339 113 1 0.4238 -2.247905953374275 9.596105626902373 -6.598879586428263 -1 2 -3
692 231 2 -0.8476 -5.297336518266397 9.503238834051137 -5.598875657889795 1 1 -2
693 231 1 0.4238 -5.788213015855997 9.028375805093704 -6.329311280457338 1 1 -2
1142 381 2 -0.8476 0.5561088511200154 9.32871381293785 -9.596547094533268 0 -2 2
1141 381 1 0.4238 0.5064101513780503 8.56461543480278 -8.953371041277375 0 -2 2
1349 450 2 -0.8476 0.3026566843622245 7.423710872992489 -7.526221395047009 -1 -2 0
1348 450 1 0.4238 0.5156274875738305 7.61175295091939 -6.567433369992302 -1 -2 0
1476 492 1 0.4238 -12.26732198657793 11.311483286327713 -2.2728748601119433 2 -2 1
337 113 1 0.4238 -2.172331189486105 10.070950193478994 -8.159460839051812 -1 2 -3
972 324 1 0.4238 -2.7371808930418062 5.654050948658293 -11.084787151668715 -1 -3 0
15 5 1 0.4238 1.0165334380290734 12.10470226127397 -4.268625083908509 -2 -2 0
801 267 1 0.4238 -2.786127688143541 1.0140124895158902 -7.483982671722581 0 -2 2
477 159 1 0.4238 8.69876966415445 3.8957171493485863 -0.34366785948508843 1 1 2
1461 487 1 0.4238 1.791096535930354 6.838897323855994 -8.07140516445582 2 0 0
357 119 1 0.4238 5.996503149422596 9.201291431727801 -7.77340423015225 0 1 1
356 119 2 -0.8476 6.697322227763641 9.867069142563272 -7.517309773008529 0 1 1
228 76 1 0.4238 4.036319807055337 7.282025551318123 -8.801747528369248 -2 -2 1
227 76 2 -0.8476 4.772749472862563 7.93535426949221 -8.977317631395488 -2 -2 1
226 76 1 0.4238 5.433246559253819 7.531004852026724 -9.609959924656417 -2 -2 1
30 10 1 0.4238 3.821221847902061 9.11929732863687 -7.7043412833828615 0 0 1
355 119 1 0.4238 6.271255847517091 10.627924464268245 -7.02786299257694 0 1 1
255 85 1 0.4238 7.700302402665594 8.996230250977343 -8.93916561775554 0 0 2
799 267 1 0.4238 -2.251833010372371 0.8170545082550724 -9.01445289519836 0 -2 2
1125 375 1 0.4238 2.986271306851611 9.543871497514454 -12.26494024500221 1 0 2
304 102 1 0.4238 0.9159627039226557 11.977263058090246 -8.232415474565606 1 -2 2
672 224 1 0.4238 -0.6838873957335192 1.912109314237311 -11.068971130510583 -1 -1 -2
713 238 2 -0.8476 9.553493923318113 12.115264673000476 -0.4213830755638252 -3 1 0
18 6 1 0.4238 11.41004186170173 7.275430626389424 -3.8294266943800257 0 1 0
924 308 1 0.4238 -2.5570794531633148 1.0630252580843251 -3.0737951760991264 0 0 0
1231 411 1 0.4238 1.8353147456296153 10.018549103673534 -10.616257747207632 2 0 -2
1435 479 1 0.4238 8.753825452441669 11.347478062181422 -10.595635828394519 1 1 -1
765 255 1 0.4238 -3.9855129913746126 11.20316503408282 -6.513542718781869 3 -2 0
882 294 1 0.4238 7.28227988761528 5.668062123469754 -10.614629996924984 -2 -1 -1
1437 479 1 0.4238 10.355181471452463 11.442100637293523 -10.290173116659936 1 1 -1
1366 456 1 0.4238 11.267171064703325 5.306329371023592 -11.313874735712002 0 -1 -3
881 294 2 -0.8476 7.249316367173629 6.297124320006072 -9.83797987104495 -2 -1 -1
563 188 2 -0.8476 8.302473135656593 6.766912547317746 -7.376773927780163 -2 0 -2
1232 411 2 -0.8476 2.376131277548639 10.672217672181818 -11.145621268643858 2 0 -2
562 188 1 0.4238 8.01838129653291 6.557381727587847 -8.31239113408857 -2 0 -2
138 46 1 0.4238 -11.911280345280913 8.712025641051744 -9.128106539996137 -1 0 2
332 111 2 -0.8476 11.397865587634397 6.774955090709716 -10.2769527837933 1 0 1
331 111 1 0.4238 11.406636570304764 7.227077756810923 -11.168860278086045 1 0 1
333 111 1 0.4238 11.076523047802086 7.41704075240011 -9.58092416861407 1 0 1
1495 499 1 0.4238 8.614586977729006 10.458706607534845 -7.168136093960606 0 -1 1
880 294 1 0.4238 7.596345717127532 7.191928551460569 -10.118850387489847 -2 -1 -1
253 85 1 0.4238 8.69407517592733 9.608143067445225 -10.081348342688976 0 0 2
1108 370 1 0.4238 -10.929180935723355 10.615976058346297 -6.752316868043264 1 0 -1
504 168 1 0.4238 11.063922688907004 7.710222494197362 -7.155017404431748 -1 -1 -2
502 168 1 0.4238 10.340685039065852 9.076799230251757 -7.680372322039951 -1 -1 -2
503 168 2 -0.8476 11.015336189233333 8.372847586653196 -7.902384977861372 -1 -1 -2
254 85 2 -0.8476 8.10280030532738 8.838367011777498 -9.840867544034067 0 0 2
1496 499 2 -0.8476 9.565544911555948 10.449073002167014 -6.858980755674162 0 -1 1
1436 479 2 -0.8476 9.63111101663115 10.875667877246185 -10.683704260890167 1 1 -1
236 79 2 -0.8476 -8.731751837080148 5.460648601226692 -4.965368412784064 0 -1 1
237 79 1 0.4238 -7.800587955810299 5.525333047057808 -5.324172830546365 0 -1 1
442 148 1 0.4238 -10.941663991145905 3.0867085338684 -6.397699398345347 2 -1 0
443 148 2 -0.8476 -11.669614173514193 2.8666429287882433 -5.748353206451595 2 -1 0
235 79 1 0.4238 -8.698833264964959 5.235964065866137 -3.9914977303537293 0 -1 1
234 78 1 0.4238 -9.871279911615751 1.1451173713106932 -2.5165260618151275 4 -1 -2
233 78 2 -0.8476 -9.126474058294825 0.7801936072944375 -1.9578795359991763 4 -1 -2
1415 472 2 -0.8476 -6.74603889192054 1.7441200392281697 -2.807550188929637 0 2 1
1414 472 1 0.4238 -6.481195902699065 2.4382999003494934 -2.138249018168315 0 2 1
773 258 2 -0.8476 -5.423941693204307 4.392210383773117 -2.1755805050950814 0 2 -1
772 258 1 0.4238 -4.766236348927501 4.3200208781956935 -1.4257771730362698 0 2 -1
1172 391 2 -0.8476 -8.173871290435985 2.9328113061789285 -0.0967371027898832 1 -3 0
232 78 1 0.4238 -8.911091754290617 1.4267442471516674 -1.2260505330366644 4 -1 -2
1205 402 2 -0.8476 -8.83318880783142 4.725301345163574 -2.339845433242141 -1 0 -1
1204 402 1 0.4238 -8.470098866754933 4.30007524699325 -1.5107861312915356 -1 0 -1
1206 402 1 0.4238 -9.56753121386131 4.157362653414529 -2.7115680900492447 -1 0 -1
144 48 1 0.4238 11.316112079237685 11.89030319205286 -3.5125975686868243 -1 1 1
608 203 2 -0.8476 -10.685499993467172 2.841219633278385 -3.1907411779501174 3 -1 1
609 203 1 0.4238 -10.94861975698622 2.6563635708750013 -4.137624056434441 3 -1 1
594 198 1 0.4238 -8.56345022434978 6.806754472704638 -2.203954006917967 1 -1 -3
1474 492 1 0.4238 -10.640681406981722 11.199924489812938 -2.363416275003481 2 -2 1
1416 472 1 0.4238 -7.603174587768303 1.3155301120873695 -2.5218561135678614 0 2 1
1427 476 2 -0.8476 -6.033686888445391 5.664047921308322 -5.652378944879245 2 0 2
348 116 1 0.4238 -4.608256112393314 2.6920637212431267 -4.8377882101993555 0 0 -3
1428 476 1 0.4238 -5.569375534522649 4.84933601062661 -5.30502974449083 2 0 2
202 68 1 0.4238 -3.518019765228942 4.980329191031794 -4.662621188886723 1 -1 -1
624 208 1 0.4238 9.370523637432088 8.907695638134305 -5.854826427497592 -3 -2 0
907 303 1 0.4238 -1.636817022137942 1.5518551533028102 -0.5860625292150463 -3 1 0
1312 438 1 0.4238 8.558266663857667 7.315806018045466 -3.184129002815248 3 -1 1
879 293 1 0.4238 -6.526826440412276 0.961732968206503 -4.7024718818248985 1 0 3
346 116 1 0.4238 -4.869898101275006 3.7752186615116177 -3.6440876068238084 0 0 -3
347 116 2 -0.8476 -4.579880939565493 3.661555404328224 -4.594330555484218 0 0 -3
203 68 2 -0.8476 -2.866015306841458 5.693227775006266 -4.920803732234224 1 -1 -1
204 68 1 0.4238 -1.9798067215245574 5.503289220727295 -4.498252035200333 1 -1 -1
774 258 1 0.4238 -5.906763287705147 5.265649079120694 -2.1125002547221983 0 2 -1
800 267 2 -0.8476 -2.0412201854720102 1.2131526948382163 -8.120730310172789 0 -2 2
1140 380 1 0.4238 -3.7321868896424206 2.3088439562804624 -1.390077568818348 2 1 2
480 160 1 0.4238 2.6862114636428736 5.194447224225984 -0.18824854122805737 -2 -1 0
730 244 1 0.4238 0.49490149114559756 5.091163271045312 -1.7192488768629917 0 0 0
1497 499 1 0.4238 9.844702771740758 11.376642034911656 -6.610631242933114 0 -1 1
731 244 2 -0.8476 -0.4619389550330588 5.381763044370848 -1.7193794156520306 0 0 0
909 303 1 0.4238 -0.22567727379768066 0.7548303072355829 -0.786159013232862 -3 1 0
1314 438 1 0.4238 8.341621720323632 7.738669969449495 -1.62180601097485 3 -1 1
664 222 1 0.4238 -3.0123650224375087 6.468007351753391 -1.279813347752189 -2 1 1
665 222 2 -0.8476 -3.8129956691183367 7.01300778675038 -1.030903729744007 -2 1 1
62 21 2 -0.8476 -0.3094161000338591 5.233813825730726 -4.428295637250604 2 -2 -1
326 109 2 -0.8476 -2.087196611073969 12.246928833009852 -0.9566629392225228 -2 -3 0
63 21 1 0.4238 -0.3371544040017369 5.0910655233840085 -3.4389294311204 2 -2 -1
908 303 2 -0.8476 -0.8012521453501531 1.244125075103529 -0.13095267883938205 -3 1 0
1252 418 1 0.4238 4.9892763822745945 2.2862166457095796 -5.624408711052923 0 0 1
1253 418 2 -0.8476 4.025033206440137 2.094635566160047 -5.441316913307677 0 0 1
1273 425 1 0.4238 5.629681315859122 5.660410332520607 -6.453573338037758 0 0 2
1254 418 1 0.4238 3.6340165501672654 2.839515278473982 -4.900714404344823 0 0 1
1274 425 2 -0.8476 5.982703839925213 6.3866204272978475 -5.863670786057728 0 0 2
33 11 1 0.4238 1.1083841445300582 2.6266480591692503 -4.566890147171734 -1 -1 3
31 11 1 0.4238 0.807324646199076 1.4200079417300735 -3.5085967942080702 -1 -1 3
1099 367 1 0.4238 2.5335940441148423 4.6029751772153364 -4.851203996575087 1 -2 1
61 21 1 0.4238 0.3242317916877955 4.57995822249624 -4.841762814105805 2 -2 -1
32 11 2 -0.8476 0.4284091743029137 1.9609974261667276 -4.259425920168025 -1 -1 3
1275 425 1 0.4238 5.219010137673047 6.862335116090362 -5.42725538977943 0 0 2
950 317 2 -0.8476 3.888305701630033 4.143577585313205 -3.4224487826872214 0 -1 3
951 317 1 0.4238 3.751907910159778 3.6469749079403453 -2.5652601816600575 0 -1 3
19 7 1 0.4238 2.97248104276996 1.7555127396912003 -1.373735579359043 1 -2 1
20 7 2 -0.8476 3.549471642094522 2.568434480806287 -1.2947923602269682 1 -2 1
433 145 1 0.4238 1.9646240696372548 5.961315978515389 -11.837245633986146 -1 0 0
1100 367 2 -0.8476 1.8751739087929238 4.069243922234259 -5.38186908472356 1 -2 1
1101 367 1 0.4238 2.101724657494932 4.131684044874506 -6.3538603035857175 1 -2 1
949 317 1 0.4238 4.839899019911362 4.444361725983915 -3.4856142609181346 0 -1 3
1479 493 1 0.4238 2.7777408833572697 0.39815630441487926 -2.95914847101564 -1 2 -1
936 312 1 0.4238 9.905124334473063 3.8182179852261893 -5.856259146282446 1 -2 -1
1487 496 2 -0.8476 10.552922727987022 5.3442858719408886 -6.3787983722672585 0 -1 2
1486 496 1 0.4238 11.008198305523647 5.870320222166848 -5.660463641531964 0 -1 2
475 159 1 0.4238 9.198325336898884 2.8880356187563354 -1.527570091605024 1 1 2
509 170 2 -0.8476 -11.561780777503122 8.199691427551256 -1.7828988591991823 1 -1 -2
607 203 1 0.4238 -11.318093834538704 3.5055489471495154 -2.7926425021578196 3 -1 1
761 254 2 -0.8476 11.675227382668412 0.9015111989147009 -4.383008644797004 -1 1 0
760 254 1 0.4238 12.305235278887322 1.4262169733336325 -4.955516035116517 -1 1 0
476 159 2 -0.8476 8.431872850067395 3.4343187963140114 -1.1897584314131977 1 1 2
935 312 2 -0.8476 9.40299199086356 2.9711792904779735 -5.681957524925153 1 -2 -1
1488 496 1 0.4238 9.907951195572489 5.933472762817816 -6.865483375737426 0 -1 2
265 89 1 0.4238 -11.524001613280708 7.395375303052541 -0.38126634424865213 -1 0 0
1249 417 1 0.4238 11.128657416682396 1.7162100272329592 -2.911408560920196 -1 0 2
1250 417 2 -0.8476 10.87306444406506 2.20949874932289 -2.079946399790298 -1 0 2
1313 438 2 -0.8476 8.09439701506225 7.078120845841324 -2.330711099009296 3 -1 1
661 221 1 0.4238 7.113705767655707 4.136564397681374 -2.280541937797681 -1 0 0
1251 417 1 0.4238 11.34391928607438 3.0914201294352885 -2.057557575519372 -1 0 2
662 221 2 -0.8476 6.571043911820501 4.708534151320501 -2.8956513468166216 -1 0 0
663 221 1 0.4238 7.0338911648640465 5.584526622512664 -3.0312996212072396 -1 0 0
985 329 1 0.4238 6.7381876608799605 3.8513058650439707 -4.847076083602689 1 0 -1
987 329 1 0.4238 7.807002911416673 2.9538769412391126 -5.694930626441866 1 0 -1
986 329 2 -0.8476 6.845397099912377 3.2152065958490645 -5.61119301498274 1 0 -1
612 204 1 0.4238 -12.318928953762347 5.12027286275505 -1.6615525554005688 -1 -1 -1
610 204 1 0.4238 11.938873120418362 5.040610502199181 -3.1908707916408385 -2 -1 -1
611 204 2 -0.8476 12.25653197106285 4.504358669557204 -2.4088748435972827 -2 -1 -1
99 33 1 0.4238 -0.4418173783126065 1.3454059558088023 -7.380469108875974 0 1 -1
1412 471 2 -0.8476 3.873890825565935 7.216243052081124 -2.3244374691650806 -1 0 0
675 225 1 0.4238 -10.015154544389109 6.92246646639399 -5.656184342242272 0 1 -2
674 225 2 -0.8476 -10.858781032951956 7.457323078407855 -5.703239072495326 0 1 -2
673 225 1 0.4238 -10.908519432803066 7.924380212176461 -6.586061043812575 0 1 -2
1213 405 1 0.4238 -7.179521202755217 10.211133614071707 -5.392916984874898 -2 1 3
902 301 2 -0.8476 9.5458291490631 8.48827461157679 -0.31801580304821186 0 1 -2
478 160 1 0.4238 2.9488790970998338 5.894046710425778 -1.6402024981068797 -2 -1 0
510 170 1 0.4238 12.290958527737216 8.142374274970718 -2.0106722982956753 0 -1 -2
1215 405 1 0.4238 -8.69819372857601 9.968405653716866 -5.941842234191472 -2 1 3
592 198 1 0.4238 -9.738963493234728 7.877400816974264 -1.8318149090793396 1 -1 -3
886 296 1 0.4238 -8.723471533568596 11.045907583924071 -3.8973613662756192 1 0 1
508 170 1 0.4238 -11.254904386422462 9.147650917566414 -1.8676961575510742 1 -1 -2
593 198 2 -0.8476 -8.833695837123395 7.537452737934542 -1.5770260447299214 1 -1 -3
327 109 1 0.4238 -2.5542664380727036 12.31338482204045 -0.07494759000018149 -2 -3 0
876 292 1 0.4238 2.8575996233092766 12.167412890772772 -2.354284014553497 -1 -1 2
1164 388 1 0.4238 -8.247939262738836 9.148474400433086 -0.7209922902620406 2 -3 2
14 5 2 -0.8476 0.21219371367646822 11.807451015013834 -4.783086295620328 -2 -2 0
156 52 1 0.4238 -5.703724310204653 12.31197734841235 -3.8685778127657606 -1 -1 2
1214 405 2 -0.8476 -8.148544676226464 10.223217478023075 -5.14626181842004 -2 1 3
16 6 1 0.4238 -12.082285294680794 6.803946657548691 -4.647306095867408 1 1 0
759 253 1 0.4238 -2.74643760546258 7.037549418346378 -12.39838275032768 -1 -2 -1
1475 492 2 -0.8476 -11.456979153326722 10.866323591754417 -1.8918653908386696 2 -2 1
1064 355 2 -0.8476 10.732885280531727 8.642471785639609 -2.7591705571429843 -1 1 1
691 231 1 0.4238 -4.437818066966765 9.0278705394631 -5.411141699916676 1 1 -2
622 208 1 0.4238 8.551485541594433 7.498888839942785 -5.749745660021498 -3 -2 0
305 102 2 -0.8476 0.6548083429002247 11.6236148304208 -7.33423826462216 1 -2 2
704 235 2 -0.8476 -2.7462497809032183 8.608157286011417 -5.288138468575471 3 -1 1
703 235 1 0.4238 -2.749365698160503 7.618906113786464 -5.141976814339476 3 -1 1
1138 380 1 0.4238 -3.965695309370213 0.7502259679568812 -1.8176144957595268 2 1 2
41 14 2 -0.8476 -6.840308284075751 12.082277960584394 -10.76828491957726 3 -2 -1
705 235 1 0.4238 -2.093053455874271 9.035395142530541 -4.663003871073237 3 -1 1
154 52 1 0.4238 -5.41603766403031 10.735014763880612 -4.1800707996615305 -1 -1 2
155 52 2 -0.8476 -5.4883405480052625 11.425065528696853 -3.4599357769280825 -1 -1 2
1439 480 2 -0.8476 -6.528605230950778 1.1221341388036912 -8.51342952736459 0 1 1
1485 495 1 0.4238 -5.7975020353577404 11.82741226660165 -1.2833955475246754 0 -3 -2
619 207 1 0.4238 -3.071447078282242 9.998581597725709 -2.243373043369353 1 -2 -2
666 222 1 0.4238 -3.94819940753791 7.735586149997937 -1.7088357610820462 -2 1 1
620 207 2 -0.8476 -3.970429786988168 9.689795538963397 -1.932772497910994 1 -2 -2
621 207 1 0.4238 -4.676867988744638 10.2903771154469 -2.30725725279935 1 -2 -2
707 236 2 -0.8476 -1.0292437749016514 9.741290897106117 -3.6886284532871207 -1 -2 1
706 236 1 0.4238 -0.6877144537246522 10.587641986135123 -4.097331966496533 -1 -2 1
708 236 1 0.4238 -0.5643601268662461 9.58029138910065 -2.8180233675586908 -1 -2 1
90 30 1 0.4238 -3.5048705176275146 9.056892599244014 -0.058253844499937174 0 -1 -1
1310 437 2 -0.8476 0.5657084268199419 7.9010510811094345 -4.7567061962433215 1 0 0
1311 437 1 0.4238 0.302846140381158 7.023206312048243 -4.356352017279227 1 0 0
1309 437 1 0.4238 -0.11982007909911907 8.591428192026966 -4.525574330866292 1 0 0
887 296 2 -0.8476 -9.12411555884537 11.676980166374323 -3.233115379333985 1 0 1
732 244 1 0.4238 -0.6099153182814927 6.041831212526132 -0.9828979551129174 0 0 0
564 188 1 0.4238 7.560787370254163 6.541851398389708 -6.744919066543415 -2 0 -2
29 10 2 -0.8476 3.633244599637992 9.884662186702991 -7.088815010971616 0 0 1
28 10 1 0.4238 2.6971818115070807 10.205805305075836 -7.232497366943927 0 0 1
814 272 1 0.4238 4.835668929112719 10.959493003345612 -1.409214982381159 2 0 -2
816 272 1 0.4238 6.0332942298320145 10.05241992693527 -2.0491483923208884 2 0 -2
1030 344 1 0.4238 0.5082584277968429 9.391691167190656 -0.5292822240129061 1 1 -1
815 272 2 -0.8476 5.595293767374903 10.344110887619442 -1.1988170683749744 2 0 -2
1449 483 1 0.4238 5.415145432513727 10.69616573607995 -4.714662889287562 1 0 -1
1448 483 2 -0.8476 5.091439543241195 11.329997486004034 -5.417131909120159 1 0 -1
1031 344 2 -0.8476 0.34001698251180557 9.999820908214796 -1.3050812891667174 1 1 -1
807 269 1 0.4238 4.874757737303183 8.849218860090426 -4.391725423380295 -1 0 0
1032 344 1 0.4238 0.6361982731779481 10.926256700403096 -1.0727361061421707 1 1 -1
805 269 1 0.4238 6.441402830304073 8.497592452229446 -4.094094199195589 -1 0 0
212 71 2 -0.8476 3.590373622039289 7.637613267379818 -4.91336416325828 -1 -2 2
211 71 1 0.4238 2.6681579322957845 7.622063562443033 -5.299715919311213 -1 -2 2
213 71 1 0.4238 3.5397981153427605 7.498796442126652 -3.9243429752324697 -1 -2 2
806 269 2 -0.8476 5.743611771270809 9.212863230914488 -4.055797259149618 -1 0 0
1447 483 1 0.4238 4.4462492698065486 10.859346307865996 -6.018968964142663 1 0 -1
97 33 1 0.4238 0.23439549877259225 1.364737691333918 -5.894210558570867 0 1 -1
919 307 1 0.4238 0.3079313682107401 0.28968104673518447 -9.737582843695538 2 1 0
1367 456 2 -0.8476 11.035374604951757 4.578305599330738 -11.959043440942322 0 -1 -3
113 38 2 -0.8476 -3.866049005657807 0.9233677047099782 -5.84505939549911 1 0 0
13 5 1 0.4238 0.46881994283505435 11.638839611575735 -5.734771163765765 -2 -2 0
709 237 1 0.4238 4.26958992731984 0.4006324656441276 -12.101297851294866 -2 -1 0
1197 399 1 0.4238 5.084342919784293 2.4750348317678874 -0.6910239503751882 0 -2 -1
874 292 1 0.4238 2.285950070590358 11.846056841733509 -0.8587743401128919 -1 -1 2
1195 399 1 0.4238 6.71627749944094 2.5018659529599 -0.6393364009389709 0 -2 -1
142 48 1 0.4238 9.75343722366444 12.359767394692755 -3.5778119840438696 -1 1 1
921 307 1 0.4238 0.7064623273809509 0.08961996083046131 -8.166675066597227 2 1 0
1000 334 1 0.4238 -11.563079575522076 11.026817492614787 -11.222464422617138 0 -1 0
1193 398 2 -0.8476 9.810290653985868 0.8596556741241521 -12.272394943466038 0 -2 -1
670 224 1 0.4238 -1.6855256524770947 0.6791472329119088 -11.447293060459932 -1 -1 -2
1002 334 1 0.4238 12.028008676874043 12.084615613621514 -11.062095601723556 -1 -1 0
143 48 2 -0.8476 10.406879182289439 11.758708169871442 -3.117667226363864 -1 1 1
929 310 2 -0.8476 7.2906709356739 12.391035683029779 -10.25021414176289 -2 -1 0
1233 411 1 0.4238 1.7766668927790707 11.387946907997721 -11.503901835610533 2 0 -2
671 224 2 -0.8476 -0.7594642214354117 0.9187585519830765 -11.155766322548011 -1 -1 -2
930 310 1 0.4238 6.3048436667524275 12.312935435707255 -10.101769553467935 -2 -1 0
1484 495 2 -0.8476 -5.902856158846234 11.651491070648776 -0.30464969695440264 0 -3 -2
1196 399 2 -0.8476 5.8940036535270135 2.082071438899611 -0.2551109705682499 0 -2 -1
1257 419 1 0.4238 0.4530037306413366 0.32844160321959137 -12.175029471990836 0 0 -1
1330 444 1 0.4238 6.796899657246906 0.49316052464303795 -0.030388940157046854 0 1 1
764 255 2 -0.8476 -4.006973547971388 12.159594789596204 -6.222385585313739 3 -2 0
1163 388 2 -0.8476 -8.117252872668853 9.866539670847859 -0.037402688352793916 2 -3 2
201 67 1 0.4238 4.0025499829927345 12.380600890156051 -9.888129421158409 -3 0 -1
1272 424 1 0.4238 9.066983309097493 10.102813301043698 -12.275915408505513 0 -3 1
1190 397 2 -0.8476 -3.9723035162661375 3.662805028381234 -0.1659184271043735 0 -1 0
781 261 1 0.4238 -9.755593805958192 11.451302033986236 -0.2639378847896808 1 -1 2
40 14 1 0.4238 -6.872306791794833 12.405244517627198 -11.714149753805255 3 -2 -1
1192 398 1 0.4238 9.03465430180295 1.4780861661110691 -12.398581801350671 0 -2 -1
309 103 1 0.4238 6.963579313979034 10.386362099358282 -0.012151578115702978 0 -1 2
536 179 2 -0.8476 -9.262462979023546 2.7927086492942923 2.439466160957363 2 0 -2
535 179 1 0.4238 -8.619035166734578 2.1653987800108006 2.87818462052186 2 0 -2
182 61 2 -0.8476 -9.138807882038874 4.3456880916477285 6.412166206816863 2 -1 1
181 61 1 0.4238 -8.302633805089103 4.365182906507103 5.86405653309508 2 -1 1
105 35 1 0.4238 -12.235930559665135 7.839908882950111 12.083049510123926 2 -2 -2
736 246 1 0.4238 -11.231991446905187 3.65968179305076 0.951879282871009 2 3 1
648 216 1 0.4238 11.893376790426887 1.0431382424944537 5.7479314176262335 -1 2 0
647 216 2 -0.8476 -12.009077773690533 0.9463827714133632 5.373790350670838 0 2 0
1148 383 2 -0.8476 -11.057576217392585 3.601315049155856 4.369437360124027 0 1 2
1147 383 1 0.4238 -10.628051809337734 3.719995369636985 5.264655396563972 0 1 2
737 246 2 -0.8476 -11.991650338400142 4.235807665219594 1.2535218129310097 2 3 1
537 179 1 0.4238 -10.044093649448897 2.9452915972293408 3.04424942745943 2 0 -2
1295 432 2 -0.8476 -7.8723151337865405 5.067034541224098 2.470735030615797 0 -2 2
1149 383 1 0.4238 -11.839088211154948 4.220126571935415 4.290046775577368 0 1 2
1062 354 1 0.4238 -0.4441583205988504 0.8540641246140606 4.9424583795381345 2 -2 1
565 189 1 0.4238 -10.247848720938258 7.223351398754845 0.9747213011554211 0 0 2
738 246 1 0.4238 -11.757750742726248 5.197520391902897 1.1107248924132567 2 3 1
1383 461 1 0.4238 -8.881089205809955 0.6248120355377402 1.672327679642285 1 0 0
1421 474 2 -0.8476 -8.671707942684385 11.782304818846542 9.726729549705132 0 0 1
1410 470 1 0.4238 -0.22610199705940026 11.39680878001836 12.183182355604327 0 -3 0
1296 432 1 0.4238 -8.291924038320019 4.1596705716036855 2.446020310800654 0 -2 2
1085 362 2 -0.8476 2.2825609246975187 0.32224107260514856 9.072504573275861 -1 0 1
646 216 1 0.4238 -11.71843002223252 1.8159296676768157 4.974536814535596 0 2 0
1294 432 1 0.4238 -8.26844521246269 5.637166899805257 1.7509981036908235 0 -2 2
752 251 2 -0.8476 -6.1777700255017445 1.4247784865840973 0.49119930845299226 -2 1 1
751 251 1 0.4238 -5.723743480807585 1.8985135817763545 1.245803189669121 -2 1 1
1408 470 1 0.4238 1.0266581862034858 12.344833720500242 11.7377133472089 0 -3 0
579 193 1 0.4238 -4.958898955195184 8.552497761715246 12.01362493597974 2 -1 -1
1173 391 1 0.4238 -8.825941336649041 3.067821086788202 0.6492976673945899 1 -3 0
141 47 1 0.4238 -6.887877302026313 0.5595288702004808 3.5224938323308272 -1 -3 0
140 47 2 -0.8476 -7.728413102584379 1.0948148226128485 3.605916991383698 -1 -3 0
139 47 1 0.4238 -7.994518699338732 1.1496531599652293 4.568295002716046 -1 -3 0
777 259 1 0.4238 -3.9245790163148673 2.756707036105432 3.061016407215975 4 0 0
775 259 1 0.4238 -5.359641463777694 3.5261600010019762 2.9379722351894273 4 0 0
530 177 2 -0.8476 -3.288797986214277 7.203733708777891 10.937189990953883 -1 0 -1
719 240 2 -0.8476 -2.8535105357083026 2.4421539986099976 4.424582893044692 -2 3 1
718 240 1 0.4238 -1.9181472114540696 2.43942305535354 4.070917416399681 -2 3 1
720 240 1 0.4238 -2.9306576629970564 1.7779307680103429 5.168119720653872 -2 3 1
776 259 2 -0.8476 -4.68759017026293 2.968809778000459 2.4504287502932263 4 0 0
132 44 1 0.4238 -0.45612487138639857 3.853840443650588 1.8269615515676145 -3 0 0
130 44 1 0.4238 0.19057567626725103 2.8110673243415345 0.7494621174854293 -3 0 0
550 184 1 0.4238 -2.778310807732545 5.039284030213954 2.271910178636329 -1 -2 2
551 184 2 -0.8476 -1.960591310673946 4.907543108020631 1.7115797363716234 -1 -2 2
131 44 2 -0.8476 0.350294619943357 3.3064152552276838 1.6033425781632367 -3 0 0
727 243 1 0.4238 0.06322403704943724 1.9554285588484177 2.744506886144436 -1 2 1
1405 469 1 0.4238 2.4104145559672236 11.81301472052544 10.127221049986026 1 -1 0
1246 416 1 0.4238 -6.873196636535457 5.113131595454464 3.916444981825158 -1 0 -1
1248 416 1 0.4238 -6.199580746803101 6.022465618352685 5.093711203308997 -1 0 -1
1247 416 2 -0.8476 -6.322512050171763 5.091157661243043 4.750863744964294 -1 0 -1
552 184 1 0.4238 -1.687146639011571 5.781706629061942 1.3102596864135276 -1 -2 2
500 167 2 -0.8476 -2.3576030604919627 4.2393849432849695 7.030810872458138 -1 2 -2
266 89 2 -0.8476 -11.702383190234048 7.025861463361133 0.5306714059040107 -1 0 0
728 243 2 -0.8476 -0.3643446240272983 1.2816178422422073 3.3471303800543977 -1 2 1
897 299 1 0.4238 9.283743506359661 11.895076262909965 10.996980953149 -1 -1 0
792 264 1 0.4238 2.1264444721368374 4.492774715043231 1.8776097245812247 0 -1 1
271 91 1 0.4238 5.995685416201782 5.95744002221843 2.0051496371887487 2 0 1
790 264 1 0.4238 3.709514054843341 4.137582906738659 2.062897185167478 0 -1 1
791 264 2 -0.8476 3.018610700862233 4.479826289952426 1.426098273785357 0 -1 1
383 128 2 -0.8476 10.514349420912259 12.261130570076295 8.450985922947531 -2 -1 -1
1180 394 1 0.4238 1.4216326139831885 3.5667246028278115 4.694306172408084 0 1 2
273 91 1 0.4238 5.1281780440873685 4.953146669197858 1.05360990500607 2 0 1
272 91 2 -0.8476 5.99904601935784 5.434549694428254 1.1527616051949587 2 0 1
1034 345 2 -0.8476 4.7540815465319195 3.8881014145202233 3.3971394915348294 0 0 2
1033 345 1 0.4238 5.274898732942054 4.501909149582344 3.99041880612121 0 0 2
1035 345 1 0.4238 3.8831572689687537 3.6622341809043295 3.833563285577428 0 0 2
1048 350 1 0.4238 4.51526359554771 0.19629082507411155 3.0392916749792365 -1 2 0
1218 406 1 0.4238 0.08264214594787234 11.46881023400523 0.8864712319365959 1 1 1
1098 366 1 0.4238 -10.451283030745243 1.0301823907984442 8.927928988803963 1 1 -1
120 40 1 0.4238 -12.272198608842338 12.203932411491094 6.503278754055836 1 -2 1
103 35 1 0.4238 -11.49331182807864 6.462165753075423 11.61727745788245 2 -2 -2
145 49 1 0.4238 -6.751357917941376 12.235730060495689 1.053721817223538 1 -1 -2
637 213 1 0.4238 5.713027056890864 1.5485317126782476 1.5247427122089952 0 1 -2
639 213 1 0.4238 5.531345071254863 2.282654594655856 2.9720358464035295 0 1 -2
528 176 1 0.4238 9.266809544621635 8.0094543897512 9.596715675992892 -2 0 -1
567 189 1 0.4238 -8.685932320418889 7.449543890825774 0.5553691402038357 0 0 2
940 314 1 0.4238 -2.4233268168328834 2.2922242495480702 11.676899918788163 -1 -4 1
638 213 2 -0.8476 5.555300350617218 1.4008124703840288 2.5011095283941627 0 1 -2
487 163 1 0.4238 1.9710268642550162 7.777642850630388 11.14096973998016 -3 2 -1
1185 395 1 0.4238 -4.743069741562773 6.9558406374947115 0.4322908748581665 -1 -1 0
808 270 1 0.4238 7.79977170200519 5.573725179598723 0.7699575979164096 1 0 0
467 156 2 -0.8476 11.06477223306563 4.760407735933102 4.953166243121392 0 1 0
680 227 2 -0.8476 11.234778642948834 2.475761659760913 2.4054803843378814 0 0 1
679 227 1 0.4238 10.529937788084437 2.962378580216299 2.921614458858838 0 0 1
681 227 1 0.4238 11.84325309112741 3.1372044225587015 1.9670248828635877 0 0 1
4 2 1 0.4238 10.292750428031995 0.253637065870123 4.08383245257651 1 1 0
307 103 1 0.4238 8.438461154300446 10.974486846915836 0.3692075932557553 0 -1 2
1078 360 1 0.4238 8.337552793563399 4.618405856771846 3.6955890071385378 0 -1 2
1080 360 1 0.4238 9.06277439659573 4.787895397288283 2.242341036357095 0 -1 2
1079 360 2 -0.8476 9.157443804864835 4.408785115396407 3.162833050320011 0 -1 2
1097 366 2 -0.8476 -9.52453826640789 0.7600391535299735 8.666858871929891 1 1 -1
809 270 2 -0.8476 8.791389903754633 5.488861964059316 0.6725725270303758 1 0 0
267 89 1 0.4238 12.343039268022975 7.502852977745603 0.9369991506728736 -2 0 0
466 156 1 0.4238 10.264473342194352 4.556821449700111 4.389192536001531 0 1 0
468 156 1 0.4238 10.805504813262198 5.391488127032643 5.6842675799669 0 1 0
1269 423 1 0.4238 6.342919589650139 1.037275900049334 4.598919259587463 1 -1 -3
1268 423 2 -0.8476 6.972694687733364 0.9076844589537316 5.3648045069106 1 -1 -3
1267 423 1 0.4238 7.8504415207227485 0.5733090323441115 5.021665448563896 1 -1 -3
1084 362 1 0.4238 3.066538373843633 0.025521143048136352 8.52722653276757 -1 0 1
933 311 1 0.4238 11.421889621645525 1.311778585221191 1.357940135537954 -1 0 -1
1227 409 1 0.4238 7.633836145849115 8.63464227848459 8.27885188119362 0 0 -2
787 263 1 0.4238 7.188782039694724 2.592000926779832 5.84846278881757 0 1 0
27 9 1 0.4238 7.776807403766968 4.750128932982568 6.010635208581193 1 0 1
1341 447 1 0.4238 -10.049856367186845 5.895081649602213 7.333428036308959 0 1 0
932 311 2 -0.8476 11.541542728181009 0.7328337786024708 0.5514059358479831 -1 0 -1
164 55 2 -0.8476 -9.857082748402094 9.058963563166367 3.4344488428146587 1 0 -1
1235 412 2 -0.8476 -8.638993779015106 8.530060537670865 6.066384995330058 0 2 -2
1236 412 1 0.4238 -9.199732670492716 7.83131210442208 6.510586217407871 0 2 -2
163 55 1 0.4238 -9.52837077795131 8.501573504702465 2.672046552969279 1 0 -1
165 55 1 0.4238 -9.383243741365172 8.789612643578339 4.272851067548602 1 0 -1
952 318 1 0.4238 -7.983785836838485 12.08695598832867 6.619711303106621 1 -1 2
953 318 2 -0.8476 -8.16241464803405 11.232784712034094 7.108050064359287 1 -1 2
954 318 1 0.4238 -8.218387630072638 10.479579968964314 6.452655915858902 1 -1 2
1347 449 1 0.4238 -11.276626298436348 9.728780608580708 3.470296774859698 2 -3 -1
1189 397 1 0.4238 -3.2774117041001336 4.316255739697558 0.13427896380739127 0 -1 0
1345 449 1 0.4238 -12.359584613191725 10.85997776100636 3.007483073074357 2 -3 -1
1234 412 1 0.4238 -7.7294722964253735 8.158614496711385 5.879863391144508 0 2 -2
1346 449 2 -0.8476 -12.207916803066569 10.069057072748867 3.6003002224006404 2 -3 -1
839 280 2 -0.8476 7.445168023114379 8.62758277153936 6.527527177545139 -1 -1 -2
698 233 2 -0.8476 -5.834224238812854 7.763376983081239 5.7409838724337545 -1 -1 -1
1012 338 1 0.4238 -7.627551784423011 11.619431691228355 2.9714653912017166 0 -1 0
939 313 1 0.4238 -10.590087249799828 10.243350819077596 6.852893883822249 0 -1 -2
938 313 2 -0.8476 -11.442764199761458 10.677152101529737 7.144011816590989 0 -1 -2
1013 338 2 -0.8476 -7.8577653181363765 11.002834996178157 3.7243273204373466 0 -1 0
729 243 1 0.4238 -0.11895147023268038 0.3606288661699111 3.0445540466139183 -1 2 1
1014 338 1 0.4238 -8.757720842581644 10.598674184884354 3.560849778468846 0 -1 0
937 313 1 0.4238 -11.995551926982369 10.017356036998551 7.653017291930315 0 -1 -2
529 177 1 0.4238 -3.6584334601817474 7.787205062337273 10.21405676933879 -1 0 -1
959 320 2 -0.8476 -3.5368638282861227 11.938202452217604 1.2686455630508282 1 1 2
652 218 1 0.4238 -1.7191325168740423 8.079757623260479 0.2743442370314682 -2 -1 0
58 20 1 0.4238 -6.475380550170625 11.020914018278829 7.767609571439457 1 -1 2
172 58 1 0.4238 -1.1178134642296893 9.891753354782823 5.13406331876699 3 0 1
699 233 1 0.4238 -5.080045322902522 7.201302450463894 6.080508863833093 -1 -1 -1
50 17 2 -0.8476 -5.183355296826068 10.323962820564118 5.053397168419877 1 1 -1
1444 482 1 0.4238 -3.334768617193639 7.330454151443126 4.883708344524707 0 -1 -3
697 233 1 0.4238 -5.525807706775037 8.709258088936549 5.640090935172277 -1 -1 -1
1445 482 2 -0.8476 -2.804948618229181 8.012110170280328 4.379102792551649 0 -1 -3
1446 482 1 0.4238 -1.832419741210316 7.785960554162353 4.434193113899086 0 -1 -3
51 17 1 0.4238 -5.956517326312327 10.65384309681894 4.511741157151121 1 1 -1
49 17 1 0.4238 -4.350964615058615 10.800789203744829 4.77098993892393 1 1 -1
653 218 2 -0.8476 -1.1976099357956862 7.2303555145419605 0.19358727060903272 -2 -1 0
958 320 1 0.4238 -3.531785604886604 12.233545411612353 2.2240186213283155 1 1 2
59 20 2 -0.8476 -5.480173386170158 11.04908212893812 7.674014058092048 1 -1 2
8 3 2 -0.8476 -3.4509319739819055 12.33678104313375 3.8471646763943634 3 -1 2
1 1 1 0.4238 1.1354840024594193 9.473087048431251 1.3349572725494399 1 -1 3
173 58 2 -0.8476 -0.4038732349226013 10.509005596399069 4.8034881557297355 3 0 1
501 167 1 0.4238 -2.9869395976776545 5.012827231341925 6.955218628422897 -1 2 -2
960 320 1 0.4238 -3.526087918583194 10.939067996719325 1.2285798792312281 1 1 2
168 56 1 0.4238 7.734793684858124 5.50916320089325 9.95084487629658 2 0 0
1021 341 1 0.4238 -4.267869200293715 12.173452358470142 8.916327211516109 2 0 -1
1493 498 2 -0.8476 4.175880298701413 9.773584690030924 1.0968087216285822 -1 -2 -1
2 1 2 -0.8476 1.5608772852502142 8.684950502640186 0.890128330552062 1 -1 3
414 138 1 0.4238 -0.3088312987980686 10.308012675489925 2.934909280763277 1 0 0
439 147 1 0.4238 0.3299403090527786 8.083618390146684 5.996546528355565 0 -2 1
441 147 1 0.4238 1.127227725646149 7.054592040427805 5.010625667656307 0 -2 1
1385 462 2 -0.8476 2.1125280969268676 7.704124816722997 3.440082264343672 -1 -1 -1
1384 462 1 0.4238 1.7126851399248828 7.998426524393656 2.572036566559396 -1 -1 -1
1271 424 2 -0.8476 8.821457118985398 10.114774513132838 11.579533148290425 0 -3 0
488 163 2 -0.8476 1.9495512913592972 6.778551838101164 11.17767289604466 -3 2 -1
617 206 2 -0.8476 9.351354670658639 10.703992191901952 6.7147617068637615 -1 -1 -1
453 151 1 0.4238 -10.888507281190579 11.848552601650665 10.432747707598145 0 -1 -2
44 15 2 -0.8476 5.564235782993569 6.991017296607948 3.4105967552422882 0 0 2
1386 462 1 0.4238 2.9991760390580193 7.274154173148807 3.269871242728281 -1 -1 -1
308 103 2 -0.8476 7.706539060130803 10.356640652789169 0.6565174534207522 0 -1 2
3 1 1 0.4238 2.5519931602177 8.81432661962476 0.8594162754982693 1 -1 3
1492 498 1 0.4238 4.100784659968857 10.742730491444648 1.3315601575317928 -1 -2 -1
413 138 2 -0.8476 -0.5362777577902555 10.234997726455356 1.9638639072680186 1 0 0
1308 436 1 0.4238 5.57078166657792 11.038957805774578 5.573153825032891 -1 1 -3
43 15 1 0.4238 5.8227486017631325 7.92986363143091 3.1831555282548907 0 0 2
440 147 2 -0.8476 0.2879200581951231 7.197409806478484 5.535179370266001 0 -2 1
1086 362 1 0.4238 2.457271126455037 0.13188753181023571 10.038544447295068 -1 0 1
1183 395 1 0.4238 -5.97309951389668 7.115144543114601 1.494482846305572 -1 -1 0
1226 409 2 -0.8476 7.59810354326884 8.665706054269362 9.277725841529406 0 0 -2
810 270 1 0.4238 9.12710639706364 6.196942580504034 0.051358108391537406 1 0 0
559 187 1 0.4238 3.701585948558007 6.291492847014117 11.194222446539426 2 0 1
167 56 2 -0.8476 6.897259531739143 5.9662719842821215 9.651545605869124 2 0 0
527 176 2 -0.8476 10.143683486834751 7.530309325856303 9.635500655062586 -2 0 -1
412 138 1 0.4238 -1.4833010647139915 9.92930585284361 1.86542133603428 1 0 0
1209 403 1 0.4238 10.894860445012744 12.117272010299056 2.8769532052950626 -3 -1 1
45 15 1 0.4238 5.5586701221260295 6.878234308875799 4.404196193268451 0 0 2
315 105 1 0.4238 10.30352406245004 7.683927710369668 2.640230922587445 0 1 1
26 9 2 -0.8476 7.98737724604201 5.6622755440543155 5.659010125738801 1 0 1
1208 403 2 -0.8476 11.40103532216345 12.148889922447532 2.015107404633233 -3 -1 1
1494 498 1 0.4238 4.842316561342754 9.659779357870038 0.3599895903158673 -1 -2 -1
1153 385 1 0.4238 7.586683581228504 11.700648491290705 2.9088826260752776 -1 0 -2
1306 436 1 0.4238 5.756180042245868 9.749756905450505 4.58817133788371 -1 1 -3
1229 410 2 -0.8476 8.98949829158265 7.630165605998384 3.8604348237533594 -1 2 2
1230 410 1 0.4238 8.466790642334507 6.994736135794026 4.428763037974578 -1 2 2
1228 410 1 0.4238 9.73985426845063 8.016925249885217 4.396507431828981 -1 2 2
1352 451 2 -0.8476 10.790599683916833 8.925737060617594 5.413565511497317 0 1 1
418 140 1 0.4238 7.0120436421598225 9.685387920201089 2.358313088119973 1 0 2
314 105 2 -0.8476 11.014102764380697 8.151232702237829 2.1142119891102094 0 1 1
313 105 1 0.4238 11.512974050519619 8.778773432371041 2.711967594128044 0 1 1
1351 451 1 0.4238 11.412050358901022 9.368059122978986 4.7669271380413845 0 1 1
419 140 2 -0.8476 6.852581388344538 9.187680862633139 3.210868243236509 1 0 2
420 140 1 0.4238 7.624782267821194 8.57821996834952 3.3904625335867014 1 0 2
1353 451 1 0.4238 10.544570744876873 9.572816835990915 6.135194543462789 0 1 1
1307 436 2 -0.8476 5.320576004001522 10.08222583646734 5.424654695372797 -1 1 -3
616 206 1 0.4238 9.125979161995689 11.363158412973403 5.99733811877748 -1 -1 -1
1207 403 1 0.4238 10.768749400400226 12.014673101634239 1.2520927601948355 -3 -1 1
840 280 1 0.4238 6.635930038283979 9.204952054744075 6.41903610403772 -1 -1 -2
1191 397 1 0.4238 -4.322916330558829 3.1620166279410196 0.6254553534864964 0 -1 0
25 9 1 0.4238 7.439019651212545 6.342033528723688 6.146066431956233 1 0 1
104 35 2 -0.8476 -11.352400582304469 7.382601060716352 11.981879002328983 2 -2 -2
1123 375 1 0.4238 4.2145310623940535 8.523691851357045 12.2174557315214 1 0 1
1454 485 2 -0.8476 12.205766823264161 9.611560356877336 9.15117102216409 -3 -1 -2
275 92 2 -0.8476 -9.61988137335958 3.7644727638072712 11.350227205815727 2 1 1
1124 375 2 -0.8476 3.4650635621895933 9.059007593929413 11.827935093442443 1 0 1
566 189 2 -0.8476 -9.312730881328976 7.301425810394507 1.320336728532197 0 0 2
183 61 1 0.4238 -8.982937780290444 3.8050239238787125 7.238833081397233 2 -1 1
981 327 1 0.4238 -9.137019754594519 2.628332555044839 8.621571278903746 -2 -3 0
980 327 2 -0.8476 -8.435756476852063 3.2781480240201955 8.914761477447637 -2 -3 0
979 327 1 0.4238 -8.665309875732431 3.629232253385114 9.822525734676814 -2 -3 0
276 92 1 0.4238 -10.588432427136013 4.011177976710984 11.318019875249936 2 1 1
1364 455 2 -0.8476 -8.018389231934128 0.4664546644905574 11.267012762101412 2 0 1
1363 455 1 0.4238 -7.98205610780105 1.078404596473204 12.057068657890943 2 0 1
1120 374 1 0.4238 -8.252004762502324 4.671692941050141 11.585284811850656 0 2 0
194 65 2 -0.8476 -12.077343977661286 4.816984941086131 10.858115279784496 1 -1 1
1365 455 1 0.4238 -8.292782057356247 0.9842304287294752 10.456699025546557 2 0 1
195 65 1 0.4238 12.409791853291198 4.5192873204558754 9.965155780547096 0 -1 1
531 177 1 0.4238 -2.764938136240298 6.456827560646351 10.52768673315613 -1 0 -1
455 152 2 -0.8476 -12.014773158251488 1.1268467529446404 9.651108368106032 0 0 1
456 152 1 0.4238 12.102487783147533 1.7388257830915599 10.00454497052832 -1 0 1
1217 406 2 -0.8476 0.46234254372632755 12.276541363847455 0.43548457879527996 1 1 1
274 92 1 0.4238 -9.4669907290709 3.1103777877552403 12.091021563745823 2 1 1
471 157 1 0.4238 4.880969103915371 10.265418023019764 10.692074991927198 0 -2 -2
561 187 1 0.4238 5.299841447496382 6.312159422420892 10.859923982113028 2 0 1
1289 430 2 -0.8476 -7.369105611291241 0.5956886994953745 6.306098678030577 0 -1 0
1279 427 1 0.4238 -0.5198210383683826 4.35127141687911 6.197418038929707 2 -1 0
1061 354 2 -0.8476 -0.3599975179995365 0.7411805707553913 5.932491262884603 2 -2 1
1280 427 2 -0.8476 0.14230185360623793 4.567244060531147 5.479824818554879 2 -1 0
1281 427 1 0.4238 0.20460600966053377 5.559393615481836 5.371434705745691 2 -1 0
716 239 2 -0.8476 -3.0724867300963368 0.7755428001164155 6.7612552957463015 -1 0 -2
1290 430 1 0.4238 -7.4247703938058915 1.4020475393194562 6.894892273104163 0 -1 0
710 237 2 -0.8476 3.6136513028707125 1.0170270690948744 12.287810100711207 -2 -1 -1
408 136 1 0.4238 -4.909599781824588 0.6742682750099931 10.928329855405016 1 0 0
1387 463 1 0.4238 -5.36104914823085 1.2676685318652865 9.025138133862356 1 1 -1
715 239 1 0.4238 -3.5537810055424686 1.2303817744618488 7.510567364717641 -1 0 -2
1388 463 2 -0.8476 -4.7648907648839165 1.9431389320290808 8.591172837388163 1 1 -1
1389 463 1 0.4238 -4.719920165347488 2.7633157957560908 9.161506499314472 1 1 -1
753 251 1 0.4238 -5.662588938077375 0.6002813487882275 0.25713936483298466 -2 1 1
244 82 1 0.4238 -3.322138107595036 4.229520081901731 10.349067069457972 2 2 0
246 82 1 0.4238 -4.837430591186826 4.834030677745121 10.420185992091033 2 2 0
838 280 1 0.4238 8.267592774525239 9.194755404065253 6.483655199670795 -1 -1 -2
245 82 2 -0.8476 -4.249911989009648 4.152460744369703 9.983980149929687 2 2 0
1184 395 2 -0.8476 -4.980457525381313 7.159925336001498 1.3820216933759895 -1 -1 0
524 175 2 -0.8476 -1.0179072892399041 3.642174377536099 11.136888202349812 0 -1 1
525 175 1 0.4238 -1.0343737061543958 3.67406896384343 12.13623945845654 0 -1 1
654 218 1 0.4238 -0.27491484047758163 7.370321509242908 0.552800996422738 -2 -1 0
1060 354 1 0.4238 -1.2066207860542235 1.0370346739952012 6.374860111935085 2 -2 1
818 273 2 -0.8476 0.03147495028576408 2.051576650164593 9.025936295428757 1 1 -2
523 175 1 0.4238 -0.2657588976539582 3.056691863686904 10.834440645751855 0 -1 1
618 206 1 0.4238 9.766925306704477 11.182381683331892 7.488347802048498 -1 -1 -1
499 167 1 0.4238 -2.7704018729885895 3.4314550176472256 6.610290381045003 -1 2 -2
1420 474 1 0.4238 -8.957697771667458 10.918978419472454 10.142503798260476 0 0 1
1181 394 2 -0.8476 2.2839392395829474 3.1437249006275128 4.415933879448625 0 1 2
1182 394 1 0.4238 2.3381782625960437 2.218769761911785 4.792109039644161 0 1 2
819 273 1 0.4238 -0.24026657476343338 2.2638677896000594 8.087277716728908 1 1 -2
900 300 1 0.4238 -1.292093449744641 5.09239877422433 10.171625699044709 2 0 1
899 300 2 -0.8476 -1.9046190839149801 5.4870071354469925 9.486726060975743 2 0 1
898 300 1 0.4238 -2.1128697895012376 4.800044658846838 8.790518397433866 2 0 1
817 273 1 0.4238 0.8784763592595368 1.520094020691035 9.015618784263069 1 1 -2
1026 342 1 0.4238 3.4788796818278804 0.48270435514660015 6.086337804756292 -2 -4 1
829 277 1 0.4238 4.34920079618202 2.143516986124366 11.199863753348405 -3 -1 -2
1025 342 2 -0.8476 2.733500734487544 0.5247615884475305 5.421031477870856 -2 -4 1
1024 342 1 0.4238 1.85739279249748 0.4455777051307024 5.896590280644584 -2 -4 1
830 277 2 -0.8476 4.704560445498329 2.8530326565107806 10.59134187082314 -3 -1 -2
831 277 1 0.4238 5.115659274824031 3.584025425884729 11.13598705882352 -3 -1 -2
69 23 1 0.4238 4.65564843094918 1.409859267695774 7.813240103585658 -1 -4 1
67 23 1 0.4238 4.929833780896574 2.4983299456595596 8.9992653881603 -1 -4 1
68 23 2 -0.8476 5.002308657965115 2.3254467381996395 8.016997681831748 -1 -4 1
450 150 1 0.4238 4.761441781277616 4.188916777958811 8.029607495190897 1 0 0
789 263 1 0.4238 6.295067014570316 3.0877012134885593 7.122101962269089 0 1 0
449 150 2 -0.8476 4.879808327023744 5.181001698219147 8.071415264945212 1 0 0
1333 445 1 0.4238 7.649881972726975 0.5922220674012237 7.048288846463545 2 0 0
1334 445 2 -0.8476 8.228332761557533 0.30258117536376794 7.810846959870435 2 0 0
1455 485 1 0.4238 11.64724012066616 8.936687431765767 9.633442510567754 -3 -1 -2
345 115 1 0.4238 6.607127210317229 1.9561563737475893 12.349318334608386 -2 -1 -1
447 149 1 0.4238 10.517576629394808 2.6587891113855164 6.03528073288346 0 3 -2
344 115 2 -0.8476 7.4250792581564244 2.4900000660983856 12.134943734644688 -2 -1 -1
1194 398 1 0.4238 9.93976441069674 0.3141269079502962 11.724340281127946 0 -2 -2
601 201 1 0.4238 11.247124121353364 4.708456862535224 7.970750451499039 -2 0 0
5 2 2 -0.8476 9.305127446139368 0.14673918048993606 4.198570990096784 1 1 0
451 151 1 0.4238 -12.28930051039834 12.196739716800641 11.196387830274773 0 -1 -2
602 201 2 -0.8476 11.745855880370955 3.9884162924589486 8.45324344730131 -2 0 0
193 65 1 0.4238 12.054994794280395 4.630946309546635 11.555204116007848 0 -1 1
603 201 1 0.4238 11.704575774341654 3.1415943865591682 7.922979354181057 -2 0 0
560 187 2 -0.8476 4.603963302202496 5.989228521335393 11.501375717514204 2 0 1
1329 443 1 0.4238 10.49215882152746 7.193203089022896 7.916227540728329 -2 0 0
1456 486 1 0.4238 9.806735799254282 4.806813662479312 11.617557723978113 -1 -1 0
788 263 2 -0.8476 6.931941951936336 3.379614584590657 6.408542031761481 0 1 0
1458 486 1 0.4238 9.073101984652018 4.024232681499965 10.386317738921406 -1 -1 0
1457 486 2 -0.8476 9.301128104842997 4.922252921816694 10.762556687661592 -1 -1 0
207 69 1 0.4238 8.597689735739374 1.8658979513061045 8.739011242670408 -3 0 1
205 69 1 0.4238 8.004042447221147 2.316280135112482 10.192056761097898 -3 0 1
206 69 2 -0.8476 8.503994636110454 2.625189536417011 9.382974510951097 -3 0 1
445 149 1 0.4238 9.751153091200562 1.643072252200799 7.058763227792534 0 3 -2
446 149 2 -0.8476 10.643512165091243 1.9812700933722915 6.75991802380792 0 3 -2
454 152 1 0.4238 12.391080606677866 0.4427594522251095 9.054003717878166 -1 0 1
1340 447 2 -0.8476 -10.358721022434962 6.835860463109205 7.473174564976989 0 1 0
1328 443 2 -0.8476 10.903084565086436 6.734589741993256 7.128315508847599 -2 0 0
1121 374 2 -0.8476 -7.466601680219566 5.284727743269594 11.499720882476506 0 2 0
1327 443 1 0.4238 10.923039267222025 7.362442457047047 6.3502445350632115 -2 0 0
1339 447 1 0.4238 -11.322078677232836 6.834035605473831 7.741371623208529 0 1 0
470 157 2 -0.8476 5.829587093855798 10.47570113905992 10.455651757391864 0 -2 -2
1122 374 1 0.4238 -7.6535860174289025 5.969710946384735 10.79557185545009 0 2 0
72 24 1 0.4238 -10.27248125285982 9.405423759788766 11.446069439460958 1 -3 0
969 323 1 0.4238 -7.208511277078166 12.031140921440647 10.83250938746537 0 0 1
526 176 1 0.4238 10.008321872722133 6.618292331062312 10.022662142324764 -2 0 -1
1422 474 1 0.4238 -8.46598946593972 11.634358422525073 8.759370952899841 0 0 1
71 24 2 -0.8476 -10.098083851883676 9.70816688976444 10.509093833654388 1 -3 0
70 24 1 0.4238 -10.870510892035389 9.453477446521395 9.927302191777487 1 -3 0
1011 337 1 0.4238 -6.9070941096028715 6.792848430311279 8.612302951014554 1 0 1
1009 337 1 0.4238 -6.6654452326324 5.196935381333981 8.364775912073082 1 0 1
1010 337 2 -0.8476 -6.217290907637916 6.086460210491365 8.453626242087402 1 0 1
549 183 1 0.4238 -8.290259702286175 7.933443841277681 10.786864947942199 2 2 -1
548 183 2 -0.8476 -8.149841338694689 7.391179342405136 9.958479212442567 2 2 -1
547 183 1 0.4238 -8.96912385073898 7.437432823499021 9.38696547957046 2 2 -1
717 239 1 0.4238 -3.71481476871255 0.20367948617379206 6.250982877034034 -1 0 -2
856 286 1 0.4238 -4.576521396515532 6.410709635678446 7.718098192708256 2 0 -2
174 58 1 0.4238 -0.6354628679527341 11.449674864143129 5.051477075679531 3 0 1
1371 457 1 0.4238 -2.3403045472513035 11.674095777472386 12.007348483398985 -2 0 -2
577 193 1 0.4238 -4.3907976562326745 10.033589391125735 12.401220914066906 2 -1 -1
857 286 2 -0.8476 -3.835749448580003 6.752442810424556 7.139767543774396 2 0 -2
968 323 2 -0.8476 -6.29266379298907 12.262075401141479 11.160966783850435 0 0 1
60 20 1 0.4238 -5.223381679288286 10.752694993951634 6.754120805923615 1 -1 2
858 286 1 0.4238 -3.429458056111015 7.562508386942939 7.562510829609619 2 0 -2
354 118 1 0.4238 -1.297137891521201 10.073118698048182 8.405068766473477 0 -2 0
353 118 2 -0.8476 -1.968612573845828 10.598074539110156 8.928073537044586 0 -2 0
262 88 1 0.4238 -3.2367513896223343 9.434695061519188 9.15281710834658 1 1 -3
264 88 1 0.4238 -4.777489253557966 9.383890517098676 8.614163479762508 1 1 -3
263 88 2 -0.8476 -4.045262578711474 8.856229080490673 9.044754156364366 1 1 -3
1369 457 1 0.4238 -1.9823023667171888 10.578351174641613 10.850724015966552 -2 0 -2
1370 457 2 -0.8476 -1.967015296766803 10.762832585686985 11.833436451963326 -2 0 -2
352 118 1 0.4238 -1.7442458937414518 11.571217361216823 8.876658578729543 0 -2 0
1453 485 1 0.4238 11.615445149048712 10.327158424147706 8.777766360987071 -3 -1 -2
903 301 1 0.4238 8.861134761735537 8.959321582654683 0.23813101827308794 0 1 -2
88 30 1 0.4238 -3.7053460794020587 8.669896580437255 1.5154824052719025 0 -1 -1
1003 335 1 0.4238 10.293083771639752 8.816341034811169 11.968266093214085 -2 1 -2
469 157 1 0.4238 6.164478998520268 11.211610544454343 11.044103671124505 0 -2 -2
1270 424 1 0.4238 7.950196604234192 9.641223291785666 11.450516780915143 0 -3 0
1165 389 1 0.4238 -0.43831434185092455 6.370374295236411 8.765776186652223 -2 0 1
1166 389 2 -0.8476 0.5363568468591637 6.5651944808286675 8.875561639504278 -2 0 1
822 274 1 0.4238 3.271796231524819 9.510352725020775 8.554893147020268 -3 -1 0
821 274 2 -0.8476 2.903159879076121 10.092939166935393 9.279248810015437 -3 -1 0
820 274 1 0.4238 3.1634264651220434 9.721595132643161 10.170515203749721 -3 -1 0
870 290 1 0.4238 4.129104806568522 9.29261894036099 6.5024880454406535 -1 2 2
37 13 1 0.4238 2.9397093940348196 11.319047979415279 5.55931955342542 -1 3 1
448 150 1 0.4238 5.651257964486581 5.399749085274868 8.668915114683621 1 0 0
115 39 1 0.4238 0.5080432516263276 8.346782530510731 8.232111960369629 1 2 0
116 39 2 -0.8476 0.36486504412629017 9.287371180068268 7.924240521457321 1 2 0
869 290 2 -0.8476 3.5063166596561715 8.749191698659677 7.065349112766062 -1 2 2
117 39 1 0.4238 1.1946945681012426 9.821217489834835 8.086668325422622 1 2 0
588 196 1 0.4238 3.138213274238966 5.385448549572503 5.795591950306201 -2 0 1
587 196 2 -0.8476 3.443098858368293 6.2818773951575455 6.117229879926249 -2 0 1
868 290 1 0.4238 3.47670896782334 7.811421973889283 6.719368919874444 -1 2 2
489 163 1 0.4238 1.4963652811426407 6.424624397817402 10.359535516145579 -3 2 -1
586 196 1 0.4238 3.922587084480364 6.177971201100389 6.988599819948664 -2 0 1
1167 389 1 0.4238 1.0557686215541544 6.069859675704576 8.17925295555296 -2 0 1
39 13 1 0.4238 1.342847253490179 11.004576422629777 5.426120967802699 -1 3 1
38 13 2 -0.8476 2.020555648086189 11.686122434256545 5.70216175833103 -1 3 1
89 30 2 -0.8476 -3.254076579038541 9.296147688937468 0.8797494770736752 0 -1 -1
1225 409 1 0.4238 6.968558801412771 9.387022630439558 9.566459255837765 0 0 -2
166 56 1 0.4238 7.0930567887318485 6.927694085053366 9.458354788083062 2 0 0
941 314 2 -0.8476 -3.1834692059137524 1.6816851212521335 11.899198024219748 -1 -4 1
901 301 1 0.4238 10.32099231640188 8.227856904589702 0.25756720554134876 0 1 -2
1483 495 1 0.4238 -5.011445132319048 11.717463943677691 0.14370931537054876 0 -3 -2
1171 391 1 0.4238 -7.344646278069467 2.5019359470920275 0.2592449289880335 1 -3 0
711 237 1 0.4238 2.6959545102445777 0.6245124508524693 12.349094443790928 -2 -1 -1
942 314 1 0.4238 -3.8988122015591244 2.197870958578328 12.370183753689638 -1 -4 1

Velocities

695 0.00045445924100949225 -0.012502676458316828 0.00012313751821779514
93 -0.01346249020213776 0.004797159565888482 0.0015066548089999869
394 -0.0017925579351384107 -0.0036973509010166444 -0.0063927867541168715
210 0.010005923907689441 -0.0028135375215111716 -0.006613500131264199
634 0.0016779723100677718 -2.0439612188982056e-05 0.007963541627462998
1338 0.009355165126891692 -0.0056881623427607894 0.015157756344834626
209 0.004553642205464262 -0.0037955749148990887 -0.003052818042844964
696 0.013492155386295461 -0.005096799537645692 -0.001006978389639126
342 0.004056436518478923 0.00614022704110869 -0.014752434857209921
341 0.0031177017944980664 -0.0029549369902894893 0.0026647168777225653
1261 -0.011651557876215878 -0.0022056953583470067 -0.0008808383681925113
636 -0.006452389353215164 0.005601745962474957 -0.0025779788500466
635 -0.0030886632276468295 -0.0024294340871011083 0.0025713033237302627
754 0.005325609717497313 0.00327650582349898 -0.008950050950818305
745 0.001968875260097678 0.009783417529708148 0.01388663586335786
657 -0.022578941214426856 -0.010108001334273935 -0.014457767231618521
390 -0.0015873237021158007 0.002252088148577104 0.031328400499987606
1245 0.006466023607374991 0.0066540700636923186 -0.011739574969475275
1337 0.0005826645205517247 0.002685250369258967 6.65213595566652e-05
1336 0.0034606882017786922 0.007145254939861897 -0.014355992995210152
1244 0.001968350037005672 0.0015504208681254297 -0.0015237724441820896
694 -0.007374815690159844 -0.019457033792183963 0.004355675630693053
1115 0.004551583438053001 0.004308964372856132 0.00044087969118231454
208 0.019184308131712267 0.005766585725159096 -0.00817312589375961
973 -0.0006569401639964246 0.0021148665970734328 0.001964867618961295
1119 0.005696900765354534 -0.0054724889582244965 -0.02036333754562032
1118 0.0010955114598859615 0.0004794642478813967 -0.0019018948561175008
1117 0.0029612536177427437 -0.015365019475593279 -0.017233396452726066
852 -0.010205226335512543 -0.00036445418942546024 0.005890309897713025
340 0.024653349396852105 0.006893274967660124 -0.010207294985037365
823 0.012083804611245082 0.011906572432573563 0.011249145154488096
1266 -0.008067610074702298 -0.00042349968476244535 -0.014570989172744643
1265 0.0025658627859607413 0.0013932924218051643 -0.0033516462266246763
974 -0.0009137967609171046 0.0012872836665741457 0.0014762789910025042
975 -0.00182686512548185 -0.0013634528795848223 -0.0004892120973041556
851 -0.005191364205991482 -0.0036966238934213794 0.002593715133018763
1007 0.0016728455667305612 0.006955665656626545 0.003530465801646351
1008 -0.0020764217009423495 0.0018208061249398342 0.007658234502188647
1006 -0.007427421137926701 0.03000940042742556 -0.010098179786732933
291 -0.014349177576884243 -0.0022201866449513565 -0.016645835736154607
1150 -0.00334188383134077 0.012095759665310174 -0.01105469830524554
1094 0.002648529282222714 0.006907951133855288 -0.0009698294094877252
1151 -0.00023498645764751796 -0.0007963936939108965 -0.007142770399384053
763 0.00047647050693321307 -0.0017482353607765904 -0.013548121733637336
1425 0.0074034380471659465 -0.0006691004209690441 0.020013928431352315
1423 0.009557710475389482 -0.022326156421743223 0.0073199206203727295
1424 -0.006654000951634116 0.0004837823700582864 0.004101485957273937
1093 0.009284575571168293 0.016014089108004906 -0.019500509829196624
1466 -0.00046346358179164086 0.00174231705870436 -0.0012354285031440898
250 0.0006693868996382705 0.013291699767920112 -0.0031498545895553044
1054 -0.014744782630841629 0.01702931179198762 0.007216660569665952
1264 0.002884371231221657 0.0020643621775470753 0.00837885570485155
505 0.02128223840663216 -0.004515394529228826 -0.0099342303346905
834 -0.007234101573104731 -0.0032809482486548767 -0.007036120979523076
506 -5.097605167404199e-05 0.0002958694357625288 0.0024363445502179463
507 0.013908318188245518 0.004056889613837979 -0.011417501544777386
905 0.002059691405571244 -0.0028568150471406577 -0.004412999068648275
906 0.0017104039648717401 -0.005750358925746275 -0.02213971055682509
252 0.020090942613822195 -0.01992998287417562 0.011694933748345213
957 -0.01460772705739522 -0.0014024536998772437 -0.01877151842490014
762 -0.0039920156410676744 -0.0009181083927056919 0.000919850706103873
251 -0.0010773594295705384 -0.009976715283414376 -0.005318256312699121
1283 -0.004123493565104327 0.004513997261726609 -0.004892201659295201
833 0.0017142313756001945 -0.004851641477268655 -0.003861306485510378
904 -0.009926663190076809 0.005177469949371467 0.014872781527784288
191 -0.0011480494415847392 -0.0005836275104445609 -0.0025007694359440334
199 -0.00019896475721256288 -0.009802113248062669 0.026484093285719445
200 -0.001367130237744046 -0.000628193654007799 0.0025772947339181545
124 0.004694920029577194 0.00030605829219467324 -0.00563236260248154
1477 0.004859668951958724 -0.0006133984345091558 0.00534699150483206
832 -0.021419553127190842 -0.010018016981423057 -0.015180016072831063
1092 0.006168590027257039 -0.008934358717858066 0.00014276821335032434
186 0.009744396792096106 -0.004270762080462887 -0.005036060851108451
239 0.002299240084975452 -0.004149672592783859 0.0011154768879887136
1343 0.0021600418773244307 0.008619182018620776 -0.0014028529357710854
222 0.019943799500415842 -0.005821368255990496 0.0008139047986724598
11 0.0014622862621483407 0.0036022684816166316 -0.0011272521728372734
756 -0.00309904229757694 -0.008094700732763636 0.0008418830830598992
755 -0.0015993691580486347 -0.0011047701082278732 0.0028944321286164055
928 0.012087481788040968 0.01280791183994771 0.012424217565836875
649 0.0053245438151998175 -0.0013613398687643027 0.005096764991449108
320 0.006622592059430293 0.0013918696526325155 -0.0008931920697968441
219 -0.004714906113082868 -0.0035118887619272213 -0.01114255110548835
217 -0.007742988750563709 0.0005788370813614495 0.0027022511518104285
57 0.008664482687402204 -0.010957810230591393 0.006487262000486099
1379 -0.002394129122513685 0.0031958256387529275 0.0028812397411104515
1378 0.00421790480464289 -0.006446889303502711 0.007728112081535805
1380 0.00271966930072718 0.0044135688782693085 -0.00012860111399471213
1396 -0.004443375477768742 0.017202092249763514 0.0009332293757895627
216 0.003408216714199322 0.0004714276502164083 0.011592324253555822
1397 -3.7165940784881876e-05 -0.00529416545911773 -0.005702194032101781
576 -0.02337694653943608 0.000684647415606349 0.011923893307830377
218 0.0012465985640202346 -0.0018731711583793817 -0.0035204178845467935
280 0.006546859604337471 0.003218626308264387 -0.0035196158885967966
281 0.010666179404958748 -0.005428695833291599 -0.0005255681215857335
325 0.00936848658978437 -0.018345089047695558 0.024638045592413414
575 -0.0006754795676433891 -0.002402461392543372 -0.0012558279913168775
122 -0.0001306066033189877 0.0017604078925716735 -0.000555545060716781
837 0.018988768392733283 0.009960684586598675 0.014011742974436506
1056 0.001028527512662166 -0.012300125219793104 0.006637834231301895
290 -0.0033984078630714923 -0.007783162605374244 0.0016425344498030906
1055 -0.0020908220749437287 -0.002633447528259754 0.004786278101766962
366 -0.0020981747085154537 -0.005959247963843283 -0.0009515330749401544
643 0.02569115443092856 -0.0185979417415141 0.012148684726875084
555 0.0259092114361543 0.017831724150648376 0.0073497711828752685
34 -0.0016348991575210283 0.006487872302723024 -0.008511130883832728
35 -0.003114968368079801 -0.006929968395111625 -0.0006144834971470615
36 0.008940318639702917 0.0005962671132717982 -0.0022910392496199123
1129 -0.0037631549664729536 -0.005381684975329114 0.0158855192728531
554 0.0012805660355942898 -0.0024133946051565222 -0.0033405560461488315
553 -0.00805404408452869 -0.0026297532905372946 0.00787047863805987
785 -0.001049807110534701 0.0019556544887930597 -0.0010874976616914369
399 -0.0041162876022928915 -0.0050617065693857825 -0.006945575974974831
289 0.01989270603936049 0.003269342179666486 -0.01920914787735124
364 -0.0006966470044414483 -0.006351074770875624 -0.0005478185994509766
365 -0.000174470502340232 -0.005884304918984951 0.0025213435168358342
397 -0.011430780058000476 -0.0045778285373523075 -0.003782446661784479
395 -0.003314212346116971 -0.0028590229180400772 -0.006005532647580803
1262 -0.004692528322659246 -0.0022321744433112423 0.004048222584493398
519 -0.015960465141439176 0.004753041020175163 0.004015422857138956
1355 -0.002755686389885792 0.000780283872907668 0.0012735450187066348
458 0.003134454325205771 0.001676948716613251 0.0006064209349286126
783 -0.004325347711533449 0.007958891180624641 0.0006230880619029096
1020 -0.003972691322115614 0.004888159000478374 0.003936777417576947
920 0.0013418821955460615 -0.0021761464666682985 -0.006477157895021442
91 0.005181474237251555 0.008463415736500904 -0.012346304240242563
1152 0.005141915827590807 0.008163382705449411 0.004598694771632682
1019 0.0024058286633634645 0.0016750779747909364 -0.00025607879200336217
1018 -0.004648947009521032 0.00850287791144604 0.001952605716173549
463 0.003920058557247134 0.014577233392303053 -0.014716277782060716
464 0.003149203132246034 0.003133420901994752 0.0011725277933626302
1144 -0.013970420999848177 -0.0029954994067728003 0.007307733531828765
465 0.0073366863493539575 0.013426498312458549 -0.012242400925131333
1282 0.0016597115459328648 0.004237442640342468 -0.0004485074573123848
1116 -0.0026386752004931733 -0.00018202853880817016 0.0032687590872000493
804 0.010283900660900451 0.006111569899324094 0.027697888570079293
94 0.005128625067450111 0.006704053296918022 -0.004973754531522486
96 0.0025011808505143447 0.006093679499172571 0.006179613485581377
95 0.0031173878542499946 -0.000985248786106058 2.3482915781103554e-05
1051 0.013375518902739532 0.011349990419921737 0.005422714399990551
1053 -0.006422862839880658 0.011097722347826612 0.01114856707333824
1052 -0.002029879371974236 0.005729912952652737 0.0005162173394092872
369 -0.0010284530039615053 0.01911527587419222 0.005372366746167964
1095 0.0011903515060583876 0.022692968631841875 0.013748485640008412
185 0.002332190810108427 0.003367831823760592 -1.8832502058236363e-05
1188 0.0010123879338910715 0.038581554784411005 -0.016752294348306482
517 -0.004445944590689637 -0.0037713843782283896 0.0012363526195871988
437 0.0020221156353243197 0.0037164922763151262 0.001890947033515169
1199 -0.0016315190754762083 -0.0016104692235127845 -0.009983822774463628
1243 0.0009335186233785133 -0.015923584279977043 0.0008451420581259937
1198 0.02398400107660188 0.006296356761166728 -0.021597960558719695
1200 -0.010755839989254884 -0.008087053622627351 0.0077265552876547615
150 0.007274469473938626 0.026927783394643644 0.03044784466189501
192 0.004277115803686787 0.0015264563211149025 -0.0033442591111427253
318 -0.029284956824018243 -0.006919385060489385 -0.031750414863561366
317 4.6576763417059457e-05 0.0010088512851060471 -0.0022456486948346298
316 0.00573173917336782 -0.023492313031670122 -0.03290018052252323
81 -0.004694919610844954 -0.007748109528390831 -0.0007890618782740702
372 -0.005453490200291853 0.0068948404870047405 -0.01061779392594636
371 -0.00197529517049843 -0.0007190591874512347 -0.0015440306008298107
370 -0.0020678515803239247 -0.00031353040335843385 -0.0021657825588795795
149 0.0026551877546008022 -0.004677788734637998 0.005766280540478561
148 -0.022824978982634473 0.002447940323144054 0.00028675156588626744
1091 -0.0035018923641437086 0.0008071853097418523 -0.001528642279545185
1418 0.006991517379449862 0.0003834969196055502 -0.0004853887367491895
1090 -0.01250887495307386 -0.004365458347832025 0.006690840051491354
1417 -0.004541459541916798 -0.010236196124546402 0.006839869013556965
79 -0.005994092551785728 0.005797039802102124 -0.01291933593107202
80 -0.0013706958462424434 -1.5962065724538812e-05 -0.006578406243054531
389 -0.0035735847976431858 0.0007368608406645566 0.0023843045235364107
1395 0.017901906527842328 0.009357482433897361 0.021875148275010307
946 0.02131329187978917 0.007419780182990151 -0.012086902828258406
398 0.0037485702281972576 -0.006030152983116212 -0.00390760089114634
1187 0.0011707206071609412 -0.007896851083280877 0.004253292787735924
947 0.006685192274720182 -0.0012048840919876695 -0.003697651661394741
871 -0.022174393018308224 0.018938242146330626 0.011909214692452026
872 -0.002371904693154523 -0.0003679061341894935 -0.005900042623402183
1393 -0.019014398065319908 -0.01942611704545386 0.008506099027925965
747 -0.0034592234930658403 0.005459307748878016 -0.007152424669739011
1394 7.483350371849012e-05 -0.001908152183120968 -0.0012495090784237666
300 0.014089373004346796 -0.0132783315399705 0.007125357410994786
299 -0.0031947889044770554 -0.007284223840294532 0.004507664369667513
835 -0.04893303581998808 -0.019093558155555763 0.008013671264961558
1398 -0.010489114758257912 -0.02272162289430278 -0.015633829332015983
1221 0.019311102012404893 -0.020312059329656445 -0.006352384305127188
1220 0.0013824607402094687 0.0009080828204613323 -0.003013078467924916
298 -0.004174795964451942 -0.0002120629765485246 -0.009938717851603768
1219 -0.001988299132576669 -0.003201200282686214 -0.023276686476102183
803 -0.004687152286421745 -0.0020018839479840162 0.003638706385159352
836 0.0016520950261264993 0.0020482838434755027 -0.006477926853684759
1028 0.001508985160895646 0.004872767242862553 -0.003846069912726546
1029 -0.009308266800025049 0.010655629502973472 -0.01087312848050281
1027 0.00564797552000956 0.01112722105222098 -0.006796614640333783
56 0.002654994850810342 -0.00011228712942339112 -0.002125557366577792
570 -0.0043201149522864085 -0.005990044663167866 -0.021787042499102596
948 0.01021537747020022 -0.004708242555766443 0.012956528460235272
282 -0.004028189590606925 -0.004079336791156208 -0.005168665365384868
873 -0.00308665371152373 -0.010023043688072792 -0.024191027808197072
1131 0.0007496963409369314 0.010143844001097743 -0.02033156191629612
125 -0.0026731156399049695 -0.006461136931306485 -0.003678067821618756
824 -0.0009513668548084832 -0.001112386812432434 0.0003306351346796388
1431 0.0036260731348769543 0.0027986666375057474 0.003512178352637663
1462 -0.023471983072853583 0.0028406678771180985 -0.016144129104741785
135 0.011595371520006555 -0.013202142064902474 0.007196409326652603
134 0.0009949259155190527 -0.004812400557561959 0.002171969292125905
795 -0.010269359806373111 0.0024177232952732994 -0.005844930800947531
133 -0.008256029353051106 0.00199608742085024 -0.001555963901959578
793 0.0004934338957130026 0.005431715258222392 0.018119356549772366
1464 0.017759430343645882 0.02818142898183035 0.009788699635698698
1463 0.006289665921853945 -0.004886545114915089 0.0011979352554947105
794 -0.002064423109987219 -0.0004942314650631132 0.0024489223610375983
293 -0.00109815279208952 -0.003972637893582316 -0.0011457230348737965
294 -0.013183230860837877 0.006517056788901033 0.013654711862038009
1146 0.012935166507508474 0.008119793276107932 -0.011414502689949266
766 0.010470353625565268 -0.0059193902818586285 0.008739592812163185
767 0.0006894176640508113 -0.00040715249518567424 -0.0014743040203625112
964 0.010349661844158378 0.0400870030216787 -0.002850723572756666
965 -0.002646993614310244 0.003232343300219445 0.00802465867523698
184 0.002493121525746556 0.013427642859754146 -0.008716403610793018
85 0.004938154284745189 -0.004018838190883946 -0.01161346801953932
1145 -0.003986485052214299 1.613573408625348e-05 -0.008402117167484043
1356 -4.630968675158424e-05 0.024049773104371338 -0.01207173632651706
238 0.00030138161666337285 -0.0031243182498173734 0.0015739371484848356
87 0.007139513565691045 0.02163794923911276 -0.0011276771736740178
989 0.0014605727682893799 -0.0035578674834961734 -0.005686542389644741
768 -0.01003480568771766 0.004056387948846585 -0.011492473921951466
850 -0.004146248246531439 -0.005937068347874178 -0.011076190774185573
1160 0.003983476472474076 -0.003539579465611494 0.002619129063578949
1161 0.0004105850218570357 -0.0014605218075212096 0.020619796618154843
966 -0.008849878307902239 -0.015016328661780829 0.01377205064071981
1159 0.0036844863574466737 -0.006075906645621129 0.008652292791350494
988 -0.00788512979957774 -0.016321888691488796 -0.0028077792791589644
1375 0.0004922759370951001 0.021654765691284057 -0.002935595605015584
1376 0.0022315088349884435 0.004548005020916867 0.0031844459508150835
689 0.002105577815130379 0.0038200611749187215 0.002617472609129358
1377 0.01892058737645793 -0.008550418939971226 -0.007641316420185652
690 0.01865748537945826 0.005535547862623813 -0.007097614805065171
677 -0.006701382960637043 -0.0052306612933585035 0.0037105022560471497
1130 0.004585872461415553 0.0009219744119560628 -0.005697117824466687
1186 -0.006858786779267186 -0.0031174730058536504 -0.007357260364009019
1344 -0.02482763761833384 -0.002671986125961743 -0.006943041140678041
678 -0.000562260040369746 -0.011524058888997147 0.013564126740479
990 0.01067214538146175 -0.007457804799324455 -0.015662324854858696
630 0.00589747008138856 0.004084152880950791 -0.015149814899799703
126 0.009276079905722543 0.004614756719278389 -0.006625999884427815
1471 -0.006034461297975425 -0.006035348231376118 0.004425522200836635
1472 0.0012581766424458495 -0.004536031029583202 0.006995915120582801
676 -0.0038397031076384215 0.0049070322393721605 0.0033108384806325815
629 0.0006567602391862102 -0.000513590213209704 -0.0016071532768879506
1255 -0.014963148423018973 -0.004929830104316828 0.000785413064665812
416 0.0017486463839040784 -0.002990235091375132 -0.0004088072364262589
270 0.005508766450282683 0.0011523121641406008 -0.008499823315960055
269 0.0006527103922479346 -0.002682900396846293 -0.002212465172917901
268 0.030863638546571582 -0.010213213537225272 0.0014022537573975665
417 -0.017428462523092613 -0.007803415612817822 -0.007356053474913444
1401 0.011282290758431941 0.018616039831709986 -0.02328790738793086
385 -0.005907252627877386 -0.0004866974064287937 -0.0002724603380802251
438 0.0005217433683559924 0.003133296615760631 0.0015397038678212156
386 -0.00546254762141222 -0.0011593969791907797 -0.0002846006633701187
197 0.0030108956664608396 0.008570836414971842 0.004232010526767537
387 0.008096392752398077 -0.011093026788071197 0.013926351829644473
378 0.005366461416649989 -0.006013625210271126 -0.00952738281329046
545 -0.0008604963390350693 -0.004428111344252928 0.002520637720692054
544 -0.011916387653212504 0.002660362586260396 -0.01631355643252799
198 0.0038612359339175273 0.02122002560177689 0.0031271118946484783
240 0.008418647482522983 -0.0063951727574621245 -0.0016790746240331633
574 -0.0012452509677247133 -0.006442970194909198 -0.001555449178550324
976 -0.00273540563228033 -0.000437425732834809 0.0024696472755842964
655 0.00014343211125262525 0.0016176151667935362 0.004003973802808862
319 -0.018438187616171223 0.03625995452718483 -0.004703258385124767
1429 0.0034386947222507596 -0.002535062455219501 0.0014281348607666745
1430 0.005645103475460828 -0.0014833641892879176 0.005225541902164503
1240 -0.0007889549888153254 -0.0005320064134327779 -0.0036954328820081837
109 0.012350346997495305 0.01796538037219593 0.0034811794394094286
110 0.007558257934344872 0.0009144427284805505 -0.006354279041349541
656 -0.004251126367295685 -0.004272003816135727 -0.011740105885609026
1400 0.0075984273195854385 0.0027646205690354557 0.0016899361945267445
1399 0.006492030480217135 0.004182157480035222 -0.002634227944203275
377 0.000526319654786186 0.0034324513479351716 0.002628758034867998
376 0.008595533778421005 -0.011758271287403104 -0.004577450103441025
1242 -0.0037979128051871753 -0.013831367442883762 -0.0002082792134225932
1241 -0.0018711098122540075 -0.005482862939455878 -0.002268290098946785
86 0.0019271133643838081 0.004900753529937553 0.006628915257299794
111 -0.003144171750844879 0.02051075624494346 0.0035979056739255002
978 0.0002915717704685946 -0.0028544282453604095 -0.00046794044605179757
388 -0.001568707326497238 -0.012524350310833926 -0.004391845386573127
977 -0.0029318796341490246 -0.0015869809657701823 0.0006314552549150845
784 0.0051877356679548015 0.0031185426662422382 0.002063343203977166
1104 -0.004128741367068943 -0.011770389949766867 -0.003016041354878938
1354 -0.00838492072401052 0.013702548031986889 0.008833395534466647
1211 0.005103216584313616 -0.0026192934526695633 0.0005550585294002564
1212 -0.011322794158583305 -0.008163069151399686 -0.01761926452524783
1210 0.006284453381887855 -0.021411612826036312 -0.0029346889994519496
741 0.0015724270330943011 -0.015072297019345553 -0.013397275747556614
1320 -0.00020717359709470436 -0.015160786125084974 -0.01001511790970403
214 0.00023262082872692357 0.016649305217210718 -0.012504997163578438
714 0.03566307979679506 0.017387372894793304 -0.013153628503125873
644 0.001966820472097506 -0.0009769519410207552 0.005573752895989242
215 -0.002725316191790101 0.0016203918708500736 0.00045201820004065455
1017 -3.544241702073466e-05 0.0023028319519938964 -0.0012321279757136192
1016 0.005745210840711276 -0.006475141881689657 0.005323803296699823
1015 -0.0005568232461075342 0.0038596002544718454 -0.002818163305673142
1442 -0.0007321882475982114 -0.0007804228491426305 0.0009204774725911498
1441 0.0008881983202781692 0.0011688931822328443 -0.03448287511047943
1443 0.017241179384789782 -0.015321663078299118 0.022076562424951436
322 0.013752195735041417 -0.001629059478804977 0.0009329402287706472
324 0.005469167415060659 -0.0058042242836289434 0.022918022607995473
323 0.004624797664999579 0.00031113821597499996 0.004230484174377788
82 0.00022900356620279638 0.00015328362765457322 0.010264365107751222
83 0.0028445495365818554 -0.00027881448948591394 -0.0034751437387560646
893 0.0037110805478109367 -0.001842554710366772 0.0033616445964880144
429 0.00047365049696343535 0.005358218698660503 0.012015707209001353
782 -0.004746266166589765 0.003910656623792008 -0.001303161453640754
114 0.014622903061641672 -0.002101478393738419 -0.0012187587651374789
739 0.0022752774154532027 0.018050021669690653 -0.004319651123216205
740 -0.00245304522544687 0.00313323990005153 -0.004539949898360278
877 -0.00022444657962583387 0.005862987518552206 -0.007084382278226524
321 -0.015894879583743762 0.003268742531253301 -0.024570419228198578
177 -0.0013747270684800158 -0.010810843922179653 0.0009556477930505969
422 -0.0028990483408799605 -0.0018181265543892689 0.0022877422211885277
888 -6.162696314382638e-06 0.006370442840160805 0.010278708543390887
688 0.0016380696866004798 0.008101439282881885 -0.008314749815647497
175 0.0005451405732889473 0.019936587197711225 -0.02297818159907519
176 0.00137669375292199 -0.005213131069256509 -0.00638310437460982
231 0.00698331604679051 -0.0018654715950600334 0.016704347074769865
249 0.007937949772080176 -0.0005482188640395394 0.008723034006326241
247 0.003096866422345718 -0.0012994853196830589 -0.002295660383432806
230 -0.0007555803741061203 -0.0003449890876606154 0.00026020696113496835
229 -0.024045955528726192 -8.176987867706964e-05 0.004146132324784578
743 0.0036331987283289044 0.0033175151687093226 0.004821249366751207
744 0.010304347742132349 -0.004592997230220837 0.018997813935530537
248 0.002817057695494848 0.0022148607609663046 0.00036497983167018853
221 0.005279444706028524 -0.002726364865037225 0.0037123050352218735
84 0.024132492284720197 -0.013663380265736243 -0.007255771080693699
568 0.007756700511462229 0.019119624660031302 0.0013093426522979444
825 -0.01639384484702318 -0.0007666734053063114 -0.016549529608122917
1332 0.002203479100412553 0.00033236055068493236 0.0028220825493491153
1263 0.000585104588776353 0.001943019645093504 0.00399238542308907
863 -0.010701641202413825 -0.0057340479749072365 0.003506942346698417
436 -0.012508669394129231 -0.008674428823338402 -0.00263536423593235
196 -0.008699482021574747 0.010362586689669037 -0.0011325294415547942
746 0.00328531390071435 0.007074541876455514 -0.00021167413210859947
1287 -0.0070639384468504955 -0.007292980493541691 0.010323962736407328
802 -0.003686116348157878 0.002436523559354457 0.007738995955699701
522 0.0054560864890583404 0.005225789684756075 0.009234385303711826
521 -0.005445277002566733 0.0013496408319452586 -0.0022572320541865225
349 -0.005342541937434163 -0.014565291752883921 -0.0032405976570086016
1342 0.01174826658923818 0.013675144398165792 2.5827032153015437e-05
428 0.0009529871876099846 0.003104351955107742 0.002871472446272632
350 0.0028187207027235033 -0.0018085311022690343 0.006709210820367323
1315 0.0039160747808718 -0.008123409160689104 0.017039259517267723
1317 -0.03032585313570557 0.007397001495090403 -0.009367477601526532
546 -0.01737953113984348 0.021346847854331254 0.016414340657032685
1316 -0.002698118835933129 0.006011664693288575 -0.005159271586791513
351 0.006877046017266102 0.0018011951051011882 -0.00938390391881261
1473 0.006035678835307268 -0.009043324797407227 0.018113034979630665
1419 0.006725376505855775 0.017871795642913482 -0.05432904564745461
627 0.000735786555601306 -0.012113813750833051 0.01842511039162665
862 -0.01028637861278345 -0.009461901719549503 0.011785906963341716
1285 -0.004864354888110343 -0.014080207088466742 0.010749045295352465
626 0.0022280548282476303 0.005875115889860206 -0.003475986224392037
625 0.018655678883363037 0.021504210250655003 -0.004798971726367603
1286 -0.008022712711561675 -0.0015961668342994685 0.012576791614990927
121 -0.009589261447415466 0.01085467358247594 -0.014305994434391196
892 0.017394101856622393 0.00796633498757394 0.01262669268630239
894 -0.014313658721780706 -0.0125753864694296 -0.005551940943956793
12 -0.00731675485122997 -0.009800418918445212 -0.0018015166165749705
1465 0.021212932985825446 0.0018482117212019489 -0.001943358832402299
569 -0.002198270827928165 -0.0010912968763866823 0.0010854712374049134
1467 0.0015786549236897153 0.003674576748085474 -0.003362768233693068
427 -0.00519463344213097 0.008181000100053593 0.0010863952938429172
123 0.0015802401335703418 -0.0013923358576612976 -0.0030960663931658768
518 -0.005488376347183256 -0.002827736363994356 0.0015809419332503364
1298 0.004742390400226805 0.0001385514558598223 2.023257730687296e-05
1299 0.0013177439120409381 0.003951077698332021 -0.018557852668482595
1297 0.010280189645569301 0.006102125617592039 -0.005887483702050285
628 0.012789753196957356 -0.0143825803293302 0.022537583150810236
421 -0.012561046091384559 -0.007563959013218733 0.003346861740040853
520 -0.011347895449285349 -0.004078858440270407 -0.014227688512038662
1112 0.0031513239198969188 0.0011989885211795273 -0.006057922947080398
1113 0.0042575800585192055 0.0005706491688451441 -0.004718863635569667
498 0.0004099956040864311 0.010278331737805341 -0.001192662778942018
1331 -0.0023372024574997395 -0.00019348195420874255 -0.0018086939750317312
54 -0.0020200205610966505 -0.0020683911048733844 0.001967193151894412
279 -0.03006221575757686 0.006428667787053008 0.010039156270576237
278 0.0021946202360916688 -0.0033936498806862894 0.0011074228240173791
277 -0.0065820574848517 -0.0052581223456928915 0.0002344364728642644
1326 0.016954857619536967 0.03336333274832972 0.005913827540867351
1072 -0.00601078653610166 -0.0015993256563029015 0.025688863005545043
667 0.0015558796241819724 0.005966653916150271 0.02297465336460413
889 -0.048628753167978704 -0.008652933682202279 0.00927650930131506
295 0.001049872162083676 0.002680690660774946 -0.011554620821573415
797 0.0032425692299895407 0.002653470791050456 0.005328913245129367
796 0.00578244628754014 0.011371283172972172 0.0008696700621320299
798 -0.008504116043453793 -0.011529687304829554 0.026768845682290404
1324 -0.033395349362717056 0.01143496510085963 -0.0025065695158793615
118 0.007110370804083696 -0.015818465441817354 -0.01116857488862702
700 -0.0069578542553205835 -0.016309208401366692 -0.011004763518073895
701 -0.0018730671728054602 -0.00540512845585739 -0.007531642643438891
296 0.001336609172245519 0.0007525222980888539 -0.002670037707353775
297 0.0024886671345371023 0.008992709070603257 -0.013047426689223467
1325 -0.0037576479432329603 -0.0038869389173397132 0.001012262051295482
668 0.00011842252641882434 -0.006184477670225821 0.005615705128889747
669 -0.006247821306457128 -0.0014082255027038876 -0.0026224455481249883
1404 -0.0010269161785259595 0.009824810542437857 0.0021177743790759427
1403 0.0001913004387632279 0.0006256045700049841 0.005875566723728951
1402 -0.007891457215301658 -0.004592641630485658 0.0017371251422880181
243 -0.010134057601865384 -0.007389553748106486 0.004135588330632034
9 0.004365513258630622 0.005568037061185268 0.0019449914205666168
242 -0.005101778044104704 -0.002936074106278443 0.0029152027178454302
482 0.0027299998693164113 -0.003800809060200282 -0.003726101713454245
241 -0.008268846691006825 0.005173633403011941 0.0015496515437446116
733 -0.01303516316150219 0.006413421378405733 -0.0010390944990915896
734 -0.004025087982785784 0.0007334111049842275 -0.001645068336499991
735 0.007888647566860222 -0.015098568976962328 0.01178542199390737
1360 -0.0027006673515921984 -0.0013682059713245528 -0.013633914570182688
483 -0.009647564829883158 -0.001011873106610407 -0.01612498337443601
481 0.0006889610269189418 0.0018009202921260834 0.009474125773534943
1058 -0.005605853384350388 -0.004655602220783969 0.00799267586676955
411 -0.0065595833062081985 0.004066021571896256 -0.0075974300150954575
410 -0.005834325800955721 0.002128452542531115 0.004483851600687098
409 -0.006171048441601817 -0.00250563572125163 0.03613172311066411
220 0.016335656211209415 -0.0065188406411416586 -0.0007736254738452585
926 0.0015121274387276992 0.005042239566172667 -0.0013469082528966031
1293 0.0017810529582061164 -0.01487995905654671 -0.0006360994232907299
1041 -0.0006982342719834423 0.029124939544194716 0.008736561391621293
842 0.0036891847986166744 -0.0026981248622843334 0.005114517424365288
843 -0.008869421830567848 -0.002090787943069396 0.00886371240657534
1216 -0.013584465111487521 0.005943521709801102 -0.010997199934316512
1040 0.001607232898837744 0.0004917427872648436 0.0027361804998167613
1045 0.0031508223869337855 0.00605410687709316 -0.013900370745552323
841 0.008919433481347787 -0.0027258591953297183 0.019769969354614284
1077 0.00797694182378077 0.0037678772609141516 -0.007818684380779208
1291 0.00028421248019602763 0.009269595077307381 -0.0032250848394324836
1292 0.0021227554629175693 -0.00029529708150055427 0.0034159386138544645
1303 -0.0009983110953478197 0.007952307178803552 -0.0016868785544997377
1304 -0.0034295752961009695 0.005917014028650011 0.0017611128623447896
1046 0.001730802433947533 -0.004269853489184916 -0.0036005860895313344
685 0.0008690978178873985 -0.002941816399505498 0.005023646423529624
1047 7.303414919567129e-05 -0.009498694836289906 0.008579821230148171
687 0.00024055338716848102 0.0064593117983988676 0.009887251129994537
1039 0.005548344027181313 -0.0055608599578588725 -0.007922595914564092
24 0.00048082021398015697 -0.0011422282121701006 0.011333849082608916
1239 0.01909649026211763 -0.000853729063013523 0.01392215886142538
1305 -0.0010335516794659602 0.007058587740382699 0.0014084815890574663
686 0.0021813512522034038 -0.0015944674486778943 1.9322936550859572e-05
1335 0.020350598806773132 -0.013568910456244325 -0.001180735008374665
580 -0.0030048901983112716 -0.020149609566384043 0.01103417979216793
119 -0.0006351513905729658 -0.001805530200279208 -0.004381343061047388
64 -0.00223021981211608 0.010299273750274776 -0.006857915211922234
513 -0.0052702839249312875 -0.0052620956908441124 0.0237667397488342
511 -0.0011411940565263098 -0.004271163895537089 -0.017762194860140374
512 -0.001983131722108026 0.001419171211367753 0.006797170950039675
582 0.002409142738139473 -0.007361270651825215 0.010198341874945331
573 0.017999333871238424 0.002319570082590588 0.0028740461736151443
1059 -0.004358197105436011 -0.007468397288394062 0.00751066262009497
514 0.010225471916918197 -0.009959415052340806 0.002189627348980556
516 -0.010214088231646424 0.013821236911488831 0.0034423524176602454
515 0.0017804185858626808 -0.0029587207525698057 0.0008348805794801826
65 0.0005458566887920561 -0.002309832557239369 -0.0015831650597937013
66 0.00018707788844925585 0.004313482608370873 0.01940326370529594
284 -0.006710014358974003 0.004319472970838259 -0.004403752435765668
283 -0.005092631071165129 -0.00176828417480984 -0.005131415341200162
285 -0.006169992934240947 -0.001812507862083308 -0.0054816046584040354
1223 0.000599835877512533 0.00185692219343201 0.0030676738643406823
1224 -0.007962474093135559 -0.009312872417905814 -0.0015879494263429119
722 -0.0003093489778076098 -0.0064392116550717644 -0.005887333313048737
721 0.0015088194152825874 -0.012014588493030219 0.014714224004243654
723 0.003510494366966948 -0.000880226829545772 -0.014548916899705801
859 -0.00349397227518018 0.008020716100424763 0.0025700908092640674
581 0.0073647783960436065 -0.0059465658210422195 0.000493080525033445
1222 0.00972716828429689 0.01701550270594389 -0.008662537815308565
1067 0.004185300461822318 -0.0027199260883780892 -0.0029931588099423602
1277 -0.0034007943588522664 0.001516263065132169 -6.854767731773482e-05
1155 0.0010367414421068566 -0.003806627284349869 -0.010270819149687919
1278 -0.01919949270809311 0.0119955076750788 0.02153205981068823
1260 0.0034728875501750947 0.01363764637232202 -0.009097448023007071
1480 0.006543261590167024 0.0017252230964905468 -0.0036912074834510953
1481 0.0006396194435380753 -0.004450383691081629 -0.001980433103918001
1259 -0.0004255663130448426 0.0002312576334506922 0.00039722572654313275
1258 -0.004113917212219374 0.004655594321711304 -0.013450320554411428
1107 0.00026986964547488074 0.01125221090600698 -0.0011945799570362691
1106 -0.0027391409871069805 -0.0014488204729485375 0.0006359015976770534
360 0.012507034524334399 -0.018808383758264702 -0.013917489626100597
1276 0.028271397714935653 0.028846919925899932 -0.016390992684924787
1482 -0.0166506841690053 -0.01086022911441301 0.01259877434388783
1433 -0.00022894099883243952 -0.002069794634971824 -0.0005569200884118022
1432 0.0018571866501554577 -0.004663395925261331 0.005784001832429932
1105 0.023280743937889637 -0.015928649091273606 0.02712333757946238
1038 -0.0018949682808714582 0.004790393985258038 0.010848541351501942
660 -0.005468379506298382 0.006591991766847937 -0.007389235480948863
860 -0.007525446509175719 0.006831761408104523 0.0006811396041085089
159 -0.006084325058911067 -0.014484009188274439 -0.008844478533684226
158 0.0010797737394297772 0.008069221820870474 0.004215825043475039
157 0.004662165573928529 0.017989936772162502 0.013014637362685079
425 -0.0026196324433897986 0.0016818951025763178 0.004899180248904169
1450 0.006119647303264186 -0.007371108258171649 -0.025964561163042733
101 -0.0002694408460543539 0.0041958310736415596 0.0011026219836814098
1451 -0.00028242863100359653 2.9005255716840336e-05 -0.0012397527987866044
452 -0.0026110710506604385 -0.0008187359402531061 -0.003171006223225857
358 0.023934548349573946 -0.0054836268785528495 0.015924241597456795
359 0.003927225699695552 -0.007312061918925182 0.0005790913887976399
361 -0.018070184007493564 -0.008246778960278827 0.0006288948972153827
363 0.008474941509785526 -0.0037376056711385408 -0.026137672819256167
925 0.0033237100743721726 -0.007059925399557189 -0.00436431716799542
362 0.004788021438262067 0.0017682364258534264 0.000648068368575481
853 0.006068369801259666 -0.011334404719533961 0.001139693780733469
260 0.00018891505460782762 -0.006056320880452868 0.0018086367939377087
1381 -0.0018897638962138692 -0.003938475770354594 -0.0028823007383376215
461 0.000619050705358345 0.0024459152310159107 -0.0014530507046705225
583 -0.01259357308014228 0.0002717259329446775 0.001958108581746956
584 -0.005205532275818335 0.0039153570320628476 -0.003108838256165448
460 -0.005200553456966685 0.004492512777222697 -0.02256190537612695
259 -0.01050321408705236 -0.02719726102078963 -0.0035615691736534667
261 -0.010794233494788289 -0.015201709454739809 0.0009356789699288373
1357 -0.00680296401427762 -0.0019035884963182195 -0.017053620206473098
329 -0.0015685851148548576 -0.005979653998619456 -0.004659137653409643
328 0.00317572730648875 -0.023156053394922743 0.0012810352855462557
330 -0.006606562915346182 -0.007898128828527851 -0.014024666836194485
854 0.004731113148273988 -0.0009896090408945837 -0.0011492278664620948
682 0.0005525995320608575 -0.005136190130603012 0.009352325519832432
1359 -0.000242275305526378 -0.0012352612512601894 -0.011695979294347781
1318 0.031090129701914018 -0.03609166631544716 -0.010506182690997989
258 -0.014892289376336113 0.007087758686679132 -0.008925542199038274
92 0.0014609929572574115 -0.00397723500772241 -0.0008344111496383938
1358 -0.0006202587666992796 0.007993235092725585 -0.003737363417603356
491 -0.005503994614336266 0.00461429347431743 0.002388450184860101
492 -0.006663034043225386 -0.007283388758594341 -8.39576857309323e-05
845 0.0035017404452627834 0.0056098504878931265 -0.00312523189935727
432 0.014501295136806648 -0.011478090483222935 0.023137038254340787
1323 0.014490352338877103 0.010317428819517525 0.00690521805699593
1322 0.003898733014948602 -0.004751037547202282 0.008746300464262037
1321 0.005642520228137271 -0.02870308372010887 0.019799150095007895
844 0.007589106491111202 -0.0009096698918237899 0.000854909967306813
431 -0.0014007934523196685 0.0016201592917299938 0.0022896788296169726
430 -0.004574339905456161 -0.0004922938868434284 0.01673625402294951
1043 -8.596550487785099e-05 -0.000687698188906462 0.008619692767658714
1044 0.0035174561273570598 -0.004618322827736765 -0.004619986254999002
1042 0.0010143769422893978 -0.003303975337477414 0.004464313550496997
846 0.010049724723022747 -0.007909546565581594 -0.006189513803176691
490 -0.01269024926104828 -0.008865924702080705 0.014637731855127113
106 0.0213855435598283 -0.006153000582475828 0.00364451778460152
368 -0.0005475580623033443 0.004077426843110652 0.0005294455504805517
497 -0.007091028048897028 -0.0010240317980591347 -0.0001528259653231779
585 0.0004988696483964182 0.007277093968733136 -0.0065522685798073054
1050 0.0004940386689811752 -0.01052270182820578 0.0017727563484689164
543 0.021616185781771494 -0.00425535537507456 0.011818382390748115
1073 -0.005478064596657907 -0.0012925662774599036 0.0015714996937499452
486 -0.015139617647239293 -0.006688815960406842 -0.0029279184157091766
312 0.002938580240844797 0.0051967239263049515 0.01569440286148536
311 0.0014914204525855398 0.01040661219384087 -0.0017779235832898108
424 -8.041865418683783e-05 -0.009121345218161285 0.004583619628049736
996 0.006312739080964353 -0.0030522010279449463 0.0024374625047656395
995 0.0010877872938284368 -0.003829899474410388 1.9984694116704185e-05
994 0.00936217662395857 -0.0020302548527471095 0.0033570160732333105
1114 0.004926199214082888 0.01183560280439396 -0.0009138469088911953
310 0.00610588901925604 -0.0032392134847383505 -0.012636733707048988
485 0.004175411664103343 0.0010542933887781247 0.00514249568276077
392 0.0010315743352352605 -0.003071720871083709 -0.007563692116839163
542 0.001136325400281473 -0.0017149140075181024 0.003024567226218239
393 0.0005169105766028977 -0.014613689126590747 -0.019047056653288142
391 0.003963282084325833 -0.007772272686276179 -0.001684786968560575
6 0.0015941615315104326 -0.008715809202795391 0.005657621920164709
46 -0.011219381872182476 -0.007063829421304082 -0.016454910665722713
287 -0.004765758202034835 0.001752315180479012 -0.005629285132157791
288 -0.020808177374885026 0.0048458381883796624 -0.00303779388480991
1137 -0.001887038854440631 -0.0038303330789201304 0.006065511046582077
474 -0.010492172490093753 -0.00347681510321089 0.015366771606880266
702 0.004279467899241157 -0.007067369701429686 -0.00963623665013277
473 -0.004559515822966618 0.0025673172704133523 0.004480069225253023
472 0.0022899345907958692 0.00023955134204671795 0.002315908238777656
1082 0.004860969344078358 0.0016307438085793045 -0.0017388741239679562
48 -0.002449509589199591 -0.00490156412644486 0.02800425747962351
1136 0.0015969222345327868 -0.00499991416663242 0.005598823839904192
1135 -0.016835817333848754 0.00502090960299861 -0.020555997194861737
1081 0.010128010926030722 0.0040860093568625645 -0.005391601816178355
286 -0.006637812525536179 -0.008730114095721364 -0.011122227831241668
47 -0.008278186283451665 -0.006173921727832504 -0.004293580504265355
407 -0.006864181850719933 -0.0037293895682652812 -0.001889204056674304
406 -0.01080046524797973 0.010209000722359755 -0.018375730409185782
1036 -0.003715489355430319 -0.00016978134755928347 -0.010922091367683287
659 -0.001466159624408516 0.002693498308937022 -0.0037049649225917194
891 0.019976358574949733 0.015446311630245102 -0.006856291677178827
1392 -0.009389205608969558 0.008886271778679563 0.016659193656807705
1102 0.009207198467621955 0.006378881327475001 -0.0006552909284375466
1156 -0.0070921662580787255 0.007888543682617434 0.001107030190055644
1157 0.0002760727769664232 0.003931840620168203 0.001993043175114539
1179 0.015860484740674346 0.006562928141213084 -0.006580481982581787
1178 -0.0009117414987431341 0.008199009285417141 -0.0024499312540541547
1158 -0.0025851220495991534 -0.002621361531521163 -0.006994728753415041
100 0.00630479640199945 -0.021622580045283408 0.01058008751032781
224 0.0015483802505437626 -0.003648905982404936 0.00027551902784839465
1023 0.015216490504364145 -0.011085388379317428 -0.0018193030172262196
615 0.0030791151041180457 -0.002321620070923226 0.0013355315310868664
967 0.016631635697673078 0.011906007629318009 0.01332732790609311
1022 -0.00012285946251018224 0.0042480768063811476 0.0009112615180367944
614 -0.00016919556215608145 -0.0036653289641141802 0.004403654214737787
750 0.002655041744686188 0.0008707808073413032 0.007021656000833303
749 0.0018349179592145894 -0.005822511197773574 0.0023999099467039383
748 0.004034466512345373 0.007385946804789884 0.01122606231489853
1177 0.02028151463355874 0.009136586052672674 0.0011891609010021887
1362 -0.007847099109785944 0.018047891353921756 0.010670037021373072
613 -0.005707558385491886 -0.005793392604487356 0.010034046496572314
426 0.0037117170399123484 -0.013480100675392995 -0.01917902556794399
917 0.0010899406914876677 -0.006238766296311656 -0.00010209657221451372
885 0.000550015113977709 0.01928029564355532 0.0019353513113039616
597 -0.001192838043258017 -6.525874303772897e-05 -0.014464116536267778
916 -0.010212714044412376 -0.009551316216019044 0.010742944344298245
855 -0.009728666920980119 -0.018674814799828764 -0.0015024025751665955
651 0.0006971657133090154 0.007344818862531685 0.012866203805311546
1406 0.0026820404676907972 -0.0045909008766806675 -0.0022924390477947767
650 0.00023146061213280214 0.002488478768555671 0.0019062043942429726
225 3.6720475876094234e-05 -0.010622844205758625 0.0001052315913106439
223 0.005329964642570734 -0.016765156132122497 0.0008764475168937592
187 0.003016328851763197 -0.00367617457507982 -0.00046631595642345776
188 0.001004936988322705 -0.004775992049633427 -9.186548093958178e-05
918 -0.0006881068400893956 0.008508166303299584 0.000573937179477284
991 -0.0020266307002147466 0.0030095441488730947 0.0010501440460378602
992 0.0019095453588173063 0.003676006106001156 0.004840900993225414
993 0.0073627020740399595 0.003605901188701717 0.006376480312569471
189 -0.002845565200307261 -0.00045195815759378505 -0.003958893385987199
1407 -0.006809512754507279 -0.006089207516762321 -0.008739135674260481
1175 -0.0032123452554195984 -0.004317797421161394 -0.0076884978772607466
1373 0.0012347824255815063 0.010537873301488539 -0.004410534532981099
1154 0.0012924194534050183 0.004793236522536763 0.0014222964851742853
1174 0.02163940402420062 -0.02131228123394564 0.0019236295602959319
963 -4.444525279120041e-05 -0.011708410985161514 0.005831592162692758
895 -0.0003225238408645989 -0.004029884046575135 0.0006619978593419212
962 -0.004665932893194223 -0.0009654533931252287 0.0015115789276671306
896 -0.0027958894906467014 -0.005253941854478374 -0.0011565310630797386
572 0.000611356209659957 -0.0004992241347348745 0.0009592471792852007
379 0.01439758151883922 -0.019804225648020334 0.015317395121295072
1066 -0.02002090194459342 -0.005018101854451533 -0.013186309851488007
1074 0.0023002918745594057 0.014409305386377233 -0.015163558146699506
1169 -0.0008687773754138951 0.0038141135863144085 0.0037221273325211343
961 -0.013482786150042801 -0.007064179000869008 -0.004175050066333995
171 -0.0012088387855185134 -0.010535964291623507 -0.0022805527422121124
1076 -0.0034584033768266776 -0.005686929273210283 0.002371594257373335
847 0.0006053302786914673 -9.102268296519938e-05 0.002669880144799809
76 0.009497214207000558 0.012557906085721233 0.00043376294225917663
571 0.008293574242247354 0.0023867323727869327 0.0009338510851429286
780 -0.012877876550264481 0.015799135655356674 -0.01539177859335381
400 -0.012409729180248298 -0.0007356530956673169 -0.0038138664937910224
401 -0.002320778767063006 -0.0032080159739047913 -0.002913007990508167
78 0.008146708864040163 0.0013294567711060346 0.0007450570960913983
77 0.003719076766082518 -0.003273411209503227 -0.0036343490457335305
170 -0.0025663833297639807 0.00301458903737773 0.000587690201785897
169 -0.0014680922502225426 -0.006458777967637721 5.3471021681640624e-05
402 -0.014567866951533712 -6.696740259205492e-05 -0.0035056999804583154
1168 -0.012747288120262969 0.015800931321256474 -0.0007780566837656272
381 -0.0152610258219377 0.018846661822684144 -0.005836685847778838
848 0.001255633326520091 -0.00010820630858868417 0.0010443034509537434
1057 0.0036685160298611384 0.007112187889988225 0.011345195938791876
1126 -0.012155887076523155 -0.016097632964307596 -0.005935745059785075
1037 -0.003068091718984004 0.0012122378915192823 -0.00045114832011656163
1434 -0.005402634807629763 -0.0009347962138003277 -0.0024353594456513064
1127 -0.0006591293370210207 -0.0022856501069827844 0.0009346820235683688
147 -0.006396923391512821 0.020309229739012696 0.004526288432021723
1083 0.011863734898573114 0.00487517816807849 -0.0023533526134729764
495 -0.007194826433321897 0.0026782916338692945 0.0010296295038437313
540 -0.010586188750804271 0.025173012774436718 0.009146203360820839
7 -0.0040479701038121894 -0.008215099878402061 0.007367978754882187
128 5.3795368076343295e-06 -0.004398072077482105 0.006791334386610147
178 0.010111001207181305 0.011233222130296571 0.011360215794172134
180 -0.002666800370893637 -0.018098770363391702 0.015113328686669448
538 -0.0052487212639332655 0.010850498446375279 0.011905980759008781
539 0.0009052178925441352 -0.00018879068335217404 -0.00663099332930616
915 -0.007327426545689104 0.00856497401148341 -0.0012666371811971544
914 -0.0023930441129071376 0.004242931475147248 -0.0038693948433186566
913 -0.01595600259183575 0.009614608479157388 -0.012876834419608078
179 0.0010863224910257132 -0.0010952734107149505 0.002341501620002587
127 0.004210516842597817 -0.016544937620561626 0.007439042510383787
374 0.005329713877829053 0.004198742060916243 0.001601619126737128
813 0.007231937948301814 0.0035287499693362613 0.021979551053905966
812 0.0005242357376726651 -0.004100208962639162 -0.0029706787553611417
146 -0.001140798069399262 0.00017642365549160478 -0.0013296239584213033
1390 0.005374346240786622 -0.002817860014829988 -0.004614799508442232
1087 -0.009773190385066813 -0.0004433214221718432 0.010962892440655975
462 -0.008284861311207968 0.009026331065882381 -0.003957688747987746
375 0.001244594511933822 -0.027120538896218908 -0.014248776856088828
684 -0.011838609278586085 0.010095758745306643 0.002236461156849664
683 0.002291412251891685 0.00365511524831346 0.006876202438183201
599 0.0003079559859927949 -0.005463261420771551 0.006309173703434358
600 0.0026854386068140106 -0.012449380178634072 -0.00793401350366776
367 -0.0006351161334558204 -0.0036359934352115895 -0.006958070286563875
658 -0.0001397541403971021 -0.0005007040510229096 0.0008939107642262229
598 -0.018365569788628973 0.0028854789250886315 0.008304343769616005
373 0.010547522730704514 0.007470182474086994 0.012393513929829753
301 -0.0004181676963597405 -0.008218561764457179 0.02523552732805692
405 0.013669716336185925 0.0012864212281914974 -0.00821822842933441
890 0.003313362649700318 0.01003918947296341 0.000450790303359543
1361 -0.002028310294023591 0.0002636715220176881 0.005855916252244528
302 -0.0006687567459443386 0.005085134914024151 -0.0049726285137906626
404 0.002492710782966672 0.0045023118580760375 -0.013145386445887816
256 0.0038183035204500055 0.0144971743335675 -0.005318879823402088
257 -0.006551689182626261 0.007753037196898177 -0.00758025135257708
770 0.0031618223992775436 0.0018946365317472308 -0.0035942264875628814
1075 0.0012106697871598693 0.02306293222434042 0.030565933332687586
1372 -0.001304319231854749 0.009827788036634647 -0.012435213905258069
1176 -0.007439317668367984 0.03900776179663819 -0.004482440892197399
1374 0.004420735090313662 0.011687764798332391 0.008090544544292349
303 0.0025452877841188218 0.007513841634039928 -0.012493738691827527
769 0.03749722306158095 0.001796694157990787 0.013187043999511752
771 -0.025639884256342577 -0.013169610779419074 -0.017858971921738624
1256 -0.0015198941993829133 0.000930702060952571 0.0028780704766400533
22 -0.017620380407856368 -0.007544979168536452 -0.007318311103310794
403 0.01092616191537687 0.01259759498826551 -0.0014399651141918757
556 -0.008125150818360133 0.01040878354421439 -0.007832610356949127
558 0.009847903772805273 0.003680850890961038 -0.012337287234625969
107 0.0037260720686861392 -0.002404073458785577 -0.004375033154847576
108 0.0047149722490102824 -0.004084996312491017 -0.01979216116411508
884 0.002315410051948442 0.0029224998026180712 0.00027482076723147665
883 -0.007960403594807174 -0.008674196392436093 -0.011717072437158681
557 -0.002753948594349138 0.0030302386680168135 -0.002432344816362555
384 -0.008235750402661116 0.008731832773494808 0.0080042013748887
1238 -0.007308195795376126 -0.002852047780319642 -0.0004677964302516002
1068 0.00906510474503396 -0.00986258936170562 0.00228292705973604
102 0.007845925847855591 -0.01317066762170232 -0.022459992639681695
1391 -0.00496561128219647 -0.0027555289130903036 0.0017351572194441033
484 0.0025034848836633073 0.0023179928197922767 0.01751868401517973
1088 -0.005268896991317726 -0.0027728507728465527 -0.00047271673055353214
1170 -0.008645939999991175 -0.004698667203029266 0.0162009241357374
1237 -0.024567240113686478 -0.01913006305803542 0.01384173656578637
494 0.0018598380356872324 0.002846084595184779 0.0007772065707227965
493 -0.0023635647967155736 -0.0014220194212985723 0.0029554602282716503
779 -0.0014832700290857489 0.0009043775772990694 -8.56391541212179e-05
778 0.003424475824377677 0.0034247661153317876 0.01272084918777719
595 0.02909317930387251 -0.0031447324294490682 -0.001900563223788995
1089 -0.01206908682473714 -0.011802902691774258 -0.0059419648101481735
596 0.0019127642848731183 -0.00027108071041730174 -0.000995232487020357
23 -0.0021450013412115626 0.0028542251431465018 0.005751064027641312
811 0.017842800055756558 -0.021876935621580103 -0.011818209697240976
496 -0.003219451220749251 0.016297025591095943 -0.003974193512776631
52 -0.0016026251537428094 -0.007986228930359072 0.004792863522323636
1096 0.00030015494498534845 -0.0009437697543321587 -0.008064588320188294
927 0.010823055230616123 0.005762186023024484 0.0034063545854905028
459 0.0035659048815747914 -0.005814144605584306 0.0002789225142685271
861 0.008697647571367168 -0.0005000147042590301 -0.010878893373207252
1382 0.0010947444109361628 0.0038168155462993112 -0.0007803688771042711
1128 0.006527551430649842 -0.0018980913914890996 -0.015653015855044566
53 -0.002326711351885435 0.002119412372320892 -7.085336826519e-05
55 0.0032252740103583004 0.019457274726266956 0.0034047411216690145
849 -0.015904800837722517 -0.0012836006271828143 0.0033822745299674118
541 -0.00275469526813196 -0.0009441103770930299 0.0015208599720971635
129 -0.008415893911223046 -0.0027791296197650396 -0.005291990313293932
1103 0.001158800476968379 -0.0022745856702449966 -0.0033640297629462996
645 0.009837244196164585 -0.01475606688612769 0.006570564015078451
382 -0.0022843741503876273 -0.015202145273312663 0.003919039231920977
1288 0.006258286466391899 -0.008894568554694539 -0.005081660849411547
1319 -0.0075340122027073905 0.001769064754042758 -0.004586291675221976
786 -0.00012775735141337354 -0.003919897230475813 -0.004353683819023154
1111 0.0025836774643887995 -0.00018598215323444223 -0.008712549128617415
1452 -0.008462111198054663 0.004633010403972183 0.005418309115117674
1049 0.0007563855370150703 0.0025423310162084474 0.000208146050893501
380 1.2661256208530924e-05 0.0012894272769300536 0.004169903169505295
396 0.020262436458004993 0.004140875780910991 -0.011542994762762387
423 -0.006353061508259724 0.008821598373050231 0.0011252246685218798
190 0.0017391509178759873 -0.005310371303245256 0.003719456633619098
1071 0.009068733602080787 -0.006940065147502069 -0.005702381895227558
910 -0.017259604975678525 0.01506747717497266 0.0275070542158689
911 0.00023668423383174455 0.006367255146652072 0.006075057204440426
912 -0.007626748498254744 -0.00016974975619649192 0.020423795484003283
1070 -0.003105704861125063 -0.0019326633190320662 0.0009596990929378716
444 0.010868098080077604 0.002145174657666091 0.014827785481392436
1069 -0.02142779743276248 0.002977211427246402 0.010986805303704085
944 -0.006251731785649219 -0.0048610285648113755 0.002960028197948935
1498 0.012758894090352593 0.008545324200524795 0.0036117084585557974
578 0.003133785677381905 -0.005569578713151582 0.002804221814844643
343 0.006036463588086108 -0.0001007608121067984 0.003908013073375899
724 -0.008215292851868308 -0.023914073162687594 0.02459771153032577
160 0.024177652511834142 0.015602281334726256 -0.01364661187772927
945 -0.006012818447036078 -0.011846487322126516 0.004628031019161631
864 -0.009073800162010131 -0.010476861317929194 -0.0051462096613869345
1139 0.005231241156590733 -0.0008429573577832189 0.00037526005710381775
922 -0.0009581726984692001 -0.0022489346832646616 -0.0043041235701723095
1500 0.004414948749487835 -0.0021797017589961724 0.018972016388642106
21 0.005399177585654109 -0.01049353628256398 0.027983597050063945
112 -0.007590980036696937 0.008767403542417722 0.009436015541946254
1004 -0.004087936194359879 0.005775753872884091 0.004899060497514854
161 -0.00468730405776096 0.00034940064394895865 -0.001078942687755557
1470 0.0060262662185187185 0.0008383154128234067 -0.02446825017532072
878 -0.002196551784615655 -0.0031752057761758644 0.0021901977235090735
1134 -0.010217400284635102 -0.008125579556518854 0.01909410353998864
1133 -0.011557278464423356 0.007532821869709019 0.003489148263458037
1132 -0.003520514077297015 0.00019362431802174814 -0.015845464219836455
1005 0.007010787962168771 0.0017494424678563374 -0.02238065494898178
1469 0.0027843813313646743 -3.145558094301974e-05 -0.011379046009245984
1468 0.00984015633312357 0.0178233429001933 -0.003393308986939921
1413 0.0029514029034167625 0.0009644088351489736 0.007740712140073723
997 0.010210111105309658 -0.017567829408323587 0.000649438703696208
970 0.014965673571650417 0.014957007927881773 0.007834862131751575
998 0.006453586107766525 -0.011716672878004724 0.002397463289811722
1489 -0.025861161272183693 0.0095131354815686 -0.02612197776847674
971 0.0005381430055270058 -0.0029175684579028946 -0.001177298523751727
292 0.013502091445413724 0.022561474406217023 0.013262242401391105
162 -0.005050942144056811 0.014181740906169353 0.03661209987924035
999 0.008529732344592577 -0.008181380999681671 0.012117621255202389
1411 0.0037038816461007792 0.0010122252545982432 -0.01618469228458153
415 0.0035252776884106512 0.0009179114126972233 -0.001898122070241319
457 0.0028138121513044327 0.0031510866001518622 0.006458982684643181
604 0.009634271705505194 -0.020440202205942008 -0.01257603914500401
632 -0.0008251269814975439 -0.005309856841828056 0.0005218933049005054
633 0.006984861800770423 -0.02013969133145268 -0.004599591297430972
606 -0.0021233559253464106 0.003019877420867287 0.005506455276553664
605 -0.00263741894207495 0.0021905791844009275 -0.0027932040147806963
589 0.0016804670505730936 0.00443412596210604 -0.005362698203001071
631 0.0075574684913495655 0.005316679006969646 -0.008031630042426682
590 -0.00315918701492738 0.0005619393181888475 -0.004264171963154307
591 -0.008815320637857766 0.003296386225545653 -0.0040967435751496275
435 0.004843822858701713 0.008283387298009178 0.0012029891287322289
642 0.020615355371322707 0.006751915202677168 0.012768328592672037
434 -0.0008649668503885124 0.0004792201765353259 -0.0027204457624923238
1460 -0.0012449764750078467 0.008679266014127466 0.004203134756676873
1459 0.005383111471820862 0.016559713498875746 -0.0025840157203738264
17 0.0006132884585546272 0.0003635576885706105 -0.0027204119769930722
982 -0.0015812011407669985 -0.004273447019807656 0.0048179115631448895
1162 0.001355642766628765 0.011082127569756742 0.009035392381570096
98 0.004863883382703697 0.0021565136487503894 0.0050821767893393
1065 -0.009139595090534398 0.0009801767261200453 0.0031661478559960755
1490 0.002452755821309112 0.0032645351048284084 0.0006984340558455215
1409 0.0037326373175355014 0.003136061612857979 0.0016052729683354858
1478 -2.463787378059755e-05 -0.0030473193216253693 4.700188291774424e-05
1491 0.009201213891258586 -0.0022528919939122207 0.025030181789706514
10 0.015569381735593402 0.0032183852354980198 0.009887357131185744
1440 -0.002172641276017243 -0.0014811836020431988 0.003058927023309105
641 0.0007620737427194337 0.005970458382518618 -0.0022049596687370413
640 -0.01491654740605575 0.006762974882380952 0.017472373086772904
983 0.0006668009925203575 0.005117915040658201 -0.0006292656305341671
934 -0.007110341379714046 -0.0033749149511632577 -0.008229096265614196
335 0.007639874853173883 -0.0005389393511351707 -0.003010640626600442
984 -0.0022295052627476055 0.006502326888569313 0.012866885524011898
1300 0.018259582069386007 -0.03637871464665415 -0.0011105577731344244
1301 -0.004118924196115451 -0.005410465607373262 -0.004854345417945221
1302 0.0005898103232165056 -0.0047831383566512686 0.003535870519111145
334 0.010806423235602743 0.0011197048274792286 0.004906056374933671
336 0.014642110777499634 0.015085728594187045 0.022451296548703488
875 0.0026035600829379824 0.0013682657567339383 -0.00013809440240818553
726 -0.009463059519705724 -0.0016546167344641605 0.012356759353604719
742 0.000736628474682988 -0.004966008806637969 -0.012518204327271064
1438 -0.003397972426815786 0.006421700233376463 0.0025529551138716595
725 -0.0011095381928724415 0.00058997777037624 0.00936324618828731
1368 0.0014578028036023008 -0.0078690132619297 -0.008248214538525214
1063 0.008611865589820843 0.0009987146767705022 0.0034133462879487745
943 0.007286713681131149 -0.018503167832133266 0.01939588520666926
73 0.017555386299921195 -0.008176780510973265 -0.014042414310982113
1426 -0.008188649280133081 -0.004858605208322094 0.008615427580793042
1203 -0.004208312852225782 0.012401830675723528 0.00016445114409165972
1202 0.0016578037865686624 0.002187125378700028 -0.0035902215761801966
75 -0.0136034136859913 -0.021000041028549923 -0.006204495470222475
623 0.004963241693444364 -0.0043211001710645675 -0.00030722814387553556
42 -0.014080141492348349 0.0048245316909557995 0.022000026215613873
532 -0.010764312558512273 0.00939143758953244 -0.018899125065821566
533 0.0020507050613759177 0.00577039428921417 -0.003688003063909863
534 -0.006297326399856368 0.013446803465837268 0.0097282591977482
826 0.005689484618558886 0.017677132160603137 0.009449518018411145
74 -0.00243183455127223 -2.1661016185328514e-05 -0.005706702164260323
828 -0.004515881934249218 -0.003952470925944271 -0.015814205208178934
1201 -0.003692583801698607 0.010898417796195527 -0.006316082657117034
137 -0.00042919037912233913 0.0031723523660628196 -0.004464218380015527
1001 0.0024404692194188627 -0.001868568752897448 0.0008087610812972506
136 0.0070727263434890155 -0.009508322762599582 -0.0018449010961404386
1109 -0.0027265556546583756 0.003882256112590292 -0.005277045287621625
479 0.0007543795582694926 -0.0014315829564923346 0.0006865467480700938
712 -0.00255223156106544 -0.011306877569683271 0.0007933891267879834
1284 -0.00990391392769049 -0.00017901392746526147 -0.00661185716473458
1110 -0.017992468123381903 0.01225642462422803 0.007247438938747064
1499 -0.005999046146884454 -0.0030796784589581334 0.0007558598319731347
306 -0.017939414237959746 0.042200795601903825 0.01074742884262367
757 0.009150907743653623 0.002628197726952303 -0.0069321238046881105
758 -0.00030604783713533685 -0.0016614373143048612 6.056084593206583e-05
923 0.00013867298963194706 -0.006798334646649583 0.002922640403506575
153 -0.021945308617858636 -0.0029018362013859653 -0.00819180312259623
827 0.007087385234074687 -0.003709358117439017 0.0035095388971339895
956 -0.00803297355050308 -0.005545338177229771 -0.000898171237501961
1143 0.0048381959493106535 0.00042690337371347587 -0.0008180148229221083
152 -0.0016969132967987947 0.002342969980473727 -0.003198036933589254
151 -0.00780229156716312 -0.00894373706904847 0.006765430729624783
931 -0.008784361075622797 -0.028741998139865072 -0.011934281550911112
865 0.003378843540224607 -0.0017346468274329837 0.0020781203843188456
1350 9.317506359679897e-05 -0.01674801183252515 -0.008892136670330418
866 -0.0016854055126732216 0.002520188633060154 0.0016742244135474794
867 -0.017414383335211253 -0.010589690909346519 0.01094901644897137
955 -0.00861701620675975 -0.017764947609258543 0.010756049524119056
338 -0.002377414101762706 0.008434923520918802 -0.007641282301583234
339 -0.01378182529134687 0.014591166098846187 -0.011275991544067518
692 0.0036491030787778357 0.00019539853918098429 -0.00807695583962611
693 0.00864554432822025 -0.009224147899726162 -0.005317825208643606
1142 -0.0023327711390564248 -0.0077822561158714405 -0.0037172544630371396
1141 -0.004902247793525973 -0.004279889406880082 0.0002543990254301192
1349 -0.00455493124336374 -0.0032909642803142128 0.0026247688661932425
1348 -0.01575367776464137 -0.011573808304130722 0.006736636711537544
1476 0.008542667681343475 0.0048949234191787445 -0.008256760806256189
337 -0.0014121761167417508 0.01990723910470969 -0.009073993473082837
972 -0.020881622163477234 0.013023031756112385 -0.012130064489729723
15 -0.010506145833623944 0.022292408236860555 -0.0012656839451982082
801 -0.004583823502544877 0.016224104542038216 0.006570932070205651
477 -0.007367639488456881 0.004920375165095173 0.000870116080670003
1461 -0.0005133983359473242 0.022759004813237598 -0.008726742803069521
357 0.025858720094152368 -0.00705629027637832 -0.013781105754378808
356 0.005669446926731183 0.010470112164284062 -0.004102332700799788
228 0.0002660293465036231 0.0029680149670366254 0.0025390915032112993
227 0.0035317894270956588 -0.0012895830547127063 0.00037580456963988884
226 0.0011450571358953428 -0.0064198556368133585 0.0011584368382730236
30 -0.005826686245913747 0.004741410836340872 -0.00925063247120378
355 -0.017738830083467733 -0.008381143003064105 0.0048123273416918215
255 0.016855303604809285 0.023544519548399187 0.002675154981034679
799 -0.02508083700083951 0.028503592486726074 -0.002181166638526457
1125 -0.0018467631098799512 0.005635237125483207 -0.006954873400523049
304 0.007708354007192136 -0.004711830833109592 -0.0015345402694391449
672 -0.020947666625500783 -0.004739924969664194 0.00911824719673193
713 0.004683301842525526 0.007764601654229049 -0.0009633861056959434
18 -0.002928044966748313 -0.02149347247342099 0.023318800828113422
924 0.010073022296410954 -0.020986888289644103 0.011957089281948047
1231 9.926550103642142e-05 -0.011651181478744867 -0.014793729409757261
1435 0.0020863107402218696 -0.005902089345069719 -0.010437596232089357
765 -0.0030719122638147456 -0.006045754425157681 0.012395078296549775
882 0.0011861692875976165 -0.0045376205362613236 -0.0014529966296250338
1437 -0.0003099161895997445 0.00396884034860882 -0.0008424181953394149
1366 0.01220331382948077 -0.011307892070371533 0.010795317620140908
881 -0.0026596410796937433 -0.0026209830862401547 -0.003152659030552225
563 0.006293550988620558 -0.0023710450656446295 0.0022406329223156117
1232 0.0025027580627764176 -0.009587113531827628 -0.009808319216833318
562 0.010085320328566655 0.01370045494988669 -0.0024965188688230435
138 -0.014843638911054415 0.01808073998996812 -0.008230823487650642
332 -0.0013922250423603153 -0.004444449925506092 0.0008772991515963683
331 -0.004883191990965766 -0.00234414641379389 0.0019102209205783952
333 -0.013525916845057365 -0.010787444431417995 0.0011222714336064582
1495 0.006208525922614475 0.0013413410149525548 -0.007087344282574839
880 0.008573076610577773 -0.0062578411915505784 -0.0008537634887723221
253 0.012468504291916833 -0.012845335473427352 -0.020603078486019936
1108 8.762294513898042e-05 -0.018982202359321177 0.00044003405237381845
504 -0.003233142084554131 0.014048093266529912 0.005542828061758902
502 -0.006134396707461415 0.004954981743706438 -0.01415834921140954
503 -0.0057188520867938126 0.0023530449996994217 -0.0046663047119924
254 -0.00215630115325161 0.004113905078735994 -0.002399084104520737
1496 0.0035396435050789286 0.004224395031039226 0.0012254318264031381
1436 0.004414430889991555 -0.0038698746342370974 0.001707857239084078
236 0.004901909493103435 0.008405897073295261 0.004284707915428571
237 0.0027189416523078266 -0.0015986996682108344 -0.0032166021994366103
442 0.003087938158106157 -0.0021769093349751647 -8.829922966853357e-05
443 0.0038020354781081135 -0.005800626995949499 -0.0005132506475839684
235 0.01003734911114137 -0.007373704731644564 0.00047395768670323074
234 0.013758689153801169 0.021502580425572893 -0.0057471753952613325
233 -0.004787899458468404 -0.004076421340512507 0.002271518645567365
1415 -0.0028942074372277408 0.005233997824239754 -0.0026811809123198334
1414 0.01456726055354427 -0.0012326519168134736 -0.002863981047694113
773 0.00258479802045269 -0.0026986767763279053 0.002247514940804762
772 -0.009006467213043106 -0.015479537576892575 0.011149212544370762
1172 0.004048439233610707 0.0008866579548135012 0.0005359460249779662
232 0.01904827104081426 -0.00501832185733213 -0.0039024237329071797
1205 -0.0013730217242901212 0.0010459405606493702 0.0011508180764516914
1204 0.013581228170567098 -0.002890650866205025 -0.0074285910308142964
1206 0.01040825583517457 -0.011074089274827345 -0.0035620948055002173
144 0.007316559644178787 -0.0008978626705286 0.01789041267481443
608 -0.0009558523424572349 0.004092345020865627 0.0031017603592513143
609 0.01456277813322919 -0.01438363025428211 0.0023936688186136693
594 -0.011771889311041032 -0.024204812686524222 0.01276558762965909
1474 0.00965402576236595 0.002048429417674769 0.015069405698712011
1416 -0.001242336509913215 0.010242865779082682 0.009802968020913762
1427 -0.004238397949927842 0.0017966791340076889 0.009391740502965531
348 0.0010197007872091183 0.004584303638431742 -0.020365306169866385
1428 -0.006299365506734031 0.0019429618352830597 0.012505553529012494
202 -0.01114271232224097 0.01064314372417934 0.00629572565673973
624 -0.000550505496439273 0.005374258285792176 0.009540981168803659
907 -0.004804668564774455 0.0017037486253238335 0.009890289381319622
1312 -0.009899438610729866 0.013496855570059784 0.003534728828792772
879 -0.004387693627582097 -0.002054331874723766 0.002063848282411135
346 0.0024627867185060947 -0.023136799538294794 0.005120289435720621
347 -0.0024255289201602086 -0.0006601332194075364 0.0009322214160498417
203 -0.00256379993714244 -0.00015235520875374166 -0.0019321965106292491
204 -0.007638397815821446 -0.0003894824541235351 0.008660358105050725
774 0.0067222957088298755 -0.0006424487220717807 0.005495498409200152
800 -0.0018528852818680212 0.0003310515101752362 0.004821373667046889
1140 0.012979563349796408 0.005403554605540131 -0.008174718860950822
480 0.0006453974487053158 -0.027342690352178574 -0.0022908551759728067
730 0.005125850497056385 0.008992928235172002 -0.0004516149504740691
1497 0.005553191905962506 0.00870890717139776 -0.017755563849826385
731 0.001069326410355309 -0.004412817684039714 -0.006519531182888807
909 -0.001777486507805799 0.013406631321699145 -0.015565380611771673
1314 -0.022375406763134074 0.010920845663392013 0.0025113337425262286
664 0.0013537916871861715 0.00264022924799999 5.176164674899473e-05
665 -0.0014478074102878941 -0.0007106149870977959 -0.0016211867880915854
62 -0.007759467946849381 -0.0010160927389731406 -0.002063599421373199
326 0.007074212189868263 0.0009204750392381303 0.005171711455885097
63 0.003105318061034191 -0.010613106146754061 -0.0031385267856102197
908 0.0006618904897967354 -0.0014739003326125412 -0.0022720565709126797
1252 -0.0021188681204957287 -0.002190048197161006 0.0018082143228568004
1253 -0.00278647947150198 -0.004838178638730813 -0.004477863542523879
1273 0.015532073201717813 0.016033264151646458 -0.02654691346437542
1254 -0.011357699533310544 -0.00025972421680867986 -0.016949840645741548
1274 0.0037542726744153017 0.0018615230529543093 -0.002059279718344582
33 -0.0009370121964836881 -0.012736901487612964 -0.023821799570061863
31 0.01754290131368405 -0.007988254088407597 -0.013177111570727979
1099 0.009362494287659433 -0.011318924205408748 -0.014985633620288544
61 -0.01512658033462544 0.0005160745214087721 -0.01580434101627586
32 -0.0009135514724544308 -0.0012915802316024638 0.0009835866894722753
1275 -0.004396309627710536 -0.017977640467671186 0.005333206218926614
950 -0.007967262250729192 -0.0012965793215041087 -0.0014799057377393628
951 -0.007088723518896617 0.010758166732292756 0.0056670702685350125
19 0.001836658767862784 0.00016532399966993365 -0.00846911040132429
20 0.0012305749286511672 -0.00039448726554532597 0.0016866529135620124
433 -0.011654401350177203 -0.012939396083787929 -0.01103330546176656
1100 -0.002817262177139291 -0.0038764828245330136 -0.007354860730121902
1101 -0.013159734946645634 -0.0067247705243416896 -0.009955414466538174
949 -0.008571650200671169 -0.0002332116064385298 -0.005652616903861042
1479 0.007458378522216455 0.00229324386075566 0.00948820144668827
936 0.014800788187141596 0.008117579794145556 0.025202563789857756
1487 -0.0004819477437561864 -0.0031430507371379675 0.001096680695615847
1486 0.005733011710018401 -0.020074571334115023 0.00956928160080597
475 0.006949315965916317 0.004724294227938619 0.007078304835570815
509 -0.0026383649569694232 -0.000611118093544824 0.007773889523027415
607 -0.01336901626550107 0.004394330851332276 -0.01713149732501922
761 0.0008179018289117332 0.0006779610697686436 -0.0010659076818975096
760 0.0037294423892687903 -0.003719587487707107 -0.0019025453578886877
476 -0.0006981370267452416 -0.0038329605003689206 0.0035499420362723605
935 0.0035947076874996717 0.00981913546995296 0.0013607476939724334
1488 0.01605840566087434 0.01573569379432628 0.001986904059526572
265 0.0178910532929358 0.006434765144349169 0.005099527080366071
1249 -0.008056042436344498 -0.00884922919181119 0.004220445083770666
1250 -0.003735006596013261 -0.0017732192023523173 0.0013565440096278822
1313 0.0007663903587341654 -0.0008546146646553529 0.005357419760638001
661 0.002249165233598839 -0.013342804641147944 -0.009274303351676554
1251 0.005787075932909274 -0.006748533367959809 -0.002631416056081282
662 0.0014994697283003515 -0.002583619798467756 0.001385634742980475
663 0.00257792974372454 -0.0011814291321269243 0.014161113169643802
985 -0.011782720050879545 -0.0028492314332655222 0.0032037756476465764
987 -0.0021635026756410413 0.014935283841916752 -0.003488037922184264
986 -0.00557520811433306 0.0009338651047678256 0.0009209023385529307
612 0.03542274531313756 -0.00527099615065584 -0.0075250716490213
610 0.007968804596686785 0.0017410883365455293 0.002274578010447946
611 -0.001463259765613825 -0.002980559784283408 0.0028727546806680045
99 0.0014324727975485558 -0.014292807330266593 0.00820954131678719
1412 0.0015893599824174482 0.004938996337878745 -0.0056653612034864125
675 -0.00986335445068807 -0.013726538374504526 -0.0205703703541388
674 0.0006931431584703158 0.004740857762594719 -0.0004443993308186048
673 -0.002659491158951587 0.018202516126402488 0.006852609469889195
1213 -0.00011622365046799877 0.0034108085524481315 0.001798170043061431
902 0.0057812720410613415 0.007190572834603735 0.0037152552723283805
478 0.006624185763256784 0.004239218123793351 0.014009328284926651
510 0.005111816057719212 -0.014160914169529028 -0.021752202725512714
1215 0.0004768502645986106 0.015281579096471477 -0.0050859749359841375
592 0.009649857489294767 0.006315536391985291 -0.007348051138817677
886 0.02008886736898456 0.010585910189875139 -0.0026541534720055486
508 -0.011210116565859407 0.0022304250194703193 0.00850790859300154
593 0.002648146699971673 -0.007382463420806203 -0.0006619710848025131
327 -0.011487243719319284 0.01979563725643188 -0.00606144633661105
876 -0.0035448392585045512 -0.014162026480934245 -0.0030581867772828102
1164 0.0014903173983764717 0.0240791240084744 -0.023488819507739053
14 0.002142927209256968 -0.005691778071465554 -0.004902258762736272
156 0.0021826264862123855 0.005278778733084453 0.0017345884299681455
1214 -0.00039539905106031044 -0.00180421150548944 0.0009989374941864041
16 -0.0019043455319305974 0.0158707587245276 0.0034891227389888977
759 -0.0008416189806804842 -0.003244889275816229 0.0005111579701124822
1475 0.0016308759913036637 -0.002130259567604027 -0.0017523565583667524
1064 0.00017498193611768464 0.0008767991899365951 0.008427839806962583
691 -0.0072010216749413694 -0.009143692469438816 0.01803066811286826
622 0.0006187727598812987 0.0035742961236608552 -0.005685197784832611
305 0.001954245076118633 0.007559519663575171 0.0016320461349628873
704 -0.0005075815208499255 0.005504488149261032 -0.0010378233556675126
703 0.007938458912181447 0.0058295595308578575 0.001380386659580254
1138 -0.0015774565708312396 -0.0016307476082200768 0.025311676380380562
41 0.002141573873809491 0.0028735620234163354 0.004348386494481737
705 0.006826103281256817 0.01103381914935918 -0.012458204217276395
154 -0.020014029382414738 0.0005418996342722693 0.005161749742997788
155 0.004041377461268908 0.0060088853718528136 0.002351667773675253
1439 -0.005539097962877428 0.008352521913552454 0.004983942622482082
1485 -0.003079414767973595 -0.001456294577012217 0.0008969747668746678
619 -0.005526450403742192 -0.005708979614507613 0.0038796278559509417
666 0.004125952477537241 0.006276386612733267 0.004723336249727774
620 -0.008852333173962753 -0.0002524022752434173 -0.00030693830153778046
621 -0.0035731808435069626 0.0031844875987639154 -0.004765809718488996
707 0.0017875116110232505 -0.0005365278409714009 -0.0026398539484312495
706 -0.015183023688031797 0.01179426126384072 0.00870637817194939
708 -0.005435477004707642 0.004660758928503011 0.0021705388728759166
90 0.000637915978483794 0.01479654360043674 0.010850334183647385
1310 -9.234001357453773e-05 0.0038221129330065066 -0.0034762668382104945
1311 -0.013178016441499692 0.009379531386514041 0.00012017859988490512
1309 0.008176505054477977 0.014086224295247123 -0.00960242004419792
887 0.00778075094194737 0.0022411322196179227 -0.002126409979081126
732 -0.014727990260931616 -0.012687820331320055 -0.0023004175161718105
564 0.0029650751255716873 -0.01124746255579356 -0.004828383829688699
29 0.005744588869325015 0.004711890290525232 -0.005664396759820019
28 0.006582160898508076 0.011678196458445849 0.004386398106682091
814 -0.012193212115671453 -0.011104471281603755 -0.006859893276698114
816 0.007141945403552372 0.010856781784131268 -0.0018456955966257994
1030 -0.0025875401831792475 0.00808162950830882 0.007552871980879073
815 2.8153780952374976e-05 0.005114163095014511 -0.0035278197414732506
1449 -0.012333992573415721 0.004664863855363102 0.004862375561477668
1448 0.0001439597757816041 0.0033214009572559463 -0.002140800581652611
1031 0.0068623662428382295 -0.00017027032999096983 -0.000989228181481899
807 0.00888778075090413 -0.00410965216847257 -0.0216641360252002
1032 0.002633219592496157 0.002620056425948795 -0.006715317279117203
805 0.008419902412493787 0.00720528026904621 -0.0058272362758580235
212 0.0045448213661636065 0.0027858523655473174 -0.0037581211250776203
211 0.004927324718979516 -0.03919869340024027 -0.003105118934142217
213 0.012902278620274536 -0.01671840845724497 -0.006096620144022353
806 -0.0004473910554703531 -0.001770027522813481 -0.00011580212474035977
1447 0.0007145087631176919 0.005804362981463529 -0.004697234655248099
97 0.007898390987786103 0.008757210830884692 0.004954058863254929
919 -0.009184286023597783 -0.01028753468002276 -0.0030702320484892287
1367 0.007007139545850598 -0.0021084241233030004 0.0022618438672966394
113 -0.0021709187108854325 -0.0010304847233013014 0.003238560573971305
13 0.01563318137465887 -0.012037792941340776 -0.00015520227420030895
709 -0.008514053310299054 -0.012358408453512321 -0.00840223406187293
1197 -0.006980447073294913 0.00873936472981221 0.007129039864420563
874 0.006116732571696632 0.00896071018693428 0.0056032059852003544
1195 -0.00733134508740272 0.022812867806397213 0.010744414444346258
142 0.01382864665013333 0.01822730476023345 -0.0010763539695213434
921 -0.0011197543031055259 -0.008654466706784499 -0.004902553528094674
1000 -0.016138516495484655 -0.018251043957505243 0.016865217719376532
1193 0.00042956204175756326 -0.004538959502367363 0.0006708544966516706
670 -0.006600521136590534 -0.022681829830513152 0.02953018448494369
1002 -0.012370894264223855 -0.011186554729755273 -0.0006031092782117141
143 -0.0012709917186486865 0.0019328792147833708 -0.0008776768515723438
929 0.008250857246712071 -0.0024822447132902383 0.0025719562762292277
1233 0.002082512003752678 -0.015420691819175696 -0.020741824687512705
671 -4.19266015622137e-05 -0.0050675497179631665 -0.005662263506957666
930 0.0075652759766751156 -0.005518923441430968 -0.0034863402175669546
1484 -0.0038659665942645553 0.0012810473645664916 0.0013076235289245113
1196 -0.0040706640661351354 0.005699086534594856 -0.0010019850692277261
1257 -0.00987516910357304 -0.002003754023356252 -0.007462140490936659
1330 -0.0038169932579851323 -0.0010413302017000742 -0.005816042900241207
764 0.00017004546244241337 -0.003570399837450489 0.0044890274292501324
1163 0.004694289074248807 0.0016314174881273103 -0.0005061037921783296
201 -0.0030445243508201206 -0.00465697719027807 -0.019518879167534156
1272 -0.01381424991507589 0.014115381377276985 0.008203547799538326
1190 -0.0007473224013528504 0.0003319340614454971 -0.006708195449541993
781 0.00031250216906414174 0.0034957590393094548 -0.005735364513980882
40 0.009579920113465845 -0.013623284164352259 -0.0015161037044370696
1192 -0.023909060823660077 -0.0328072790839728 0.011680236015531559
309 0.001045222963018128 -0.0014333307317293202 -0.009235348879253431
536 -0.00028820811388899885 -0.004909788899991234 0.0013754188806248911
535 -0.008559249921294136 -0.011035204571413682 0.0047556469297467836
182 0.0007003423764636712 0.005046203470247359 9.698002319632133e-05
181 0.0036375795870914867 0.02780430718962072 0.0054166943504198135
105 -0.009046357435609947 -0.023983355280459643 0.012578711597690096
736 0.008611016499322386 0.0004036158770804146 0.011573384173144791
648 -0.004782672537766691 0.006431965104175196 0.007549446709510011
647 -0.00898079924246319 -0.0002252991742470531 -0.0009994915948901128
1148 -0.0002785447658680479 -0.003323906114520034 0.006017324979410522
1147 -0.011453956402794667 -0.008940914925395116 0.01215729577565111
737 0.0024872584770132596 -0.000767929846932077 -0.0016410360768714229
537 -0.0036637320165176417 -0.00019307165539786175 -0.004174161766125876
1295 -0.004494769794225727 -0.0036585692758089854 -0.0011666487731309804
1149 -0.0013733130532130873 -0.005283934572718091 0.00146673623804139
1062 -0.007519578247086678 -0.011011525996066517 -0.002263180420874451
565 -0.0023945169841594056 0.022696963588746094 0.008194141329458554
738 9.653647686545728e-05 -0.0007469606901290797 -0.005457986582258826
1383 0.008486701149070686 0.005415567525992152 -0.0048534060026974215
1421 -0.0008104548713941892 0.0017512936811224244 0.004656828658814145
1410 -0.00079581053220191 0.011880152283295848 -0.006116516970585829
1296 -0.013933174055702569 0.001010275097444693 -0.012087127304646091
1085 0.0030617821717135217 0.005915795542657461 0.001169265639711302
646 -0.011887999497489076 -0.006187253495094418 -0.016123769772615475
1294 0.010621599459140483 0.005090233638919256 -0.0025786250131043546
752 0.004098680158902616 -0.0027959262425777632 0.0036251006281534746
751 -0.025882035285427395 0.0034313837098542467 0.0177676111797727
1408 -9.39296479963485e-05 0.015603658616439389 0.003710267842125645
579 -0.0069279626328419535 -0.01618184456553176 0.0175881826525453
1173 0.01083683020710058 0.014335980208318793 0.004040433556215043
141 0.007369970708807384 0.011280887562785885 0.002508207119225542
140 -0.0025577922890900047 -0.0037684379075223606 -0.0007847139591357474
139 0.0034076203594696577 0.007956476548738142 0.00020658326972960162
777 0.003472101883719798 0.005256672138856259 -0.006039306658000851
775 0.00436286372317426 0.005371748220060033 -0.01578653355687106
530 -0.0013802475494866216 -0.0010122221089622389 0.0005129802163296125
719 0.005717348651268939 0.0029443105516767493 0.003197098150445312
718 -0.0001691843575159388 -0.00014738326364041598 -0.01234119511303659
720 0.016865902123972685 0.005990139652540808 0.007086996216725639
776 0.0010923026841209384 -0.006203956380970886 -0.007066498181016738
132 -0.004362814934443194 -0.009379768985323892 -0.006907598030440379
130 0.013530485289250415 -0.01815785957347883 0.012336838543066107
550 0.0003748195218959734 -0.005287815769533039 0.010867477375182278
551 -0.006335411199117094 -0.0013602920286526874 0.00015428974687621625
131 0.004220096392530717 -0.0013177752645705016 0.004293307189894593
727 -0.01593297159328252 0.01494758713123052 0.008726576768120447
1405 0.001022781966679678 -0.004619172491189191 -0.004584376349330938
1246 -0.0018863757183980867 -0.022409007700866828 0.014426989457304326
1248 -0.010678450171805175 0.01790546973177936 -0.011664731655483757
1247 0.005614983403768883 0.007667262255132895 0.010278683418752719
552 0.0025032879445695197 0.005863349887090663 0.021868423149398315
500 0.0014747270896851902 0.0056590661866089565 -0.0005963259954823008
266 -0.0004633408165321311 0.00036400259862795904 -0.0009398957664322204
728 -0.0005813197254418117 -0.0005723680718565903 0.002244238679635467
897 0.009269676282886946 -0.0046710082712778135 0.01503829444648533
792 0.0015236393454768648 -0.011717798801603795 -0.004240925611847255
271 0.00567306742282756 0.024312913136065366 -0.011503323280857547
790 0.0041970730826286955 -0.003753591057054295 -0.01176393759638465
791 0.001278154019159756 0.0027768390507559673 -0.005096301580476193
383 0.006151310284219403 -0.0014097389027475072 0.0025767572061147627
1180 0.006149661130646092 -0.0044391186985052265 0.03183574841276037
273 -0.009283158191531691 0.025479120121342562 0.0008704109025879833
272 0.0031407346891212202 0.0028746184958331855 0.0016511747098980512
1034 -0.006289263289084448 0.0010980426069973903 -0.0015838549735636635
1033 0.000885882452093549 -0.006100578821866499 -0.00041918715298589095
1035 -0.006838023100842087 0.006564724373684572 0.00016483361905624287
1048 0.0032706703095048235 0.001537952358664038 0.011862570372620677
1218 -0.021249143731663603 0.00697816215678237 -0.019515381661235582
1098 -0.00585207753571965 -0.005939782251160855 -0.007325671127303562
120 -0.010666227271137795 -0.006900231292444204 -0.005941071858003206
103 0.022418519603507017 -0.015127021399968068 0.03651541914108474
145 -0.006016486467806947 0.013931782873462546 -0.0175177901386577
637 -0.002339403281307872 0.011113175263792279 0.0047065979514444205
639 0.017261993349230478 -0.00628292398208623 0.016031899659832323
528 -0.009214552765874632 -0.007351129435072137 -0.016907319680791205
567 -0.004217018631517318 0.0020153258713552927 -0.00975626427328048
940 -0.003503482658230965 0.0159666928702789 0.002293183036302947
638 -0.0013721074440393004 1.8136905319986496e-05 0.0031928003139607714
487 -0.03248624719692448 0.004585988300398576 0.028473427782232327
1185 -0.002365810371852407 0.021348783318932207 -0.0056486673435414934
808 0.0012461944151512837 -0.0017657058931782918 -0.0053568138248165625
467 -0.0031613571560777437 0.003731513715761446 0.002259759447346955
680 0.0038892685657691676 -0.002039503464409162 -0.002657968813012252
679 -0.018215063945314157 -0.009586507261524758 -0.025766706972590935
681 0.007810331112450042 0.004510380190803713 0.012679266829471602
4 0.0010670277005755048 0.014640306190185304 -0.019917422161586408
307 -0.00288164093849618 0.0013849957551916353 0.0016490266285100399
1078 -0.00095371126603886 -0.004920954978639615 0.0009603250584174613
1080 -0.006410756241027077 -0.009231866668968892 -0.002274363143269239
1079 7.760471437087162e-05 -0.000347632565216644 0.0007308758904763261
1097 -0.0038897862822664135 -0.0021842187678834586 -0.0042670718390938845
809 0.0024453137139874865 0.006932791521313136 -0.0007176542799445767
267 -0.0014599132476341933 0.005505865308969963 -0.008843340457739627
466 0.004418533991049764 0.003358515012680639 -0.008337040346788852
468 -0.010808835369247873 0.011726838474323566 -0.007355260103924559
1269 0.003453394060091464 0.005552672547862895 -0.005618492744560462
1268 -0.0018755129728172614 -0.00018879358055577843 -0.0021946183816520313
1267 0.0006329710577288295 0.0027161472831631404 0.0013757435635250235
1084 0.0011705739278345172 -0.009667462747877515 0.006939685898194415
933 0.02596505014040205 0.0209945397841315 -0.01011109164652659
1227 0.01143956660581327 0.019317147566422055 -0.0009612804080819903
787 -0.00979732534412488 -0.008705058662840411 0.0009547011489182198
27 0.0287934781030907 0.009131300724095208 0.028025553104964754
1341 0.00043466921569921695 0.004650664504373452 -0.003454199312281319
932 -0.005173027067405254 -0.005333291093936923 0.004118027248170153
164 0.004271938489913928 -0.0010815162736366513 0.001719140226000139
1235 -0.0024333146805967567 -0.006498429947261416 0.003323832313250342
1236 0.015980189082311802 -0.015677621750376115 0.012146072304845762
163 -0.01449304014027117 -0.012220600629945916 0.0017882925262079168
165 0.017370601431005703 0.004038992694013856 -0.004023194945601391
952 0.014783109828598463 0.0004991317573959016 0.0027706698820495514
953 0.0051882848095503135 0.0008136365556494116 -0.0001472497364317374
954 -0.01874547222418082 0.006087841359962261 -0.004143453344249852
1347 -0.011401419698322824 -0.006027516518578125 -0.02035933630851877
1189 0.015356967814786833 -0.01841595644347728 -0.003216975478464488
1345 -0.0043920657277767275 0.011501980890928307 0.00601918681899444
1234 -9.168978669479535e-05 0.0075449998437259165 -0.01332574938190222
1346 -0.005372965343543355 0.004113437624344143 -0.0035794804772728444
839 -0.0022477377432212255 0.004571601262017804 -0.002144113574809949
698 0.002781939487658074 -0.001694685543547207 0.0003759408016931222
1012 -0.0001333826406430754 -0.0037786183706342985 -0.010855333694987632
939 -0.005982739447480803 -0.0011742388770703653 -0.008976339481794885
938 -0.0006217352617050589 0.0016112841098943219 0.0026110318660284276
1013 -0.002575022654726366 0.004272504669286077 -0.00502210492984763
729 0.02149607495661282 0.007963774360704265 -0.005788453884295518
1014 0.0007552849526320051 -0.0024115271234163667 -0.006772555973453786
937 -0.005186487403809208 -0.0028281260700690016 -0.008032362577529728
529 -0.005032756466277946 -0.004490638056061328 -0.00043428620663630207
959 -0.004987516958961174 0.00015867338291121797 0.0072912799153595385
652 -0.020311718550881125 -0.019485047718890727 0.003585292173753814
58 -0.004740439458173181 0.003321553684716712 0.013314471834787919
172 -0.0054806011553180135 -0.01024763417148023 -0.019111598183452032
699 0.006467979317039236 0.00816484394881395 0.008471176033174696
50 0.0005629332356345644 -0.002527801444524335 0.0024476686637199697
1444 -0.010795916369900481 0.0028592747317503385 -0.001883459905973092
697 -0.016923947248837386 0.00815541589001493 0.03193150344805877
1445 0.0016867876541236584 -0.0023623066131991774 0.004177307451287045
1446 7.725204163678706e-05 -0.003494294834153738 0.028015900534767466
51 -0.004361097519488413 0.013101825264792909 0.01893071846652668
49 0.0016551397035801242 -0.009226522744409243 -0.005612477056851522
653 0.0004438415475225835 -0.006169212277578981 -0.0022171547769453607
958 0.013388429234454807 0.01025316694025426 0.004087448743963819
59 -0.005985680017160911 0.00017166391337297693 -0.0009349397504366429
8 -0.003231383803167414 0.0016857138314271816 0.0003588368270408443
1 0.0010830773729207034 0.000507977444288905 0.01700954006957852
173 -0.000600928266753076 -0.004191756235368592 0.002718743574386753
501 0.00037034192460791676 0.005404873043229595 0.005953766627474301
960 -0.03143110415894416 -0.0005821774974031029 0.017849447472644376
168 -0.0040166343618330295 0.0007724988418207967 0.010018396441918006
1021 0.0034074022513824465 -0.002443710669814318 0.017563523909960445
1493 0.0032409274871088565 0.0011573666126235651 0.0007350612188535144
2 -0.0036903515578690493 0.0005018544827258682 0.012440596609009712
414 0.007808480241586502 0.007801321676391312 -0.0016667273927678415
439 0.0036972477940652136 -0.014998939245552748 0.02325181058695061
441 -0.020851983701980003 0.0024529876471352996 -0.014735749653754494
1385 -0.001914397032513223 -0.0006111180223084923 0.008676963592586127
1384 -0.011833644803895088 0.01652499250008987 0.019039272235470014
1271 0.00030685633147940414 0.006308843779209149 0.004538564822366093
488 0.00036632693773687935 0.0029851025087550206 0.0036772863576251917
617 0.0026592487769306573 -0.0010065699750258696 -0.005563627139683709
453 -0.004020002433649711 0.0002782593180381701 -0.010794381323433397
44 -0.0015420017610629523 -0.000706586645798348 0.0006460376946115777
1386 -0.012339758537045964 -0.014088631404549051 -0.01172271330283188
308 -0.003420590600907322 -0.0007175512033364139 -0.00422978122850722
3 -0.003909546583935143 -3.976990223209049e-05 0.0028652491292502657
1492 -0.00853991425536343 0.0023513931783120745 -0.00789403594571395
413 0.002419901340197518 0.0013097793561485324 7.569788726981096e-05
1308 0.011615317353480472 -0.00205114077429222 0.014678648794272345
43 0.00018237524063657203 0.0002501184797588786 0.00653717455021161
440 -0.012280759625598707 -0.0022437390114917067 0.00021513687843721738
1086 -0.015176708548755677 -0.013543364398711321 0.0006278615007892729
1183 0.006156881857929812 0.013904650345124725 0.005349476689282259
1226 -1.2890768126245215e-05 -0.0042959949120423635 -0.0006329917925461746
810 -0.0020102026905530644 0.0043298523204133455 -0.006099204215701381
559 0.00034290967499903867 0.01988099721602233 0.0029223670436224524
167 0.0013067422392075956 0.0026559569529845555 -0.0020009305790515556
527 -0.0034636844267408036 0.004538807737029481 0.00023972848197205312
412 -0.0009974210631605348 0.009525560214265656 0.007368727624494186
1209 0.009305221617573828 -0.009996790872644766 0.0046150830357726165
45 0.003353121262346649 -0.008373736142914963 -0.00018752445832815012
315 -0.008743023421382518 0.01436913968472705 0.0041989004356718165
26 -0.0022942619286573677 0.005082714334423638 -0.00115060657298438
1208 0.002509139883680471 0.0034716471645142126 0.001094461872660437
1494 0.004453411793688516 0.002718734520305729 0.0015849249314650801
1153 0.007772688372231595 0.006002367386724578 -0.019408435438252377
1306 0.01880439645774879 0.009428463685562079 0.001006848732508394
1229 0.0007887179335832783 0.008841154228968766 0.004548049803901307
1230 0.012951832483848994 0.0011864924793209327 0.0071583035873344514
1228 0.014328468455376888 -0.0009593949785480301 -0.007283995118658161
1352 0.004175637637469153 -0.0002971272105829277 0.004780669520393467
418 0.0012206847072283532 -0.0038687451915064295 0.007449102245718411
314 -0.0023448646607466006 0.004627843963171416 0.004190468320435648
313 -0.009720113930801513 0.015826337879546196 -0.0013988467767536293
1351 -0.004527065146635707 0.019029660741684235 0.009625026669593546
419 -0.003958987833351555 -0.004783723492943524 0.005953827740580976
420 0.0020788786172413294 0.006426575428157539 0.017971737050131876
1353 -8.47293008041196e-05 -0.016388739824950115 0.017782797132866665
1307 0.0033551479820132907 0.0030740680775953153 -0.004507414982410071
616 0.0064407523590547236 -0.007826758223487863 -0.01301029852800955
1207 0.0024614928390369376 -0.024621394467468152 0.006065909742096596
840 -0.007198964117547303 -0.006634338035346286 -0.024555736638119236
1191 -0.006575266295762248 -0.0016510793430450997 -0.010539148564948466
25 -0.0018995415613790986 0.005119577296563989 -0.0007495437715427549
104 0.003632460907302981 0.004503590108237156 -0.005708785695588279
1123 -0.00023164117154752837 0.004497891166803393 0.0022048674555272085
1454 0.0034158143222875327 5.7525029169791734e-05 -0.0037618323237813933
275 0.003822654333759742 -0.00041563851524901324 0.0015894246634888583
1124 0.0012423025505152465 0.0027576925995622635 -0.003031785254405454
566 0.004081199244444172 -0.0020444781666355033 -0.003760971088320132
183 0.011570269429709089 0.01335163024617666 0.003458868925973081
981 -0.002103556097124668 -0.0027803048411883364 0.012525246417474576
980 -0.003934663057025566 0.004101209771333653 0.0015555507446789172
979 -0.0028078600575057234 0.015698201919310862 -0.002635604795220057
276 0.003758469032102795 -0.0016766599664973121 -0.006058554682517864
1364 -0.001877402416369978 0.01078911121868775 -0.001445730019551263
1363 -0.005359998178969382 0.02030456767481868 -0.00866447439256443
1120 -0.002889803169927603 -0.005387547734693323 0.008880115224036762
194 -0.005391556867478536 0.0012991041878462088 -0.0018835450259013344
1365 0.0066112593607638775 0.0020577722785377357 -0.009906077015307052
195 -0.013010830127179095 -0.014771990612544167 0.006344141091290677
531 -0.003542047646794347 -0.0030543050302974644 0.001454594111002788
455 -0.011649316111805873 -0.0041258764954816285 0.003721956149005973
456 -0.01867489807863531 0.005492069293770085 -0.026965260363130617
1217 -0.003881514602872987 0.0059970884859234215 -0.006675232720059294
274 -0.0014422075227393343 -0.0014027056477197227 0.0018022950751531745
471 0.004928535769883228 -0.01433312462018524 0.00479408288454101
561 -0.002899347723100831 -0.012843000132064079 -0.014515471637524039
1289 -0.0054234508087234136 0.005646602881097753 0.0019700358868635142
1279 -0.0013289439582277747 0.016955692082264287 0.009311810381413927
1061 -0.0033744883721113887 -0.00372912042820735 -0.0017708738267378755
1280 0.00034991897079254065 -0.004709985644591799 0.004313080222500419
1281 0.02112914329340779 -0.007155554081621283 -0.006298688973754039
716 6.506971010596773e-05 -0.007332018718548185 -0.00044163012468530606
1290 -0.009021549497522683 -0.007311931350859007 0.019359370962598873
710 0.003393733015980301 0.0037723279384354155 -0.0034845271822756658
408 -0.0015369350545687565 -0.016961411815749314 0.014683781988564765
1387 -0.006774305054391171 0.002782724133080258 -0.005333427793787033
715 0.008446871511088479 0.02922821726626527 -0.017226152493892685
1388 0.0013151432414692788 -0.0002775672396643027 0.0009843482406722377
1389 -0.009484255767445065 0.0038391698487760238 -0.004062751371246241
753 0.018908766348428255 0.0005848742946260548 0.02421972166775672
244 0.005030869795959483 -0.005329135082358051 -0.00945478584075772
246 0.017302880463200995 0.02603955384127535 -0.014337954185122992
838 -0.008478334884211507 0.01460612206560338 0.010611567147800604
245 -0.00011787996832976075 0.0003213719417219992 0.0024443810491236464
1184 0.006881354341959815 -0.008014442402478523 0.0029648729975336498
524 0.00026590215168057944 -0.00102272572319595 0.0011255137352313277
525 0.018365010609660594 0.0034340288228910214 0.0012453594159916991
654 -0.002918479211844217 0.014003373487461473 -0.0014771267298017198
1060 -0.005929332302730243 -0.011761937594225344 -0.0013115300650309398
818 0.004739933290887516 -0.00314855413082921 0.006062733028674877
523 -0.02326724990366453 -0.025783983185226515 -0.009372234425107012
618 -0.010893615953739572 0.007727981660018978 -0.003684885392415625
499 -0.005143309707546274 0.00393446109918018 0.00920783963142744
1420 0.006222083547653914 -0.0009875473333451476 0.003856807997493704
1181 -0.0003805323189393551 -0.0009473277434874594 0.0062764831629418035
1182 0.005051714984852382 -0.008418392734354135 -0.012906015816062372
819 0.014974123816083667 0.0012214774963237062 0.004079224577911569
900 0.00877990645460134 0.017440279229890242 0.00022839844625977093
899 0.0007584617820326407 0.0024874819486282855 -0.0012652958611810584
898 0.017797766104531397 -0.0031722263573809957 -0.0008109263172630188
817 0.010075960804981526 0.00519531403482672 0.013180607558544376
1026 0.005308761980612625 -0.003512696433530962 -0.0072847381617962784
829 -0.016915244541953974 0.010957514821686713 0.0010086601121288461
1025 -0.0020167467872065753 -0.0051835060110048455 0.0007983813256347909
1024 0.002601531722560749 0.013217647223173918 0.01240821194830545
830 0.0023620805501039415 -0.0007691433662707617 -0.001362016918190376
831 0.026878089674567174 -0.012567634370746119 -0.003968953181456717
69 -0.009149316179897471 -0.0008633066449156562 -0.0006461652626014779
67 -0.020238007974334435 0.0092436523055926 -0.007364528156159951
68 0.004744281479595039 -0.005599320688342477 -0.002904975292901457
450 0.015221098742355537 0.0023082800672870325 -0.023059015782129627
789 0.0006507251605911261 0.015478168547353514 -0.0011448860283345887
449 -0.001143370024616978 0.0031896484471291096 0.0023944603098881596
1333 -0.009581305708609301 0.007411244720645893 0.009647931907908958
1334 0.005389003724220167 0.0005529682651023396 -0.004308116388771876
1455 -0.003077399465177969 0.0027831549084234007 -0.007466554986362899
345 -0.0063955783536727056 0.0061874750483656244 0.00035921525632489926
447 -0.012758431273692484 -0.004175685118429517 -0.00841011126026849
344 -0.0033437881478777585 0.0007764110014602141 -0.0015221236611133607
1194 0.009141894797938262 0.0007642828183242512 -0.0014810950726109554
601 0.018774065288196955 0.0060529906667978525 -0.007067072519728228
5 0.004975545776669303 -0.0018041239564154537 -0.001645062605564762
451 0.007519612594531665 -0.0009021265752150797 0.010879951229958157
602 0.0003871961655711061 -0.00242199183193469 -0.0007146827787875656
193 -0.0060928010964289535 0.0290425653189055 0.004811482790001051
603 0.008142972723786073 0.003041761681210117 -0.010067426679037277
560 -0.0021770452876419687 0.003948138599949385 -0.005315159683224488
1329 -0.0015547789079658437 -0.0005635934115128087 -0.0026154230992368587
1456 -0.016727764368308768 -0.0016515711392032161 0.00990116296611176
788 0.003001213419425954 -3.93607020989824e-05 -0.005381145546006475
1458 0.005181283084311493 -0.006968071020880906 0.00022354046718314752
1457 0.0017379413205408432 -0.005350514666965342 -0.001539315298931593
207 -0.016458760401900915 -0.000452462720627482 0.0015695067498744245
205 0.021273884766148766 0.0011228505524459875 0.016500665198486184
206 0.0014412347651347553 -0.00010923140262433093 0.003757562443196512
445 0.008512667085753588 -0.009334699522836663 0.002395394650394401
446 0.0014666741302687004 0.005564245823114698 -0.001767533812440666
454 0.005837644346588191 0.005879751269716053 -0.020067217430319157
1340 0.0001321517662902657 0.003870555069196684 0.001121948650791512
1328 0.0023893890218617104 -0.0015544785788721284 4.089193674611227e-06
1121 -0.002093107764761531 -0.008067214528301218 -0.003156163882013256
1327 0.01919481280278431 0.0020661835248033584 0.0033634254255494682
1339 -0.0023284784326348304 0.0027800750149844476 -0.007731052701558459
470 -0.0012466534844357406 0.0011219831507940257 -0.006274748934933812
1122 0.0016778077330835833 -0.026047773569033508 -0.021676986693181143
72 -0.01362804733714663 0.0007665680361061727 -0.0011112967395324202
969 0.012338127664923707 -0.008275261526367672 -0.026285358500213896
526 0.0008692387854154122 0.0016301031683350112 -0.005087932665092797
1422 -0.013981435907485984 0.007425137758031626 0.000999893877555299
71 0.004935244734779534 0.003979003656807822 0.0033773369522322708
70 0.007886121019919763 0.02305053275754179 -0.008871860021572557
1011 0.005731528645825285 0.0008174614018761384 -0.003005188189332451
1009 0.006861069989837633 -0.0035042370547651823 0.025761591300801998
1010 0.005087243275206849 0.00030056179018312485 -0.0035284727061583197
549 0.0026013850687934353 -0.006355778475060186 0.002241507305762276
548 0.002510864634190911 0.0010206903699273295 -0.002615924739032186
547 -0.004820011621023172 -0.00966836931143293 0.0070070851796284975
717 -0.012103507145375662 -0.008491148396258825 0.01620261257700893
856 0.015820538600757272 -0.012177891157249036 0.010840671385226496
174 -0.01904800704461414 -0.005521814588150383 -0.009408848413956934
1371 -0.01432539265299508 -0.002777287409813584 0.0017362364831263347
577 0.016084830846829722 -0.021464766748869296 0.004109089355122208
857 0.0011546303924852785 0.002784228472437383 0.0008851019338275045
968 0.0012989887100473424 0.0012279122367280892 -0.0022506299663880304
60 -0.019302321642605355 -0.013888817469668474 -0.00013448073075735797
858 -0.0014861177981142905 0.003809369401062614 0.001469083937974673
354 -0.0017438304798849857 -0.01605730963090347 0.011531296177520927
353 -0.005113209275467676 -0.005669817699904486 -0.003239189776595346
262 0.0009705580556148877 -0.011970147576138861 0.00804660100592464
264 -0.000296493115933999 0.0033299600875712405 0.010196209929332276
263 -0.0037694777538833735 -0.004966586238066373 0.00594973181259865
1369 -0.007213645793555825 -7.867777793671115e-05 0.0013703583514043697
1370 -0.001079903700513605 0.0028351757444497368 0.0007322507463695074
352 0.00024021941544720904 -0.007448311070623014 -0.013876526615356669
1453 0.010011630021747068 0.006255802337299819 -0.002294427028087959
903 0.018743936328935548 0.006534489440871621 0.020269213726060362
88 0.016523339398691314 -0.014384284699167832 0.0056746688857256655
1003 -0.0003264964778593674 -0.002884748903503861 -0.0019921430490164836
469 -0.006570653806591022 0.006974601234443575 -0.010568641260574899
1270 0.004517180739601383 0.001145873783882321 -0.004975849986866047
1165 -0.004464507352074247 -0.015832820700695534 0.001507255958020901
1166 -0.006868355304621622 -0.0036035772512416258 0.0011034417155174018
822 0.01413316898654747 -0.003508508761489788 0.0009634196808203572
821 0.004510564741147116 -0.0054608072265344065 -0.002346345019450016
820 0.013890392642157582 0.0059992659240087395 -0.00027760954562771364
870 -0.003592285880238793 0.011940087671240808 0.0027719297982050388
37 0.007136502771275593 0.014874750880447015 -0.006277999122761053
448 0.017675241269394997 -0.0008858751060502856 -0.020403060631439682
115 0.009257485585848142 0.0043574333757223 0.004042787971431284
116 -0.0021755553730259587 -0.0007107786525026474 -0.006136372797108384
869 -0.002311866767809468 0.006681538472031264 -0.0008790775211770071
117 -0.015053665071772604 0.015821658164728667 0.005321314293886982
588 0.004592638579631505 -0.01274236358832967 0.0033009520831419168
587 -0.0005316562581680957 -0.008078837918335371 -0.004776774403900812
868 0.017770887814498322 0.0031138988523702407 0.006957193010223721
489 -0.02501975610594786 0.009854817028857614 0.014807287277150825
586 -0.01782682347535859 0.004962196989216431 0.006351108082377248
1167 -0.000831647748133942 0.0019745311016911406 0.0016238417141442724
39 0.01101229715252511 -0.016075297768450673 0.019788404839893282
38 0.0023792187572797855 0.0013600180714864172 -0.002014418722807231
89 0.0015937882828557027 0.004131116644406944 0.013301167537163127
1225 -0.026609617902889272 -0.03135574865578954 0.0090043035127059
166 0.008030769457352649 0.00024177788199472502 -0.007216776624365253
941 0.0001568385239362059 0.009766276890806702 -0.002194190997522916
901 0.0030875144940815105 -0.025493499394870417 -0.007391096477207466
1483 -0.001884281053977576 -0.012479005254270203 -0.0005977324582277107
1171 -0.0030409893923648438 -0.016411682025323508 -0.003954967086418045
711 -0.004142823188770242 0.020859141915198234 -0.006891889872756527
942 -0.0056974494084883085 0.0033697271802372196 -0.004062461221030604

Bonds

1 1 695 696
2 1 394 395
3 1 634 635
4 1 209 210
5 1 341 342
6 1 1261 1262
7 1 635 636
8 1 754 755
9 1 745 746
10 1 1337 1338
11 1 1336 1337
12 1 1244 1245
13 1 694 695
14 1 1115 1116
15 1 208 209
16 1 973 974
17 1 1118 1119
18 1 1117 1118
19 1 340 341
20 1 823 824
21 1 1265 1266
22 1 974 975
23 1 851 852
24 1 1007 1008
25 1 1006 1007
26 1 1150 1151
27 1 1094 1095
28 1 1151 1152
29 1 763 764
30 1 1423 1424
31 1 1424 1425
32 1 1093 1094
33 1 1466 1467
34 1 250 251
35 1 1054 1055
36 1 1264 1265
37 1 505 506
38 1 506 507
39 1 905 906
40 1 251 252
41 1 1283 1284
42 1 833 834
43 1 904 905
44 1 191 192
45 1 199 200
46 1 200 201
47 1 124 125
48 1 1477 1478
49 1 832 833
50 1 239 240
51 1 1343 1344
52 1 11 12
53 1 755 756
54 1 928 929
55 1 649 650
56 1 320 321
57 1 217 218
58 1 1379 1380
59 1 1378 1379
60 1 1396 1397
61 1 1397 1398
62 1 218 219
63 1 280 281
64 1 281 282
65 1 325 326
66 1 575 576
67 1 122 123
68 1 290 291
69 1 1055 1056
70 1 643 644
71 1 34 35
72 1 35 36
73 1 1129 1130
74 1 554 555
75 1 553 554
76 1 785 786
77 1 289 290
78 1 364 365
79 1 365 366
80 1 397 398
81 1 395 396
82 1 1262 1263
83 1 1355 1356
84 1 458 459
85 1 920 921
86 1 91 92
87 1 1019 1020
88 1 1018 1019
89 1 463 464
90 1 464 465
91 1 1144 1145
92 1 1282 1283
93 1 94 95
94 1 95 96
95 1 1051 1052
96 1 1052 1053
97 1 185 186
98 1 517 518
99 1 437 438
100 1 1199 1200
101 1 1243 1244
102 1 1198 1199
103 1 317 318
104 1 316 317
105 1 371 372
106 1 370 371
107 1 149 150
108 1 148 149
109 1 1091 1092
110 1 1418 1419
111 1 1090 1091
112 1 1417 1418
113 1 79 80
114 1 80 81
115 1 389 390
116 1 946 947
117 1 398 399
118 1 1187 1188
119 1 947 948
120 1 871 872
121 1 872 873
122 1 1393 1394
123 1 1394 1395
124 1 299 300
125 1 835 836
126 1 1220 1221
127 1 298 299
128 1 1219 1220
129 1 803 804
130 1 836 837
131 1 1028 1029
132 1 1027 1028
133 1 56 57
134 1 125 126
135 1 824 825
136 1 1462 1463
137 1 134 135
138 1 133 134
139 1 793 794
140 1 1463 1464
141 1 794 795
142 1 293 294
143 1 766 767
144 1 767 768
145 1 964 965
146 1 965 966
147 1 184 185
148 1 85 86
149 1 1145 1146
150 1 238 239
151 1 989 990
152 1 850 851
153 1 1160 1161
154 1 1159 1160
155 1 988 989
156 1 1375 1376
157 1 1376 1377
158 1 689 690
159 1 677 678
160 1 1130 1131
161 1 1186 1187
162 1 1471 1472
163 1 1472 1473
164 1 676 677
165 1 629 630
166 1 1255 1256
167 1 416 417
168 1 269 270
169 1 268 269
170 1 385 386
171 1 386 387
172 1 197 198
173 1 545 546
174 1 544 545
175 1 574 575
176 1 976 977
177 1 655 656
178 1 319 320
179 1 1429 1430
180 1 1430 1431
181 1 1240 1241
182 1 109 110
183 1 110 111
184 1 656 657
185 1 1400 1401
186 1 1399 1400
187 1 377 378
188 1 376 377
189 1 1241 1242
190 1 86 87
191 1 388 389
192 1 977 978
193 1 784 785
194 1 1354 1355
195 1 1211 1212
196 1 1210 1211
197 1 214 215
198 1 644 645
199 1 215 216
200 1 1016 1017
201 1 1015 1016
202 1 1442 1443
203 1 1441 1442
204 1 322 323
205 1 323 324
206 1 82 83
207 1 83 84
208 1 893 894
209 1 782 783
210 1 739 740
211 1 740 741
212 1 877 878
213 1 422 423
214 1 688 689
215 1 175 176
216 1 176 177
217 1 247 248
218 1 230 231
219 1 229 230
220 1 743 744
221 1 248 249
222 1 221 222
223 1 568 569
224 1 863 864
225 1 436 437
226 1 196 197
227 1 746 747
228 1 802 803
229 1 521 522
230 1 349 350
231 1 1342 1343
232 1 428 429
233 1 350 351
234 1 1315 1316
235 1 1316 1317
236 1 862 863
237 1 1285 1286
238 1 626 627
239 1 625 626
240 1 1286 1287
241 1 121 122
242 1 892 893
243 1 1465 1466
244 1 569 570
245 1 427 428
246 1 518 519
247 1 1298 1299
248 1 1297 1298
249 1 628 629
250 1 421 422
251 1 520 521
252 1 1112 1113
253 1 1331 1332
254 1 278 279
255 1 277 278
256 1 1072 1073
257 1 667 668
258 1 889 890
259 1 295 296
260 1 797 798
261 1 796 797
262 1 1324 1325
263 1 118 119
264 1 700 701
265 1 701 702
266 1 296 297
267 1 1325 1326
268 1 668 669
269 1 1403 1404
270 1 1402 1403
271 1 242 243
272 1 482 483
273 1 241 242
274 1 733 734
275 1 734 735
276 1 1360 1361
277 1 481 482
278 1 1058 1059
279 1 410 411
280 1 409 410
281 1 220 221
282 1 926 927
283 1 842 843
284 1 1216 1217
285 1 1040 1041
286 1 1045 1046
287 1 841 842
288 1 1291 1292
289 1 1292 1293
290 1 1303 1304
291 1 1304 1305
292 1 1046 1047
293 1 685 686
294 1 1039 1040
295 1 686 687
296 1 580 581
297 1 119 120
298 1 64 65
299 1 511 512
300 1 512 513
301 1 514 515
302 1 515 516
303 1 65 66
304 1 284 285
305 1 283 284
306 1 1223 1224
307 1 722 723
308 1 721 722
309 1 859 860
310 1 581 582
311 1 1222 1223
312 1 1067 1068
313 1 1277 1278
314 1 1480 1481
315 1 1481 1482
316 1 1259 1260
317 1 1258 1259
318 1 1106 1107
319 1 1276 1277
320 1 1433 1434
321 1 1432 1433
322 1 1105 1106
323 1 860 861
324 1 158 159
325 1 157 158
326 1 425 426
327 1 1450 1451
328 1 101 102
329 1 1451 1452
330 1 452 453
331 1 358 359
332 1 359 360
333 1 361 362
334 1 925 926
335 1 362 363
336 1 853 854
337 1 260 261
338 1 1381 1382
339 1 461 462
340 1 583 584
341 1 584 585
342 1 460 461
343 1 259 260
344 1 1357 1358
345 1 329 330
346 1 328 329
347 1 854 855
348 1 682 683
349 1 1318 1319
350 1 92 93
351 1 1358 1359
352 1 491 492
353 1 845 846
354 1 1322 1323
355 1 1321 1322
356 1 844 845
357 1 431 432
358 1 430 431
359 1 1043 1044
360 1 1042 1043
361 1 490 491
362 1 106 107
363 1 368 369
364 1 497 498
365 1 1073 1074
366 1 311 312
367 1 424 425
368 1 995 996
369 1 994 995
370 1 1114 1115
371 1 310 311
372 1 485 486
373 1 392 393
374 1 542 543
375 1 391 392
376 1 46 47
377 1 287 288
378 1 473 474
379 1 472 473
380 1 1082 1083
381 1 1136 1137
382 1 1135 1136
383 1 1081 1082
384 1 286 287
385 1 47 48
386 1 407 408
387 1 406 407
388 1 1036 1037
389 1 659 660
390 1 1102 1103
391 1 1156 1157
392 1 1157 1158
393 1 1178 1179
394 1 100 101
395 1 224 225
396 1 967 968
397 1 1022 1023
398 1 614 615
399 1 749 750
400 1 748 749
401 1 1177 1178
402 1 613 614
403 1 917 918
404 1 916 917
405 1 1406 1407
406 1 650 651
407 1 223 224
408 1 187 188
409 1 188 189
410 1 991 992
411 1 992 993
412 1 1175 1176
413 1 1373 1374
414 1 1154 1155
415 1 1174 1175
416 1 895 896
417 1 962 963
418 1 896 897
419 1 572 573
420 1 379 380
421 1 1066 1067
422 1 1169 1170
423 1 961 962
424 1 1076 1077
425 1 847 848
426 1 76 77
427 1 571 572
428 1 400 401
429 1 401 402
430 1 77 78
431 1 170 171
432 1 169 170
433 1 1168 1169
434 1 848 849
435 1 1057 1058
436 1 1126 1127
437 1 1037 1038
438 1 1127 1128
439 1 7 8
440 1 128 129
441 1 178 179
442 1 538 539
443 1 539 540
444 1 914 915
445 1 913 914
446 1 179 180
447 1 127 128
448 1 374 375
449 1 812 813
450 1 146 147
451 1 1390 1391
452 1 1087 1088
453 1 683 684
454 1 599 600
455 1 367 368
456 1 658 659
457 1 598 599
458 1 373 374
459 1 301 302
460 1 890 891
461 1 1361 1362
462 1 302 303
463 1 404 405
464 1 256 257
465 1 257 258
466 1 770 771
467 1 1075 1076
468 1 1372 1373
469 1 769 770
470 1 1256 1257
471 1 22 23
472 1 403 404
473 1 556 557
474 1 107 108
475 1 884 885
476 1 883 884
477 1 557 558
478 1 1238 1239
479 1 1391 1392
480 1 484 485
481 1 1088 1089
482 1 1237 1238
483 1 494 495
484 1 493 494
485 1 779 780
486 1 778 779
487 1 595 596
488 1 596 597
489 1 23 24
490 1 811 812
491 1 496 497
492 1 52 53
493 1 1096 1097
494 1 1382 1383
495 1 53 54
496 1 55 56
497 1 541 542
498 1 1103 1104
499 1 382 383
500 1 1288 1289
501 1 1319 1320
502 1 1111 1112
503 1 1049 1050
504 1 380 381
505 1 190 191
506 1 910 911
507 1 911 912
508 1 1070 1071
509 1 1069 1070
510 1 944 945
511 1 1498 1499
512 1 578 579
513 1 343 344
514 1 724 725
515 1 160 161
516 1 1139 1140
517 1 922 923
518 1 112 113
519 1 1004 1005
520 1 161 162
521 1 878 879
522 1 1133 1134
523 1 1132 1133
524 1 1469 1470
525 1 1468 1469
526 1 997 998
527 1 970 971
528 1 998 999
529 1 1489 1490
530 1 971 972
531 1 292 293
532 1 1411 1412
533 1 415 416
534 1 457 458
535 1 604 605
536 1 632 633
537 1 605 606
538 1 589 590
539 1 631 632
540 1 590 591
541 1 434 435
542 1 1460 1461
543 1 1459 1460
544 1 17 18
545 1 982 983
546 1 1162 1163
547 1 98 99
548 1 1490 1491
549 1 1409 1410
550 1 1478 1479
551 1 10 11
552 1 641 642
553 1 640 641
554 1 983 984
555 1 934 935
556 1 335 336
557 1 1300 1301
558 1 1301 1302
559 1 334 335
560 1 875 876
561 1 742 743
562 1 1438 1439
563 1 725 726
564 1 1063 1064
565 1 943 944
566 1 73 74
567 1 1426 1427
568 1 1202 1203
569 1 623 624
570 1 532 533
571 1 533 534
572 1 826 827
573 1 74 75
574 1 1201 1202
575 1 137 138
576 1 1001 1002
577 1 136 137
578 1 1109 1110
579 1 479 480
580 1 712 713
581 1 1499 1500
582 1 757 758
583 1 758 759
584 1 923 924
585 1 827 828
586 1 956 957
587 1 152 153
588 1 151 152
589 1 931 932
590 1 865 866
591 1 866 867
592 1 955 956
593 1 338 339
594 1 692 693
595 1 1142 1143
596 1 1141 1142
597 1 1349 1350
598 1 1348 1349
599 1 337 338
600 1 356 357
601 1 227 228
602 1 226 227
603 1 355 356
604 1 799 800
605 1 304 305
606 1 713 714
607 1 1231 1232
608 1 1435 1436
609 1 1366 1367
610 1 881 882
611 1 563 564
612 1 1232 1233
613 1 562 563
614 1 332 333
615 1 331 332
616 1 1495 1496
617 1 880 881
618 1 253 254
619 1 1108 1109
620 1 502 503
621 1 503 504
622 1 254 255
623 1 1496 1497
624 1 1436 1437
625 1 236 237
626 1 442 443
627 1 443 444
628 1 235 236
629 1 233 234
630 1 1415 1416
631 1 1414 1415
632 1 773 774
633 1 772 773
634 1 1172 1173
635 1 232 233
636 1 1205 1206
637 1 1204 1205
638 1 608 609
639 1 1474 1475
640 1 1427 1428
641 1 202 203
642 1 907 908
643 1 1312 1313
644 1 346 347
645 1 347 348
646 1 203 204
647 1 800 801
648 1 730 731
649 1 731 732
650 1 664 665
651 1 665 666
652 1 62 63
653 1 326 327
654 1 908 909
655 1 1252 1253
656 1 1253 1254
657 1 1273 1274
658 1 1274 1275
659 1 31 32
660 1 1099 1100
661 1 61 62
662 1 32 33
663 1 950 951
664 1 19 20
665 1 20 21
666 1 433 434
667 1 1100 1101
668 1 949 950
669 1 1487 1488
670 1 1486 1487
671 1 475 476
672 1 509 510
673 1 607 608
674 1 761 762
675 1 760 761
676 1 476 477
677 1 935 936
678 1 265 266
679 1 1249 1250
680 1 1250 1251
681 1 1313 1314
682 1 661 662
683 1 662 663
684 1 985 986
685 1 986 987
686 1 610 611
687 1 611 612
688 1 1412 1413
689 1 674 675
690 1 673 674
691 1 1213 1214
692 1 902 903
693 1 478 479
694 1 592 593
695 1 886 887
696 1 508 509
697 1 593 594
698 1 14 15
699 1 1214 1215
700 1 16 17
701 1 1475 1476
702 1 1064 1065
703 1 691 692
704 1 622 623
705 1 305 306
706 1 704 705
707 1 703 704
708 1 1138 1139
709 1 41 42
710 1 154 155
711 1 155 156
712 1 1439 1440
713 1 619 620
714 1 620 621
715 1 707 708
716 1 706 707
717 1 1310 1311
718 1 1309 1310
719 1 887 888
720 1 29 30
721 1 28 29
722 1 814 815
723 1 1030 1031
724 1 815 816
725 1 1448 1449
726 1 1031 1032
727 1 805 806
728 1 212 213
729 1 211 212
730 1 806 807
731 1 1447 1448
732 1 97 98
733 1 919 920
734 1 1367 1368
735 1 113 114
736 1 13 14
737 1 709 710
738 1 874 875
739 1 1195 1196
740 1 142 143
741 1 1000 1001
742 1 1193 1194
743 1 670 671
744 1 143 144
745 1 929 930
746 1 671 672
747 1 1484 1485
748 1 1196 1197
749 1 1330 1331
750 1 764 765
751 1 1163 1164
752 1 1190 1191
753 1 781 782
754 1 40 41
755 1 1192 1193
756 1 536 537
757 1 535 536
758 1 182 183
759 1 181 182
760 1 736 737
761 1 647 648
762 1 1148 1149
763 1 1147 1148
764 1 737 738
765 1 1295 1296
766 1 565 566
767 1 1421 1422
768 1 1085 1086
769 1 646 647
770 1 1294 1295
771 1 752 753
772 1 751 752
773 1 1408 1409
774 1 140 141
775 1 139 140
776 1 775 776
777 1 530 531
778 1 719 720
779 1 718 719
780 1 776 777
781 1 130 131
782 1 550 551
783 1 551 552
784 1 131 132
785 1 727 728
786 1 1405 1406
787 1 1246 1247
788 1 1247 1248
789 1 500 501
790 1 266 267
791 1 728 729
792 1 271 272
793 1 790 791
794 1 791 792
795 1 383 384
796 1 1180 1181
797 1 272 273
798 1 1034 1035
799 1 1033 1034
800 1 1048 1049
801 1 103 104
802 1 145 146
803 1 637 638
804 1 940 941
805 1 638 639
806 1 487 488
807 1 808 809
808 1 467 468
809 1 680 681
810 1 679 680
811 1 4 5
812 1 307 308
813 1 1078 1079
814 1 1079 1080
815 1 1097 1098
816 1 809 810
817 1 466 467
818 1 1268 1269
819 1 1267 1268
820 1 1084 1085
821 1 787 788
822 1 932 933
823 1 164 165
824 1 1235 1236
825 1 163 164
826 1 952 953
827 1 953 954
828 1 1189 1190
829 1 1345 1346
830 1 1234 1235
831 1 1346 1347
832 1 839 840
833 1 698 699
834 1 1012 1013
835 1 938 939
836 1 1013 1014
837 1 937 938
838 1 529 530
839 1 959 960
840 1 652 653
841 1 58 59
842 1 172 173
843 1 50 51
844 1 1444 1445
845 1 697 698
846 1 1445 1446
847 1 49 50
848 1 653 654
849 1 958 959
850 1 59 60
851 1 8 9
852 1 1 2
853 1 173 174
854 1 1021 1022
855 1 1493 1494
856 1 2 3
857 1 439 440
858 1 1385 1386
859 1 1384 1385
860 1 1271 1272
861 1 488 489
862 1 617 618
863 1 44 45
864 1 308 309
865 1 1492 1493
866 1 413 414
867 1 43 44
868 1 440 441
869 1 1183 1184
870 1 1226 1227
871 1 559 560
872 1 167 168
873 1 527 528
874 1 412 413
875 1 26 27
876 1 1208 1209
877 1 1153 1154
878 1 1306 1307
879 1 1229 1230
880 1 1228 1229
881 1 1352 1353
882 1 418 419
883 1 314 315
884 1 313 314
885 1 1351 1352
886 1 419 420
887 1 1307 1308
888 1 616 617
889 1 1207 1208
890 1 25 26
891 1 104 105
892 1 1123 1124
893 1 1454 1455
894 1 275 276
895 1 1124 1125
896 1 566 567
897 1 980 981
898 1 979 980
899 1 1364 1365
900 1 1363 1364
901 1 1120 1121
902 1 194 195
903 1 455 456
904 1 1217 1218
905 1 274 275
906 1 1289 1290
907 1 1279 1280
908 1 1061 1062
909 1 1280 1281
910 1 716 717
911 1 710 711
912 1 1387 1388
913 1 715 716
914 1 1388 1389
915 1 244 245
916 1 838 839
917 1 245 246
918 1 1184 1185
919 1 524 525
920 1 1060 1061
921 1 818 819
922 1 523 524
923 1 499 500
924 1 1420 1421
925 1 1181 1182
926 1 899 900
927 1 898 899
928 1 817 818
929 1 829 830
930 1 1025 1026
931 1 1024 1025
932 1 830 831
933 1 67 68
934 1 68 69
935 1 449 450
936 1 1333 1334
937 1 1334 1335
938 1 344 345
939 1 601 602
940 1 5 6
941 1 451 452
942 1 602 603
943 1 193 194
944 1 560 561
945 1 1456 1457
946 1 788 789
947 1 1457 1458
948 1 205 206
949 1 206 207
950 1 445 446
951 1 446 447
952 1 454 455
953 1 1340 1341
954 1 1328 1329
955 1 1121 1122
956 1 1327 1328
957 1 1339 1340
958 1 470 471
959 1 526 527
960 1 71 72
961 1 70 71
962 1 1009 1010
963 1 1010 1011
964 1 548 549
965 1 547 548
966 1 856 857
967 1 577 578
968 1 857 858
969 1 968 969
970 1 353 354
971 1 262 263
972 1 263 264
973 1 1369 1370
974 1 1370 1371
975 1 352 353
976 1 1453 1454
977 1 88 89
978 1 1003 1004
979 1 469 470
980 1 1270 1271
981 1 1165 1166
982 1 1166 1167
983 1 821 822
984 1 820 821
985 1 37 38
986 1 448 449
987 1 115 116
988 1 116 117
989 1 869 870
990 1 587 588
991 1 868 869
992 1 586 587
993 1 38 39
994 1 89 90
995 1 1225 1226
996 1 166 167
997 1 941 942
998 1 901 902
999 1 1483 1484
1000 1 1171 1172

Angles

1 1 694 695 696
2 1 208 209 210
3 1 340 341 342
4 1 634 635 636
5 1 1336 1337 1338
6 1 1243 1244 1245
7 1 1114 1115 1116
8 1 1117 1118 1119
9 1 1264 1265 1266
10 1 973 974 975
11 1 850 851 852
12 1 1006 1007 1008
13 1 1093 1094 1095
14 1 1150 1151 1152
15 1 1423 1424 1425
16 1 1465 1466 1467
17 1 505 506 507
18 1 904 905 906
19 1 250 251 252
20 1 1282 1283 1284
21 1 832 833 834
22 1 190 191 192
23 1 199 200 201
24 1 238 239 240
25 1 1342 1343 1344
26 1 10 11 12
27 1 754 755 756
28 1 319 320 321
29 1 1378 1379 1380
30 1 1396 1397 1398
31 1 217 218 219
32 1 280 281 282
33 1 574 575 576
34 1 121 122 123
35 1 289 290 291
36 1 1054 1055 1056
37 1 34 35 36
38 1 553 554 555
39 1 784 785 786
40 1 364 365 366
41 1 394 395 396
42 1 1261 1262 1263
43 1 1354 1355 1356
44 1 457 458 459
45 1 919 920 921
46 1 1018 1019 1020
47 1 463 464 465
48 1 94 95 96
49 1 1051 1052 1053
50 1 184 185 186
51 1 436 437 438
52 1 1198 1199 1200
53 1 316 317 318
54 1 370 371 372
55 1 148 149 150
56 1 1090 1091 1092
57 1 1417 1418 1419
58 1 79 80 81
59 1 388 389 390
60 1 397 398 399
61 1 1186 1187 1188
62 1 946 947 948
63 1 871 872 873
64 1 1393 1394 1395
65 1 298 299 300
66 1 1219 1220 1221
67 1 802 803 804
68 1 835 836 837
69 1 1027 1028 1029
70 1 55 56 57
71 1 124 125 126
72 1 823 824 825
73 1 133 134 135
74 1 1462 1463 1464
75 1 793 794 795
76 1 292 293 294
77 1 766 767 768
78 1 964 965 966
79 1 1144 1145 1146
80 1 988 989 990
81 1 1159 1160 1161
82 1 1375 1376 1377
83 1 688 689 690
84 1 676 677 678
85 1 1129 1130 1131
86 1 1471 1472 1473
87 1 628 629 630
88 1 415 416 417
89 1 268 269 270
90 1 385 386 387
91 1 196 197 198
92 1 544 545 546
93 1 1429 1430 1431
94 1 109 110 111
95 1 655 656 657
96 1 1399 1400 1401
97 1 376 377 378
98 1 1240 1241 1242
99 1 85 86 87
100 1 976 977 978
101 1 1210 1211 1212
102 1 643 644 645
103 1 214 215 216
104 1 1015 1016 1017
105 1 1441 1442 1443
106 1 322 323 324
107 1 82 83 84
108 1 892 893 894
109 1 781 782 783
110 1 739 740 741
111 1 421 422 423
112 1 175 176 177
113 1 229 230 231
114 1 742 743 744
115 1 247 248 249
116 1 220 221 222
117 1 862 863 864
118 1 745 746 747
119 1 520 521 522
120 1 427 428 429
121 1 349 350 351
122 1 1315 1316 1317
123 1 625 626 627
124 1 1285 1286 1287
125 1 568 569 570
126 1 517 518 519
127 1 1297 1298 1299
128 1 1111 1112 1113
129 1 1330 1331 1332
130 1 277 278 279
131 1 796 797 798
132 1 700 701 702
133 1 295 296 297
134 1 1324 1325 1326
135 1 667 668 669
136 1 1402 1403 1404
137 1 241 242 243
138 1 481 482 483
139 1 733 734 735
140 1 1057 1058 1059
141 1 409 410 411
142 1 925 926 927
143 1 841 842 843
144 1 1039 1040 1041
145 1 1291 1292 1293
146 1 1303 1304 1305
147 1 1045 1046 1047
148 1 685 686 687
149 1 118 119 120
150 1 511 512 513
151 1 514 515 516
152 1 64 65 66
153 1 283 284 285
154 1 1222 1223 1224
155 1 721 722 723
156 1 580 581 582
157 1 1066 1067 1068
158 1 1276 1277 1278
159 1 1480 1481 1482
160 1 1258 1259 1260
161 1 1105 1106 1107
162 1 1432 1433 1434
163 1 859 860 861
164 1 157 158 159
165 1 424 425 426
166 1 100 101 102
167 1 1450 1451 1452
168 1 451 452 453
169 1 358 359 360
170 1 361 362 363
171 1 259 260 261
172 1 460 461 462
173 1 583 584 585
174 1 328 329 330
175 1 853 854 855
176 1 91 92 93
177 1 1357 1358 1359
178 1 490 491 492
179 1 844 845 846
180 1 1321 1322 1323
181 1 430 431 432
182 1 1042 1043 1044
183 1 367 368 369
184 1 496 497 498
185 1 1072 1073 1074
186 1 310 311 312
187 1 994 995 996
188 1 484 485 486
189 1 391 392 393
190 1 541 542 543
191 1 286 287 288
192 1 472 473 474
193 1 1081 1082 1083
194 1 1135 1136 1137
195 1 46 47 48
196 1 406 407 408
197 1 658 659 660
198 1 1156 1157 1158
199 1 1177 1178 1179
200 1 223 224 225
201 1 1021 1022 1023
202 1 613 614 615
203 1 748 749 750
204 1 916 917 918
205 1 1405 1406 1407
206 1 649 650 651
207 1 187 188 189
208 1 991 992 993
209 1 1174 1175 1176
210 1 1372 1373 1374
211 1 1153 1154 1155
212 1 961 962 963
213 1 895 896 897
214 1 571 572 573
215 1 1168 1169 1170
216 1 1075 1076 1077
217 1 400 401 402
218 1 76 77 78
219 1 169 170 171
220 1 847 848 849
221 1 1036 1037 1038
222 1 1126 1127 1128
223 1 127 128 129
224 1 538 539 540
225 1 913 914 915
226 1 178 179 180
227 1 373 374 375
228 1 811 812 813
229 1 145 146 147
230 1 682 683 684
231 1 598 599 600
232 1 889 890 891
233 1 1360 1361 1362
234 1 301 302 303
235 1 403 404 405
236 1 256 257 258
237 1 769 770 771
238 1 1255 1256 1257
239 1 106 107 108
240 1 883 884 885
241 1 556 557 558
242 1 1237 1238 1239
243 1 1390 1391 1392
244 1 1087 1088 1089
245 1 493 494 495
246 1 778 779 780
247 1 595 596 597
248 1 22 23 24
249 1 1381 1382 1383
250 1 52 53 54
251 1 1102 1103 1104
252 1 1318 1319 1320
253 1 1048 1049 1050
254 1 379 380 381
255 1 910 911 912
256 1 1069 1070 1071
257 1 943 944 945
258 1 577 578 579
259 1 1138 1139 1140
260 1 1003 1004 1005
261 1 160 161 162
262 1 877 878 879
263 1 1132 1133 1134
264 1 1468 1469 1470
265 1 997 998 999
266 1 970 971 972
267 1 631 632 633
268 1 604 605 606
269 1 589 590 591
270 1 433 434 435
271 1 1459 1460 1461
272 1 16 17 18
273 1 97 98 99
274 1 1489 1490 1491
275 1 1408 1409 1410
276 1 1477 1478 1479
277 1 640 641 642
278 1 982 983 984
279 1 334 335 336
280 1 1300 1301 1302
281 1 874 875 876
282 1 724 725 726
283 1 1201 1202 1203
284 1 622 623 624
285 1 532 533 534
286 1 73 74 75
287 1 136 137 138
288 1 1000 1001 1002
289 1 1108 1109 1110
290 1 478 479 480
291 1 1498 1499 1500
292 1 757 758 759
293 1 922 923 924
294 1 826 827 828
295 1 955 956 957
296 1 151 152 153
297 1 865 866 867
298 1 337 338 339
299 1 691 692 693
300 1 1141 1142 1143
301 1 1348 1349 1350
302 1 355 356 357
303 1 226 227 228
304 1 712 713 714
305 1 880 881 882
306 1 562 563 564
307 1 1231 1232 1233
308 1 331 332 333
309 1 502 503 504
310 1 253 254 255
311 1 1495 1496 1497
312 1 1435 1436 1437
313 1 235 236 237
314 1 442 443 444
315 1 232 233 234
316 1 1414 1415 1416
317 1 772 773 774
318 1 1171 1172 1173
319 1 1204 1205 1206
320 1 607 608 609
321 1 1426 1427 1428
322 1 346 347 348
323 1 202 203 204
324 1 799 800 801
325 1 730 731 732
326 1 664 665 666
327 1 61 62 63
328 1 325 326 327
329 1 907 908 909
330 1 1252 1253 1254
331 1 1273 1274 1275
332 1 31 32 33
333 1 949 950 951
334 1 19 20 21
335 1 1099 1100 1101
336 1 1486 1487 1488
337 1 508 509 510
338 1 760 761 762
339 1 475 476 477
340 1 934 935 936
341 1 1249 1250 1251
342 1 1312 1313 1314
343 1 661 662 663
344 1 985 986 987
345 1 610 611 612
346 1 1411 1412 1413
347 1 673 674 675
348 1 901 902 903
349 1 592 593 594
350 1 13 14 15
351 1 1213 1214 1215
352 1 1474 1475 1476
353 1 1063 1064 1065
354 1 304 305 306
355 1 703 704 705
356 1 40 41 42
357 1 154 155 156
358 1 1438 1439 1440
359 1 619 620 621
360 1 706 707 708
361 1 1309 1310 1311
362 1 886 887 888
363 1 28 29 30
364 1 814 815 816
365 1 1447 1448 1449
366 1 1030 1031 1032
367 1 211 212 213
368 1 805 806 807
369 1 1366 1367 1368
370 1 112 113 114
371 1 1192 1193 1194
372 1 142 143 144
373 1 928 929 930
374 1 670 671 672
375 1 1483 1484 1485
376 1 1195 1196 1197
377 1 763 764 765
378 1 1162 1163 1164
379 1 1189 1190 1191
380 1 535 536 537
381 1 181 182 183
382 1 646 647 648
383 1 1147 1148 1149
384 1 736 737 738
385 1 1294 1295 1296
386 1 1420 1421 1422
387 1 1084 1085 1086
388 1 751 752 753
389 1 139 140 141
390 1 529 530 531
391 1 718 719 720
392 1 775 776 777
393 1 550 551 552
394 1 130 131 132
395 1 1246 1247 1248
396 1 499 500 501
397 1 265 266 267
398 1 727 728 729
399 1 790 791 792
400 1 382 383 384
401 1 271 272 273
402 1 1033 1034 1035
403 1 637 638 639
404 1 466 467 468
405 1 679 680 681
406 1 1078 1079 1080
407 1 1096 1097 1098
408 1 808 809 810
409 1 1267 1268 1269
410 1 931 932 933
411 1 163 164 165
412 1 1234 1235 1236
413 1 952 953 954
414 1 1345 1346 1347
415 1 838 839 840
416 1 697 698 699
417 1 937 938 939
418 1 1012 1013 1014
419 1 958 959 960
420 1 49 50 51
421 1 1444 1445 1446
422 1 652 653 654
423 1 58 59 60
424 1 7 8 9
425 1 172 173 174
426 1 1492 1493 1494
427 1 1 2 3
428 1 1384 1385 1386
429 1 1270 1271 1272
430 1 487 488 489
431 1 616 617 618
432 1 43 44 45
433 1 307 308 309
434 1 412 413 414
435 1 439 440 441
436 1 1225 1226 1227
437 1 166 167 168
438 1 526 527 528
439 1 25 26 27
440 1 1207 1208 1209
441 1 1228 1229 1230
442 1 1351 1352 1353
443 1 313 314 315
444 1 418 419 420
445 1 1306 1307 1308
446 1 103 104 105
447 1 1453 1454 1455
448 1 274 275 276
449 1 1123 1124 1125
450 1 565 566 567
451 1 979 980 981
452 1 1363 1364 1365
453 1 193 194 195
454 1 454 455 456
455 1 1216 1217 1218
456 1 1288 1289 1290
457 1 1060 1061 1062
458 1 1279 1280 1281
459 1 715 716 717
460 1 709 710 711
461 1 1387 1388 1389
462 1 244 245 246
463 1 1183 1184 1185
464 1 523 524 525
465 1 817 818 819
466 1 1180 1181 1182
467 1 898 899 900
468 1 1024 1025 1026
469 1 829 830 831
470 1 67 68 69
471 1 448 449 450
472 1 1333 1334 1335
473 1 343 344 345
474 1 4 5 6
475 1 601 602 603
476 1 559 560 561
477 1 787 788 789
478 1 1456 1457 1458
479 1 205 206 207
480 1 445 446 447
481 1 1339 1340 1341
482 1 1327 1328 1329
483 1 1120 1121 1122
484 1 469 470 471
485 1 70 71 72
486 1 1009 1010 1011
487 1 547 548 549
488 1 856 857 858
489 1 967 968 969
490 1 352 353 354
491 1 262 263 264
492 1 1369 1370 1371
493 1 1165 1166 1167
494 1 820 821 822
495 1 115 116 117
496 1 868 869 870
497 1 586 587 588
498 1 37 38 39
499 1 88 89 90
500 1 940 941 942
