        9537
Built with Packmol cell 30.000000 30.000000 30.000000 90.0000 90.0000 90.0000
  Si           2.369965       -6.658412       -2.346322
  Si           2.374734       -6.160349       -2.390026
  Si           2.379503       -5.662285       -2.433730
  Si           2.384272       -5.164222       -2.477434
  Si           2.389041       -4.666159       -2.521138
  Si           2.393809       -4.168095       -2.564842
  Si           2.398578       -3.670032       -2.608546
  Si           2.403347       -3.171968       -2.652250
  Si           2.408116       -2.673905       -2.695954
  Si           2.412884       -2.175841       -2.739658
  Si           2.417653       -1.677778       -2.783362
  Si           2.428145       -0.582038       -2.879511
  Si           2.432913       -0.083975       -2.923215
  Si           2.437682        0.414089       -2.966919
  Si           2.442451        0.912152       -3.010623
  Si           2.447220        1.410216       -3.054327
  Si           2.451989        1.908279       -3.098031
  Si           2.456757        2.406343       -3.141735
  Si           2.461526        2.904406       -3.185439
  Si           2.466295        3.402470       -3.229143
  Si           2.471064        3.900533       -3.272847
  Si           2.475833        4.398597       -3.316551
  Si           2.311786      -12.734787       -1.813133
  Si           2.316555      -12.236723       -1.856837
  Si           2.321324      -11.738660       -1.900541
  Si           2.326092      -11.240596       -1.944245
  Si           2.330861      -10.742533       -1.987949
  Si           2.335630      -10.244469       -2.031653
  Si           2.340399       -9.746406       -2.075357
  Si           2.345168       -9.248342       -2.119061
  Si           2.349936       -8.750279       -2.162765
  Si           2.354705       -8.252215       -2.206469
  Si           2.359474       -7.754152       -2.250173
  Si           2.419605       -6.754939       -3.440955
  Si           2.424374       -6.256876       -3.484659
  Si           2.429143       -5.758812       -3.528363
  Si           2.433912       -5.260749       -3.572067
  Si           2.438681       -4.762686       -3.615771
  Si           2.443449       -4.264622       -3.659475
  Si           2.448218       -3.766559       -3.703179
  Si           2.452987       -3.268495       -3.746883
  Si           2.457756       -2.770432       -3.790587
  Si           2.462525       -2.272368       -3.834291
  Si           2.467293       -1.774305       -3.877995
  Si           2.477785       -0.678565       -3.974144
  Si           2.482554       -0.180502       -4.017848
  Si           2.487322        0.317562       -4.061552
  Si           2.492091        0.815625       -4.105256
  Si           2.496860        1.313689       -4.148960
  Si           2.501629        1.811752       -4.192664
  Si           2.506398        2.309816       -4.236368
  Si           2.511166        2.807879       -4.280072
  Si           2.515935        3.305943       -4.323776
  Si           2.520704        3.804006       -4.367480
  Si           2.525473        4.302070       -4.411184
  Si           2.361426      -12.831314       -2.907766
  Si           2.366195      -12.333250       -2.951470
  Si           2.370964      -11.835187       -2.995174
  Si           2.375733      -11.337123       -3.038878
  Si           2.380501      -10.839060       -3.082582
  Si           2.385270      -10.340996       -3.126286
  Si           2.390039       -9.842933       -3.169990
  Si           2.394808       -9.344869       -3.213694
  Si           2.399577       -8.846806       -3.257398
  Si           2.404345       -8.348742       -3.301102
  Si           2.409114       -7.850679       -3.344806
  Si           2.469246       -6.851466       -4.535588
  Si           2.474014       -6.353403       -4.579292
  Si           2.478783       -5.855339       -4.622996
  Si           2.483552       -5.357276       -4.666700
  Si           2.488321       -4.859212       -4.710404
  Si           2.493090       -4.361149       -4.754108
  Si           2.497858       -3.863086       -4.797812
  Si           2.502627       -3.365022       -4.841516
  Si           2.507396       -2.866959       -4.885220
  Si           2.512165       -2.368895       -4.928924
  Si           2.516934       -1.870832       -4.972628
  Si           2.527425       -0.775092       -5.068776
  Si           2.532194       -0.277029       -5.112480
  Si           2.536962        0.221035       -5.156184
  Si           2.541731        0.719098       -5.199888
  Si           2.546500        1.217162       -5.243592
  Si           2.551269        1.715225       -5.287296
  Si           2.556038        2.213289       -5.331001
  Si           2.560806        2.711352       -5.374705
  Si           2.565575        3.209416       -5.418409
  Si           2.570344        3.707479       -5.462113
  Si           2.575113        4.205543       -5.505817
  Si           2.411066      -12.927841       -4.002399
  Si           2.415835      -12.429777       -4.046103
  Si           2.420604      -11.931714       -4.089807
  Si           2.425373      -11.433650       -4.133511
  Si           2.430142      -10.935587       -4.177215
  Si           2.434910      -10.437523       -4.220919
  Si           2.439679       -9.939460       -4.264623
  Si           2.444448       -9.441396       -4.308327
  Si           2.449217       -8.943333       -4.352031
  Si           2.453986       -8.445269       -4.395735
  Si           2.458754       -7.947206       -4.439439
  Si           2.518886       -6.947993       -5.630220
  Si           2.523655       -6.449930       -5.673924
  Si           2.528423       -5.951866       -5.717628
  Si           2.533192       -5.453803       -5.761332
  Si           2.537961       -4.955739       -5.805036
  Si           2.542730       -4.457676       -5.848740
  Si           2.547499       -3.959613       -5.892444
  Si           2.552267       -3.461549       -5.936148
  Si           2.557036       -2.963486       -5.979852
  Si           2.561805       -2.465422       -6.023556
  Si           2.566574       -1.967359       -6.067260
  Si           2.577065       -0.871619       -6.163409
  Si           2.581834       -0.373556       -6.207113
  Si           2.586603        0.124508       -6.250817
  Si           2.591371        0.622571       -6.294521
  Si           2.596140        1.120635       -6.338225
  Si           2.600909        1.618698       -6.381929
  Si           2.605678        2.116762       -6.425633
  Si           2.610447        2.614825       -6.469337
  Si           2.615215        3.112889       -6.513041
  Si           2.619984        3.610952       -6.556745
  Si           2.624753        4.109016       -6.600449
  Si           2.460707      -13.024368       -5.097031
  Si           2.465475      -12.526304       -5.140735
  Si           2.470244      -12.028241       -5.184439
  Si           2.475013      -11.530177       -5.228143
  Si           2.479782      -11.032114       -5.271847
  Si           2.484550      -10.534050       -5.315551
  Si           2.489319      -10.035987       -5.359255
  Si           2.494088       -9.537923       -5.402959
  Si           2.498857       -9.039860       -5.446663
  Si           2.503626       -8.541796       -5.490367
  Si           2.508394       -8.043733       -5.534071
  Si           2.568526       -7.044520       -6.724853
  Si           2.573295       -6.546457       -6.768557
  Si           2.578064       -6.048393       -6.812261
  Si           2.582832       -5.550330       -6.855965
  Si           2.587601       -5.052266       -6.899669
  Si           2.592370       -4.554203       -6.943373
  Si           2.597139       -4.056139       -6.987077
  Si           2.601907       -3.558076       -7.030781
  Si           2.606676       -3.060013       -7.074485
  Si           2.611445       -2.561949       -7.118189
  Si           2.616214       -2.063886       -7.161893
  Si           2.626705       -0.968146       -7.258042
  Si           2.631474       -0.470083       -7.301746
  Si           2.636243        0.027981       -7.345450
  Si           2.641012        0.526044       -7.389154
  Si           2.645780        1.024108       -7.432858
  Si           2.650549        1.522171       -7.476562
  Si           2.655318        2.020235       -7.520266
  Si           2.660087        2.518298       -7.563970
  Si           2.664856        3.016362       -7.607674
  Si           2.669624        3.514425       -7.651378
  Si           2.674393        4.012489       -7.695082
  Si           2.510347      -13.120895       -6.191664
  Si           2.515115      -12.622831       -6.235368
  Si           2.519884      -12.124768       -6.279072
  Si           2.524653      -11.626704       -6.322776
  Si           2.529422      -11.128641       -6.366480
  Si           2.534191      -10.630577       -6.410184
  Si           2.538959      -10.132514       -6.453888
  Si           2.543728       -9.634450       -6.497592
  Si           2.548497       -9.136387       -6.541296
  Si           2.553266       -8.638323       -6.585000
  Si           2.558035       -8.140260       -6.628704
  Si           2.618166       -7.141047       -7.819485
  Si           2.622935       -6.642984       -7.863189
  Si           2.627704       -6.144920       -7.906893
  Si           2.632472       -5.646857       -7.950597
  Si           2.637241       -5.148793       -7.994301
  Si           2.642010       -4.650730       -8.038005
  Si           2.646779       -4.152666       -8.081709
  Si           2.651548       -3.654603       -8.125413
  Si           2.656316       -3.156540       -8.169117
  Si           2.661085       -2.658476       -8.212821
  Si           2.665854       -2.160413       -8.256526
  Si           2.676345       -1.064673       -8.352674
  Si           2.681114       -0.566609       -8.396378
  Si           2.685883       -0.068546       -8.440082
  Si           2.690652        0.429517       -8.483786
  Si           2.695420        0.927581       -8.527490
  Si           2.700189        1.425644       -8.571194
  Si           2.704958        1.923708       -8.614898
  Si           2.709727        2.421771       -8.658602
  Si           2.714496        2.919835       -8.702306
  Si           2.719264        3.417898       -8.746010
  Si           2.724033        3.915962       -8.789714
  Si           2.559987      -13.217422       -7.286296
  Si           2.564756      -12.719358       -7.330000
  Si           2.569524      -12.221295       -7.373704
  Si           2.574293      -11.723231       -7.417408
  Si           2.579062      -11.225168       -7.461113
  Si           2.583831      -10.727104       -7.504817
  Si           2.588600      -10.229041       -7.548521
  Si           2.593368       -9.730977       -7.592225
  Si           2.598137       -9.232914       -7.635929
  Si           2.602906       -8.734850       -7.679633
  Si           2.607675       -8.236787       -7.723337
  Si           2.667806       -7.237574       -8.914118
  Si           2.672575       -6.739511       -8.957822
  Si           2.677344       -6.241447       -9.001526
  Si           2.682113       -5.743384       -9.045230
  Si           2.686881       -5.245320       -9.088934
  Si           2.691650       -4.747257       -9.132638
  Si           2.696419       -4.249193       -9.176342
  Si           2.701188       -3.751130       -9.220046
  Si           2.705957       -3.253067       -9.263750
  Si           2.710725       -2.755003       -9.307454
  Si           2.715494       -2.256940       -9.351158
  Si           2.725985       -1.161200       -9.447307
  Si           2.730754       -0.663136       -9.491011
  Si           2.735523       -0.165073       -9.534715
  Si           2.740292        0.332990       -9.578419
  Si           2.745061        0.831054       -9.622123
  Si           2.749829        1.329117       -9.665827
  Si           2.754598        1.827181       -9.709531
  Si           2.759367        2.325244       -9.753235
  Si           2.764136        2.823308       -9.796939
  Si           2.768905        3.321371       -9.840643
  Si           2.773673        3.819435       -9.884347
  Si           2.609627      -13.313949       -8.380929
  Si           2.614396      -12.815885       -8.424633
  Si           2.619165      -12.317822       -8.468337
  Si           2.623933      -11.819758       -8.512041
  Si           2.628702      -11.321695       -8.555745
  Si           2.633471      -10.823631       -8.599449
  Si           2.638240      -10.325568       -8.643153
  Si           2.643008       -9.827504       -8.686857
  Si           2.647777       -9.329441       -8.730561
  Si           2.652546       -8.831377       -8.774265
  Si           2.657315       -8.333314       -8.817969
  Si           2.717446       -7.334101      -10.008751
  Si           2.722215       -6.836038      -10.052455
  Si           2.726984       -6.337974      -10.096159
  Si           2.731753       -5.839911      -10.139863
  Si           2.736522       -5.341847      -10.183567
  Si           2.741290       -4.843784      -10.227271
  Si           2.746059       -4.345720      -10.270975
  Si           2.750828       -3.847657      -10.314679
  Si           2.755597       -3.349593      -10.358383
  Si           2.760365       -2.851530      -10.402087
  Si           2.765134       -2.353467      -10.445791
  Si           2.775626       -1.257727      -10.541940
  Si           2.780394       -0.759663      -10.585644
  Si           2.785163       -0.261600      -10.629348
  Si           2.789932        0.236463      -10.673052
  Si           2.794701        0.734527      -10.716756
  Si           2.799470        1.232590      -10.760460
  Si           2.804238        1.730654      -10.804164
  Si           2.809007        2.228717      -10.847868
  Si           2.813776        2.726781      -10.891572
  Si           2.818545        3.224844      -10.935276
  Si           2.823314        3.722908      -10.978980
  Si           2.659267      -13.410476       -9.475562
  Si           2.664036      -12.912412       -9.519266
  Si           2.668805      -12.414349       -9.562970
  Si           2.673573      -11.916285       -9.606674
  Si           2.678342      -11.418222       -9.650378
  Si           2.683111      -10.920158       -9.694082
  Si           2.687880      -10.422095       -9.737786
  Si           2.692649       -9.924031       -9.781490
  Si           2.697417       -9.425968       -9.825194
  Si           2.702186       -8.927904       -9.868898
  Si           2.706955       -8.429841       -9.912602
  Si           2.767086       -7.430628      -11.103383
  Si           2.771855       -6.932565      -11.147087
  Si           2.776624       -6.434501      -11.190791
  Si           2.781393       -5.936438      -11.234495
  Si           2.786162       -5.438374      -11.278199
  Si           2.790930       -4.940311      -11.321903
  Si           2.795699       -4.442247      -11.365607
  Si           2.800468       -3.944184      -11.409311
  Si           2.805237       -3.446120      -11.453015
  Si           2.810006       -2.948057      -11.496719
  Si           2.814774       -2.449994      -11.540423
  Si           2.825266       -1.354254      -11.636572
  Si           2.830035       -0.856190      -11.680276
  Si           2.834803       -0.358127      -11.723980
  Si           2.839572        0.139937      -11.767684
  Si           2.844341        0.638000      -11.811388
  Si           2.849110        1.136063      -11.855092
  Si           2.853879        1.634127      -11.898796
  Si           2.858647        2.132190      -11.942500
  Si           2.863416        2.630254      -11.986204
  Si           2.868185        3.128317      -12.029908
  Si           2.872954        3.626381      -12.073612
  Si           2.708907      -13.507003      -10.570194
  Si           2.713676      -13.008939      -10.613898
  Si           2.718445      -12.510876      -10.657602
  Si           2.723214      -12.012812      -10.701306
  Si           2.727982      -11.514749      -10.745010
  Si           2.732751      -11.016685      -10.788714
  Si           2.737520      -10.518622      -10.832418
  Si           2.742289      -10.020558      -10.876122
  Si           2.747058       -9.522495      -10.919826
  Si           2.751826       -9.024431      -10.963530
  Si           2.756595       -8.526368      -11.007234
  Si           1.972844       -5.886197        6.410739
  Si           1.977613       -5.388133        6.367035
  Si           1.982382       -4.890070        6.323331
  Si           1.987151       -4.392006        6.279627
  Si           1.991919       -3.893943        6.235923
  Si           1.996688       -3.395879        6.192219
  Si           2.001457       -2.897816        6.148515
  Si           2.006226       -2.399752        6.104811
  Si           2.010995       -1.901689        6.061107
  Si           2.015763       -1.403625        6.017403
  Si           2.020532       -0.905562        5.973699
  Si           2.031023        0.190178        5.877550
  Si           2.035792        0.688241        5.833846
  Si           2.040561        1.186305        5.790142
  Si           2.045330        1.684368        5.746438
  Si           2.050099        2.182432        5.702734
  Si           2.054867        2.680495        5.659030
  Si           2.059636        3.178559        5.615326
  Si           2.064405        3.676622        5.571622
  Si           2.069174        4.174685        5.527918
  Si           2.073943        4.672749        5.484214
  Si           2.078711        5.170812        5.440510
  Si           1.914665      -11.962571        6.943928
  Si           1.919434      -11.464507        6.900224
  Si           1.924203      -10.966444        6.856520
  Si           1.928971      -10.468380        6.812816
  Si           1.933740       -9.970317        6.769112
  Si           1.938509       -9.472254        6.725408
  Si           1.943278       -8.974190        6.681704
  Si           1.948046       -8.476127        6.638000
  Si           1.952815       -7.978063        6.594296
  Si           1.957584       -7.480000        6.550592
  Si           1.962353       -6.981936        6.506888
  Si           2.022484       -5.982724        5.316106
  Si           2.027253       -5.484660        5.272402
  Si           2.032022       -4.986597        5.228698
  Si           2.036791       -4.488533        5.184994
  Si           2.041560       -3.990470        5.141290
  Si           2.046328       -3.492406        5.097586
  Si           2.051097       -2.994343        5.053882
  Si           2.055866       -2.496279        5.010178
  Si           2.060635       -1.998216        4.966474
  Si           2.065403       -1.500152        4.922770
  Si           2.070172       -1.002089        4.879066
  Si           2.080664        0.093651        4.782917
  Si           2.085432        0.591714        4.739213
  Si           2.090201        1.089778        4.695509
  Si           2.094970        1.587841        4.651805
  Si           2.099739        2.085905        4.608101
  Si           2.104508        2.583968        4.564397
  Si           2.109276        3.082032        4.520693
  Si           2.114045        3.580095        4.476989
  Si           2.118814        4.078158        4.433285
  Si           2.123583        4.576222        4.389581
  Si           2.128352        5.074285        4.345877
  Si           1.964305      -12.059098        5.849295
  Si           1.969074      -11.561034        5.805591
  Si           1.973843      -11.062971        5.761887
  Si           1.978611      -10.564907        5.718183
  Si           1.983380      -10.066844        5.674479
  Si           1.988149       -9.568781        5.630775
  Si           1.992918       -9.070717        5.587071
  Si           1.997687       -8.572654        5.543367
  Si           2.002455       -8.074590        5.499663
  Si           2.007224       -7.576527        5.455959
  Si           2.011993       -7.078463        5.412255
  Si           2.072124       -6.079251        4.221474
  Si           2.076893       -5.581187        4.177770
  Si           2.081662       -5.083124        4.134066
  Si           2.086431       -4.585060        4.090362
  Si           2.091200       -4.086997        4.046658
  Si           2.095968       -3.588933        4.002953
  Si           2.100737       -3.090870        3.959249
  Si           2.105506       -2.592806        3.915545
  Si           2.110275       -2.094743        3.871841
  Si           2.115044       -1.596679        3.828137
  Si           2.119812       -1.098616        3.784433
  Si           2.130304       -0.002876        3.688285
  Si           2.135073        0.495187        3.644581
  Si           2.139841        0.993251        3.600877
  Si           2.144610        1.491314        3.557173
  Si           2.149379        1.989378        3.513469
  Si           2.154148        2.487441        3.469765
  Si           2.158917        2.985505        3.426061
  Si           2.163685        3.483568        3.382357
  Si           2.168454        3.981632        3.338653
  Si           2.173223        4.479695        3.294949
  Si           2.177992        4.977758        3.251245
  Si           2.013945      -12.155625        4.754662
  Si           2.018714      -11.657561        4.710958
  Si           2.023483      -11.159498        4.667254
  Si           2.028252      -10.661434        4.623550
  Si           2.033020      -10.163371        4.579846
  Si           2.037789       -9.665308        4.536142
  Si           2.042558       -9.167244        4.492438
  Si           2.047327       -8.669181        4.448734
  Si           2.052096       -8.171117        4.405030
  Si           2.056864       -7.673054        4.361326
  Si           2.061633       -7.174990        4.317622
  Si           2.121765       -6.175778        3.126841
  Si           2.126533       -5.677714        3.083137
  Si           2.131302       -5.179651        3.039433
  Si           2.136071       -4.681587        2.995729
  Si           2.140840       -4.183524        2.952025
  Si           2.145609       -3.685460        2.908321
  Si           2.150377       -3.187397        2.864617
  Si           2.155146       -2.689333        2.820913
  Si           2.159915       -2.191270        2.777209
  Si           2.164684       -1.693206        2.733505
  Si           2.169453       -1.195143        2.689801
  Si           2.179944       -0.099403        2.593652
  Si           2.184713        0.398660        2.549948
  Si           2.189481        0.896724        2.506244
  Si           2.194250        1.394787        2.462540
  Si           2.199019        1.892851        2.418836
  Si           2.203788        2.390914        2.375132
  Si           2.208557        2.888978        2.331428
  Si           2.213325        3.387041        2.287724
  Si           2.218094        3.885105        2.244020
  Si           2.222863        4.383168        2.200316
  Si           2.227632        4.881231        2.156612
  Si           2.063585      -12.252152        3.660030
  Si           2.068354      -11.754088        3.616326
  Si           2.073123      -11.256025        3.572622
  Si           2.077892      -10.757961        3.528918
  Si           2.082661      -10.259898        3.485214
  Si           2.087429       -9.761834        3.441510
  Si           2.092198       -9.263771        3.397806
  Si           2.096967       -8.765708        3.354102
  Si           2.101736       -8.267644        3.310398
  Si           2.106504       -7.769581        3.266694
  Si           2.111273       -7.271517        3.222990
  Si           2.171405       -6.272304        2.032208
  Si           2.176174       -5.774241        1.988504
  Si           2.180942       -5.276178        1.944800
  Si           2.185711       -4.778114        1.901096
  Si           2.190480       -4.280051        1.857392
  Si           2.195249       -3.781987        1.813688
  Si           2.200018       -3.283924        1.769984
  Si           2.204786       -2.785860        1.726280
  Si           2.209555       -2.287797        1.682576
  Si           2.214324       -1.789733        1.638872
  Si           2.219093       -1.291670        1.595168
  Si           2.229584       -0.195930        1.499019
  Si           2.234353        0.302133        1.455315
  Si           2.239122        0.800197        1.411611
  Si           2.243890        1.298260        1.367907
  Si           2.248659        1.796324        1.324203
  Si           2.253428        2.294387        1.280499
  Si           2.258197        2.792451        1.236795
  Si           2.262966        3.290514        1.193091
  Si           2.267734        3.788578        1.149387
  Si           2.272503        4.286641        1.105683
  Si           2.277272        4.784704        1.061979
  Si           2.113226      -12.348679        2.565397
  Si           2.117994      -11.850615        2.521693
  Si           2.122763      -11.352552        2.477989
  Si           2.127532      -10.854488        2.434285
  Si           2.132301      -10.356425        2.390581
  Si           2.137069       -9.858361        2.346877
  Si           2.141838       -9.360298        2.303173
  Si           2.146607       -8.862235        2.259469
  Si           2.151376       -8.364171        2.215765
  Si           2.156145       -7.866108        2.172061
  Si           2.160913       -7.368044        2.128357
  Si           2.221045       -6.368831        0.937576
  Si           2.225814       -5.870768        0.893872
  Si           2.230583       -5.372705        0.850168
  Si           2.235351       -4.874641        0.806464
  Si           2.240120       -4.376578        0.762760
  Si           2.244889       -3.878514        0.719056
  Si           2.249658       -3.380451        0.675352
  Si           2.254426       -2.882387        0.631648
  Si           2.259195       -2.384324        0.587944
  Si           2.263964       -1.886260        0.544240
  Si           2.268733       -1.388197        0.500536
  Si           2.279224       -0.292457        0.404387
  Si           2.283993        0.205606        0.360683
  Si           2.288762        0.703670        0.316979
  Si           2.293531        1.201733        0.273275
  Si           2.298299        1.699797        0.229571
  Si           2.303068        2.197860        0.185867
  Si           2.307837        2.695924        0.142163
  Si           2.312606        3.193987        0.098459
  Si           2.317375        3.692051        0.054755
  Si           2.322143        4.190114        0.011051
  Si           2.326912        4.688178       -0.032653
  Si           2.162866      -12.445206        1.470765
  Si           2.167634      -11.947142        1.427061
  Si           2.172403      -11.449079        1.383357
  Si           2.177172      -10.951015        1.339653
  Si           2.181941      -10.452952        1.295949
  Si           2.186710       -9.954888        1.252245
  Si           2.191478       -9.456825        1.208541
  Si           2.196247       -8.958762        1.164837
  Si           2.201016       -8.460698        1.121133
  Si           2.205785       -7.962635        1.077428
  Si           2.210554       -7.464571        1.033724
  Si           2.270685       -6.465358       -0.157057
  Si           2.275454       -5.967295       -0.200761
  Si           2.280223       -5.469232       -0.244465
  Si           2.284991       -4.971168       -0.288169
  Si           2.289760       -4.473105       -0.331873
  Si           2.294529       -3.975041       -0.375577
  Si           2.299298       -3.476978       -0.419281
  Si           2.304067       -2.978914       -0.462985
  Si           2.308835       -2.480851       -0.506689
  Si           2.313604       -1.982787       -0.550393
  Si           2.318373       -1.484724       -0.594097
  Si           2.328864       -0.388984       -0.690246
  Si           2.333633        0.109079       -0.733950
  Si           2.338402        0.607143       -0.777654
  Si           2.343171        1.105206       -0.821358
  Si           2.347939        1.603270       -0.865062
  Si           2.352708        2.101333       -0.908766
  Si           2.357477        2.599397       -0.952470
  Si           2.362246        3.097460       -0.996174
  Si           2.367015        3.595524       -1.039878
  Si           2.371783        4.093587       -1.083582
  Si           2.376552        4.591651       -1.127286
  Si           2.212506      -12.541733        0.376132
  Si           2.217275      -12.043669        0.332428
  Si           2.222043      -11.545606        0.288724
  Si           2.226812      -11.047542        0.245020
  Si           2.231581      -10.549479        0.201316
  Si           2.236350      -10.051415        0.157612
  Si           2.241119       -9.553352        0.113908
  Si           2.245887       -9.055288        0.070204
  Si           2.250656       -8.557225        0.026500
  Si           2.255425       -8.059162       -0.017204
  Si           2.260194       -7.561098       -0.060908
  Si           2.320325       -6.561885       -1.251690
  Si           2.325094       -6.063822       -1.295394
  Si           2.329863       -5.565758       -1.339098
  Si           2.334632       -5.067695       -1.382802
  Si           2.339400       -4.569632       -1.426506
  Si           2.344169       -4.071568       -1.470210
  Si           2.348938       -3.573505       -1.513914
  Si           2.353707       -3.075441       -1.557618
  Si           2.358476       -2.577378       -1.601322
  Si           2.363244       -2.079314       -1.645026
  Si           2.368013       -1.581251       -1.688730
  Si           2.378504       -0.485511       -1.784879
  Si           2.383273        0.012552       -1.828583
  Si           2.388042        0.510616       -1.872287
  Si           2.392811        1.008679       -1.915991
  Si           2.397580        1.506743       -1.959695
  Si           2.402348        2.004806       -2.003399
  Si           2.407117        2.502870       -2.047103
  Si           2.411886        3.000933       -2.090807
  Si           2.416655        3.498997       -2.134511
  Si           2.421424        3.997060       -2.178215
  Si           2.426192        4.495124       -2.221919
  Si           2.262146      -12.638260       -0.718501
  Si           2.266915      -12.140196       -0.762205
  Si           2.271684      -11.642133       -0.805909
  Si           2.276452      -11.144069       -0.849613
  Si           2.281221      -10.646006       -0.893317
  Si           2.285990      -10.147942       -0.937021
  Si           2.290759       -9.649879       -0.980725
  Si           2.295527       -9.151815       -1.024429
  Si           2.300296       -8.653752       -1.068133
  Si           2.305065       -8.155689       -1.111837
  Si           2.309834       -7.657625       -1.155541
  Si           3.468796       -6.664514       -2.295954
  Si           3.473564       -6.166450       -2.339658
  Si           3.478333       -5.668387       -2.383362
  Si           3.483102       -5.170323       -2.427066
  Si           3.487871       -4.672260       -2.470770
  Si           3.492640       -4.174196       -2.514474
  Si           3.497408       -3.676133       -2.558178
  Si           3.502177       -3.178069       -2.601882
  Si           3.506946       -2.680006       -2.645586
  Si           3.511715       -2.181942       -2.689290
  Si           3.516484       -1.683879       -2.732994
  Si           3.526975       -0.588139       -2.829143
  Si           3.531744       -0.090076       -2.872847
  Si           3.536512        0.407988       -2.916551
  Si           3.541281        0.906051       -2.960255
  Si           3.546050        1.404115       -3.003959
  Si           3.550819        1.902178       -3.047663
  Si           3.555588        2.400242       -3.091367
  Si           3.560356        2.898305       -3.135071
  Si           3.565125        3.396368       -3.178775
  Si           3.569894        3.894432       -3.222479
  Si           3.574663        4.392495       -3.266183
  Si           3.410616      -12.740888       -1.762765
  Si           3.415385      -12.242824       -1.806469
  Si           3.420154      -11.744761       -1.850173
  Si           3.424923      -11.246698       -1.893877
  Si           3.429692      -10.748634       -1.937581
  Si           3.434460      -10.250571       -1.981285
  Si           3.439229       -9.752507       -2.024989
  Si           3.443998       -9.254444       -2.068693
  Si           3.448767       -8.756380       -2.112397
  Si           3.453535       -8.258317       -2.156101
  Si           3.458304       -7.760253       -2.199805
  Si           3.518436       -6.761041       -3.390586
  Si           3.523205       -6.262977       -3.434290
  Si           3.527973       -5.764914       -3.477994
  Si           3.532742       -5.266850       -3.521698
  Si           3.537511       -4.768787       -3.565402
  Si           3.542280       -4.270723       -3.609106
  Si           3.547049       -3.772660       -3.652810
  Si           3.551817       -3.274596       -3.696514
  Si           3.556586       -2.776533       -3.740218
  Si           3.561355       -2.278469       -3.783922
  Si           3.566124       -1.780406       -3.827626
  Si           3.576615       -0.684666       -3.923775
  Si           3.581384       -0.186603       -3.967479
  Si           3.586153        0.311461       -4.011183
  Si           3.590921        0.809524       -4.054887
  Si           3.595690        1.307588       -4.098591
  Si           3.600459        1.805651       -4.142295
  Si           3.605228        2.303715       -4.185999
  Si           3.609997        2.801778       -4.229703
  Si           3.614765        3.299841       -4.273407
  Si           3.619534        3.797905       -4.317111
  Si           3.624303        4.295968       -4.360815
  Si           3.460257      -12.837415       -2.857397
  Si           3.465025      -12.339351       -2.901101
  Si           3.469794      -11.841288       -2.944805
  Si           3.474563      -11.343224       -2.988509
  Si           3.479332      -10.845161       -3.032213
  Si           3.484100      -10.347098       -3.075917
  Si           3.488869       -9.849034       -3.119621
  Si           3.493638       -9.350971       -3.163325
  Si           3.498407       -8.852907       -3.207030
  Si           3.503176       -8.354844       -3.250734
  Si           3.507944       -7.856780       -3.294438
  Si           3.568076       -6.857568       -4.485219
  Si           3.572845       -6.359504       -4.528923
  Si           3.577614       -5.861441       -4.572627
  Si           3.582382       -5.363377       -4.616331
  Si           3.587151       -4.865314       -4.660035
  Si           3.591920       -4.367250       -4.703739
  Si           3.596689       -3.869187       -4.747443
  Si           3.601457       -3.371123       -4.791147
  Si           3.606226       -2.873060       -4.834851
  Si           3.610995       -2.374996       -4.878555
  Si           3.615764       -1.876933       -4.922259
  Si           3.626255       -0.781193       -5.018408
  Si           3.631024       -0.283130       -5.062112
  Si           3.635793        0.214934       -5.105816
  Si           3.640562        0.712997       -5.149520
  Si           3.645330        1.211061       -5.193224
  Si           3.650099        1.709124       -5.236928
  Si           3.654868        2.207188       -5.280632
  Si           3.659637        2.705251       -5.324336
  Si           3.664406        3.203315       -5.368040
  Si           3.669174        3.701378       -5.411744
  Si           3.673943        4.199441       -5.455448
  Si           3.509897      -12.933942       -3.952030
  Si           3.514665      -12.435878       -3.995734
  Si           3.519434      -11.937815       -4.039438
  Si           3.524203      -11.439751       -4.083142
  Si           3.528972      -10.941688       -4.126846
  Si           3.533741      -10.443625       -4.170550
  Si           3.538509       -9.945561       -4.214254
  Si           3.543278       -9.447498       -4.257958
  Si           3.548047       -8.949434       -4.301662
  Si           3.552816       -8.451371       -4.345366
  Si           3.557585       -7.953307       -4.389070
  Si           3.617716       -6.954095       -5.579852
  Si           3.622485       -6.456031       -5.623556
  Si           3.627254       -5.957968       -5.667260
  Si           3.632022       -5.459904       -5.710964
  Si           3.636791       -4.961841       -5.754668
  Si           3.641560       -4.463777       -5.798372
  Si           3.646329       -3.965714       -5.842076
  Si           3.651098       -3.467650       -5.885780
  Si           3.655866       -2.969587       -5.929484
  Si           3.660635       -2.471523       -5.973188
  Si           3.665404       -1.973460       -6.016892
  Si           3.675895       -0.877720       -6.113041
  Si           3.680664       -0.379657       -6.156745
  Si           3.685433        0.118407       -6.200449
  Si           3.690202        0.616470       -6.244153
  Si           3.694970        1.114534       -6.287857
  Si           3.699739        1.612597       -6.331561
  Si           3.704508        2.110661       -6.375265
  Si           3.709277        2.608724       -6.418969
  Si           3.714046        3.106788       -6.462673
  Si           3.718814        3.604851       -6.506377
  Si           3.723583        4.102914       -6.550081
  Si           3.559537      -13.030469       -5.046663
  Si           3.564306      -12.532405       -5.090367
  Si           3.569074      -12.034342       -5.134071
  Si           3.573843      -11.536278       -5.177775
  Si           3.578612      -11.038215       -5.221479
  Si           3.583381      -10.540151       -5.265183
  Si           3.588150      -10.042088       -5.308887
  Si           3.592918       -9.544025       -5.352591
  Si           3.597687       -9.045961       -5.396295
  Si           3.602456       -8.547898       -5.439999
  Si           3.607225       -8.049834       -5.483703
  Si           3.667356       -7.050622       -6.674484
  Si           3.672125       -6.552558       -6.718188
  Si           3.676894       -6.054495       -6.761892
  Si           3.681663       -5.556431       -6.805596
  Si           3.686431       -5.058368       -6.849300
  Si           3.691200       -4.560304       -6.893004
  Si           3.695969       -4.062241       -6.936708
  Si           3.700738       -3.564177       -6.980412
  Si           3.705507       -3.066114       -7.024116
  Si           3.710275       -2.568050       -7.067820
  Si           3.715044       -2.069987       -7.111524
  Si           3.725535       -0.974247       -7.207673
  Si           3.730304       -0.476184       -7.251377
  Si           3.735073        0.021880       -7.295081
  Si           3.739842        0.519943       -7.338785
  Si           3.744611        1.018007       -7.382489
  Si           3.749379        1.516070       -7.426193
  Si           3.754148        2.014134       -7.469897
  Si           3.758917        2.512197       -7.513601
  Si           3.763686        3.010261       -7.557305
  Si           3.768455        3.508324       -7.601009
  Si           3.773223        4.006387       -7.644713
  Si           3.609177      -13.126996       -6.141295
  Si           3.613946      -12.628932       -6.184999
  Si           3.618715      -12.130869       -6.228703
  Si           3.623483      -11.632805       -6.272407
  Si           3.628252      -11.134742       -6.316111
  Si           3.633021      -10.636678       -6.359815
  Si           3.637790      -10.138615       -6.403519
  Si           3.642558       -9.640552       -6.447223
  Si           3.647327       -9.142488       -6.490927
  Si           3.652096       -8.644425       -6.534631
  Si           3.656865       -8.146361       -6.578335
  Si           3.716996       -7.147148       -7.769117
  Si           3.721765       -6.649085       -7.812821
  Si           3.726534       -6.151022       -7.856525
  Si           3.731303       -5.652958       -7.900229
  Si           3.736072       -5.154895       -7.943933
  Si           3.740840       -4.656831       -7.987637
  Si           3.745609       -4.158768       -8.031341
  Si           3.750378       -3.660704       -8.075045
  Si           3.755147       -3.162641       -8.118749
  Si           3.759915       -2.664577       -8.162453
  Si           3.764684       -2.166514       -8.206157
  Si           3.775176       -1.070774       -8.302306
  Si           3.779944       -0.572711       -8.346010
  Si           3.784713       -0.074647       -8.389714
  Si           3.789482        0.423416       -8.433418
  Si           3.794251        0.921480       -8.477122
  Si           3.799020        1.419543       -8.520826
  Si           3.803788        1.917607       -8.564530
  Si           3.808557        2.415670       -8.608234
  Si           3.813326        2.913734       -8.651938
  Si           3.818095        3.411797       -8.695642
  Si           3.822864        3.909861       -8.739346
  Si           3.658817      -13.223523       -7.235928
  Si           3.663586      -12.725459       -7.279632
  Si           3.668355      -12.227396       -7.323336
  Si           3.673123      -11.729332       -7.367040
  Si           3.677892      -11.231269       -7.410744
  Si           3.682661      -10.733205       -7.454448
  Si           3.687430      -10.235142       -7.498152
  Si           3.692199       -9.737079       -7.541856
  Si           3.696967       -9.239015       -7.585560
  Si           3.701736       -8.740952       -7.629264
  Si           3.706505       -8.242888       -7.672968
  Si           3.766636       -7.243675       -8.863750
  Si           3.771405       -6.745612       -8.907454
  Si           3.776174       -6.247549       -8.951158
  Si           3.780943       -5.749485       -8.994862
  Si           3.785712       -5.251422       -9.038566
  Si           3.790480       -4.753358       -9.082270
  Si           3.795249       -4.255295       -9.125974
  Si           3.800018       -3.757231       -9.169678
  Si           3.804787       -3.259168       -9.213382
  Si           3.809556       -2.761104       -9.257086
  Si           3.814324       -2.263041       -9.300790
  Si           3.824816       -1.167301       -9.396938
  Si           3.829585       -0.669238       -9.440642
  Si           3.834353       -0.171174       -9.484346
  Si           3.839122        0.326889       -9.528050
  Si           3.843891        0.824953       -9.571754
  Si           3.848660        1.323016       -9.615459
  Si           3.853429        1.821080       -9.659163
  Si           3.858197        2.319143       -9.702867
  Si           3.862966        2.817207       -9.746571
  Si           3.867735        3.315270       -9.790275
  Si           3.872504        3.813334       -9.833979
  Si           3.708457      -13.320050       -8.330561
  Si           3.713226      -12.821986       -8.374265
  Si           3.717995      -12.323923       -8.417969
  Si           3.722764      -11.825859       -8.461673
  Si           3.727532      -11.327796       -8.505377
  Si           3.732301      -10.829732       -8.549081
  Si           3.737070      -10.331669       -8.592785
  Si           3.741839       -9.833605       -8.636489
  Si           3.746608       -9.335542       -8.680193
  Si           3.751376       -8.837479       -8.723897
  Si           3.756145       -8.339415       -8.767601
  Si           3.816277       -7.340202       -9.958382
  Si           3.821045       -6.842139      -10.002086
  Si           3.825814       -6.344075      -10.045790
  Si           3.830583       -5.846012      -10.089494
  Si           3.835352       -5.347949      -10.133198
  Si           3.840121       -4.849885      -10.176902
  Si           3.844889       -4.351822      -10.220606
  Si           3.849658       -3.853758      -10.264310
  Si           3.854427       -3.355695      -10.308014
  Si           3.859196       -2.857631      -10.351718
  Si           3.863965       -2.359568      -10.395422
  Si           3.874456       -1.263828      -10.491571
  Si           3.879225       -0.765765      -10.535275
  Si           3.883993       -0.267701      -10.578979
  Si           3.888762        0.230362      -10.622683
  Si           3.893531        0.728426      -10.666387
  Si           3.898300        1.226489      -10.710091
  Si           3.903069        1.724553      -10.753795
  Si           3.907837        2.222616      -10.797499
  Si           3.912606        2.720680      -10.841203
  Si           3.917375        3.218743      -10.884907
  Si           3.922144        3.716807      -10.928611
  Si           3.758097      -13.416577       -9.425193
  Si           3.762866      -12.918513       -9.468897
  Si           3.767635      -12.420450       -9.512601
  Si           3.772404      -11.922386       -9.556305
  Si           3.777173      -11.424323       -9.600009
  Si           3.781941      -10.926259       -9.643713
  Si           3.786710      -10.428196       -9.687417
  Si           3.791479       -9.930132       -9.731121
  Si           3.796248       -9.432069       -9.774825
  Si           3.801017       -8.934006       -9.818529
  Si           3.805785       -8.435942       -9.862233
  Si           3.865917       -7.436729      -11.053015
  Si           3.870686       -6.938666      -11.096719
  Si           3.875454       -6.440602      -11.140423
  Si           3.880223       -5.942539      -11.184127
  Si           3.884992       -5.444476      -11.227831
  Si           3.889761       -4.946412      -11.271535
  Si           3.894530       -4.448349      -11.315239
  Si           3.899298       -3.950285      -11.358943
  Si           3.904067       -3.452222      -11.402647
  Si           3.908836       -2.954158      -11.446351
  Si           3.913605       -2.456095      -11.490055
  Si           3.924096       -1.360355      -11.586204
  Si           3.928865       -0.862292      -11.629908
  Si           3.933634       -0.364228      -11.673612
  Si           3.938402        0.133835      -11.717316
  Si           3.943171        0.631899      -11.761020
  Si           3.947940        1.129962      -11.804724
  Si           3.952709        1.628026      -11.848428
  Si           3.957478        2.126089      -11.892132
  Si           3.962246        2.624153      -11.935836
  Si           3.967015        3.122216      -11.979540
  Si           3.971784        3.620280      -12.023244
  Si           3.807738      -13.513104      -10.519826
  Si           3.812506      -13.015040      -10.563530
  Si           3.817275      -12.516977      -10.607234
  Si           3.822044      -12.018913      -10.650938
  Si           3.826813      -11.520850      -10.694642
  Si           3.831581      -11.022786      -10.738346
  Si           3.836350      -10.524723      -10.782050
  Si           3.841119      -10.026659      -10.825754
  Si           3.845888       -9.528596      -10.869458
  Si           3.850657       -9.030533      -10.913162
  Si           3.855425       -8.532469      -10.956866
  Si           3.071674       -5.892298        6.461107
  Si           3.076443       -5.394234        6.417403
  Si           3.081212       -4.896171        6.373699
  Si           3.085981       -4.398107        6.329995
  Si           3.090750       -3.900044        6.286291
  Si           3.095518       -3.401980        6.242587
  Si           3.100287       -2.903917        6.198883
  Si           3.105056       -2.405854        6.155179
  Si           3.109825       -1.907790        6.111475
  Si           3.114594       -1.409727        6.067771
  Si           3.119362       -0.911663        6.024067
  Si           3.129854        0.184077        5.927918
  Si           3.134623        0.682140        5.884214
  Si           3.139391        1.180203        5.840510
  Si           3.144160        1.678267        5.796806
  Si           3.148929        2.176330        5.753102
  Si           3.153698        2.674394        5.709398
  Si           3.158466        3.172457        5.665694
  Si           3.163235        3.670521        5.621990
  Si           3.168004        4.168584        5.578286
  Si           3.172773        4.666648        5.534582
  Si           3.177542        5.164711        5.490878
  Si           3.013495      -11.968672        6.994296
  Si           3.018264      -11.470609        6.950592
  Si           3.023033      -10.972545        6.906888
  Si           3.027802      -10.474482        6.863184
  Si           3.032570       -9.976418        6.819480
  Si           3.037339       -9.478355        6.775776
  Si           3.042108       -8.980291        6.732072
  Si           3.046877       -8.482228        6.688368
  Si           3.051646       -7.984164        6.644664
  Si           3.056414       -7.486101        6.600960
  Si           3.061183       -6.988037        6.557256
  Si           3.121315       -5.988825        5.366475
  Si           3.126083       -5.490761        5.322771
  Si           3.130852       -4.992698        5.279067
  Si           3.135621       -4.494634        5.235363
  Si           3.140390       -3.996571        5.191659
  Si           3.145159       -3.498507        5.147955
  Si           3.149927       -3.000444        5.104251
  Si           3.154696       -2.502380        5.060547
  Si           3.159465       -2.004317        5.016843
  Si           3.164234       -1.506254        4.973139
  Si           3.169003       -1.008190        4.929435
  Si           3.179494        0.087550        4.833286
  Si           3.184263        0.585613        4.789582
  Si           3.189031        1.083676        4.745878
  Si           3.193800        1.581740        4.702174
  Si           3.198569        2.079803        4.658470
  Si           3.203338        2.577867        4.614766
  Si           3.208107        3.075930        4.571062
  Si           3.212875        3.573994        4.527358
  Si           3.217644        4.072057        4.483654
  Si           3.222413        4.570121        4.439950
  Si           3.227182        5.068184        4.396246
  Si           3.063135      -12.065199        5.899664
  Si           3.067904      -11.567136        5.855960
  Si           3.072673      -11.069072        5.812256
  Si           3.077442      -10.571009        5.768552
  Si           3.082211      -10.072945        5.724848
  Si           3.086979       -9.574882        5.681144
  Si           3.091748       -9.076818        5.637440
  Si           3.096517       -8.578755        5.593736
  Si           3.101286       -8.080691        5.550032
  Si           3.106054       -7.582628        5.506328
  Si           3.110823       -7.084564        5.462624
  Si           3.170955       -6.085352        4.271842
  Si           3.175724       -5.587288        4.228138
  Si           3.180492       -5.089225        4.184434
  Si           3.185261       -4.591161        4.140730
  Si           3.190030       -4.093098        4.097026
  Si           3.194799       -3.595034        4.053322
  Si           3.199568       -3.096971        4.009618
  Si           3.204336       -2.598907        3.965914
  Si           3.209105       -2.100844        3.922210
  Si           3.213874       -1.602781        3.878506
  Si           3.218643       -1.104717        3.834802
  Si           3.229134       -0.008977        3.738653
  Si           3.233903        0.489086        3.694949
  Si           3.238672        0.987149        3.651245
  Si           3.243440        1.485213        3.607541
  Si           3.248209        1.983276        3.563837
  Si           3.252978        2.481340        3.520133
  Si           3.257747        2.979403        3.476429
  Si           3.262516        3.477467        3.432725
  Si           3.267284        3.975530        3.389021
  Si           3.272053        4.473594        3.345317
  Si           3.276822        4.971657        3.301613
  Si           3.112776      -12.161726        4.805031
  Si           3.117544      -11.663663        4.761327
  Si           3.122313      -11.165599        4.717623
  Si           3.127082      -10.667536        4.673919
  Si           3.131851      -10.169472        4.630215
  Si           3.136619       -9.671409        4.586511
  Si           3.141388       -9.173345        4.542807
  Si           3.146157       -8.675282        4.499103
  Si           3.150926       -8.177218        4.455399
  Si           3.155695       -7.679155        4.411695
  Si           3.160463       -7.181091        4.367991
  Si           3.220595       -6.181879        3.177209
  Si           3.225364       -5.683815        3.133505
  Si           3.230132       -5.185752        3.089801
  Si           3.234901       -4.687688        3.046097
  Si           3.239670       -4.189625        3.002393
  Si           3.244439       -3.691561        2.958689
  Si           3.249208       -3.193498        2.914985
  Si           3.253976       -2.695434        2.871281
  Si           3.258745       -2.197371        2.827577
  Si           3.263514       -1.699308        2.783873
  Si           3.268283       -1.201244        2.740169
  Si           3.278774       -0.105504        2.644021
  Si           3.283543        0.392559        2.600316
  Si           3.288312        0.890623        2.556612
  Si           3.293081        1.388686        2.512908
  Si           3.297849        1.886749        2.469204
  Si           3.302618        2.384813        2.425500
  Si           3.307387        2.882876        2.381796
  Si           3.312156        3.380940        2.338092
  Si           3.316925        3.879003        2.294388
  Si           3.321693        4.377067        2.250684
  Si           3.326462        4.875130        2.206980
  Si           3.162416      -12.258253        3.710398
  Si           3.167184      -11.760190        3.666694
  Si           3.171953      -11.262126        3.622990
  Si           3.176722      -10.764063        3.579286
  Si           3.181491      -10.265999        3.535582
  Si           3.186260       -9.767936        3.491878
  Si           3.191028       -9.269872        3.448174
  Si           3.195797       -8.771809        3.404470
  Si           3.200566       -8.273745        3.360766
  Si           3.205335       -7.775682        3.317062
  Si           3.210104       -7.277618        3.273358
  Si           3.270235       -6.278406        2.082577
  Si           3.275004       -5.780342        2.038873
  Si           3.279773       -5.282279        1.995169
  Si           3.284541       -4.784215        1.951465
  Si           3.289310       -4.286152        1.907761
  Si           3.294079       -3.788088        1.864057
  Si           3.298848       -3.290025        1.820353
  Si           3.303617       -2.791961        1.776649
  Si           3.308385       -2.293898        1.732945
  Si           3.313154       -1.795834        1.689241
  Si           3.317923       -1.297771        1.645537
  Si           3.328414       -0.202031        1.549388
  Si           3.333183        0.296032        1.505684
  Si           3.337952        0.794096        1.461980
  Si           3.342721        1.292159        1.418276
  Si           3.347489        1.790222        1.374572
  Si           3.352258        2.288286        1.330868
  Si           3.357027        2.786349        1.287164
  Si           3.361796        3.284413        1.243460
  Si           3.366565        3.782476        1.199756
  Si           3.371333        4.280540        1.156052
  Si           3.376102        4.778603        1.112348
  Si           3.212056      -12.354780        2.615766
  Si           3.216825      -11.856717        2.572062
  Si           3.221593      -11.358653        2.528358
  Si           3.226362      -10.860590        2.484654
  Si           3.231131      -10.362526        2.440950
  Si           3.235900       -9.864463        2.397246
  Si           3.240669       -9.366399        2.353542
  Si           3.245437       -8.868336        2.309838
  Si           3.250206       -8.370272        2.266134
  Si           3.254975       -7.872209        2.222430
  Si           3.259744       -7.374145        2.178726
  Si           3.319875       -6.374933        0.987944
  Si           3.324644       -5.876869        0.944240
  Si           3.329413       -5.378806        0.900536
  Si           3.334182       -4.880742        0.856832
  Si           3.338950       -4.382679        0.813128
  Si           3.343719       -3.884615        0.769424
  Si           3.348488       -3.386552        0.725720
  Si           3.353257       -2.888488        0.682016
  Si           3.358026       -2.390425        0.638312
  Si           3.362794       -1.892361        0.594608
  Si           3.367563       -1.394298        0.550904
  Si           3.378054       -0.298558        0.454755
  Si           3.382823        0.199505        0.411051
  Si           3.387592        0.697569        0.367347
  Si           3.392361        1.195632        0.323643
  Si           3.397130        1.693696        0.279939
  Si           3.401898        2.191759        0.236235
  Si           3.406667        2.689822        0.192531
  Si           3.411436        3.187886        0.148827
  Si           3.416205        3.685949        0.105123
  Si           3.420974        4.184013        0.061419
  Si           3.425742        4.682076        0.017715
  Si           3.261696      -12.451307        1.521133
  Si           3.266465      -11.953244        1.477429
  Si           3.271234      -11.455180        1.433725
  Si           3.276002      -10.957117        1.390021
  Si           3.280771      -10.459053        1.346317
  Si           3.285540       -9.960990        1.302613
  Si           3.290309       -9.462926        1.258909
  Si           3.295077       -8.964863        1.215205
  Si           3.299846       -8.466799        1.171501
  Si           3.304615       -7.968736        1.127797
  Si           3.309384       -7.470672        1.084093
  Si           3.369515       -6.471460       -0.106688
  Si           3.374284       -5.973396       -0.150392
  Si           3.379053       -5.475333       -0.194096
  Si           3.383822       -4.977269       -0.237800
  Si           3.388591       -4.479206       -0.281505
  Si           3.393359       -3.981142       -0.325209
  Si           3.398128       -3.483079       -0.368913
  Si           3.402897       -2.985015       -0.412617
  Si           3.407666       -2.486952       -0.456321
  Si           3.412434       -1.988888       -0.500025
  Si           3.417203       -1.490825       -0.543729
  Si           3.427695       -0.395085       -0.639877
  Si           3.432463        0.102978       -0.683581
  Si           3.437232        0.601042       -0.727285
  Si           3.442001        1.099105       -0.770989
  Si           3.446770        1.597169       -0.814693
  Si           3.451539        2.095232       -0.858397
  Si           3.456307        2.593295       -0.902101
  Si           3.461076        3.091359       -0.945805
  Si           3.465845        3.589422       -0.989509
  Si           3.470614        4.087486       -1.033213
  Si           3.475383        4.585549       -1.076918
  Si           3.311336      -12.547834        0.426500
  Si           3.316105      -12.049770        0.382796
  Si           3.320874      -11.551707        0.339092
  Si           3.325642      -11.053644        0.295388
  Si           3.330411      -10.555580        0.251684
  Si           3.335180      -10.057517        0.207980
  Si           3.339949       -9.559453        0.164276
  Si           3.344718       -9.061390        0.120572
  Si           3.349486       -8.563326        0.076868
  Si           3.354255       -8.065263        0.033164
  Si           3.359024       -7.567199       -0.010540
  Si           3.419155       -6.567987       -1.201321
  Si           3.423924       -6.069923       -1.245025
  Si           3.428693       -5.571860       -1.288729
  Si           3.433462       -5.073796       -1.332433
  Si           3.438231       -4.575733       -1.376137
  Si           3.442999       -4.077669       -1.419841
  Si           3.447768       -3.579606       -1.463545
  Si           3.452537       -3.081542       -1.507249
  Si           3.457306       -2.583479       -1.550953
  Si           3.462075       -2.085415       -1.594657
  Si           3.466843       -1.587352       -1.638361
  Si           3.477335       -0.491612       -1.734510
  Si           3.482104        0.006451       -1.778214
  Si           3.486872        0.504515       -1.821918
  Si           3.491641        1.002578       -1.865622
  Si           3.496410        1.500642       -1.909326
  Si           3.501179        1.998705       -1.953030
  Si           3.505948        2.496768       -1.996734
  Si           3.510716        2.994832       -2.040438
  Si           3.515485        3.492895       -2.084142
  Si           3.520254        3.990959       -2.127846
  Si           3.525023        4.489022       -2.171550
  Si           3.360976      -12.644361       -0.668132
  Si           3.365745      -12.146297       -0.711836
  Si           3.370514      -11.648234       -0.755540
  Si           3.375283      -11.150171       -0.799244
  Si           3.380051      -10.652107       -0.842948
  Si           3.384820      -10.154044       -0.886652
  Si           3.389589       -9.655980       -0.930356
  Si           3.394358       -9.157917       -0.974060
  Si           3.399127       -8.659853       -1.017764
  Si           3.403895       -8.161790       -1.061468
  Si           3.408664       -7.663726       -1.105172
  Si           4.567626       -6.670615       -2.245585
  Si           4.572395       -6.172551       -2.289289
  Si           4.577163       -5.674488       -2.332993
  Si           4.581932       -5.176424       -2.376697
  Si           4.586701       -4.678361       -2.420401
  Si           4.591470       -4.180297       -2.464105
  Si           4.596239       -3.682234       -2.507809
  Si           4.601007       -3.184171       -2.551513
  Si           4.605776       -2.686107       -2.595217
  Si           4.610545       -2.188044       -2.638921
  Si           4.615314       -1.689980       -2.682625
  Si           4.625805       -0.594240       -2.778774
  Si           4.630574       -0.096177       -2.822478
  Si           4.635343        0.401886       -2.866182
  Si           4.640112        0.899950       -2.909886
  Si           4.644880        1.398013       -2.953590
  Si           4.649649        1.896077       -2.997294
  Si           4.654418        2.394140       -3.040998
  Si           4.659187        2.892204       -3.084702
  Si           4.663956        3.390267       -3.128406
  Si           4.668724        3.888331       -3.172110
  Si           4.673493        4.386394       -3.215814
  Si           4.509447      -12.746989       -1.712396
  Si           4.514215      -12.248926       -1.756100
  Si           4.518984      -11.750862       -1.799804
  Si           4.523753      -11.252799       -1.843508
  Si           4.528522      -10.754735       -1.887212
  Si           4.533291      -10.256672       -1.930916
  Si           4.538059       -9.758608       -1.974620
  Si           4.542828       -9.260545       -2.018324
  Si           4.547597       -8.762481       -2.062028
  Si           4.552366       -8.264418       -2.105732
  Si           4.557135       -7.766354       -2.149436
  Si           4.617266       -6.767142       -3.340218
  Si           4.622035       -6.269078       -3.383922
  Si           4.626804       -5.771015       -3.427626
  Si           4.631572       -5.272951       -3.471330
  Si           4.636341       -4.774888       -3.515034
  Si           4.641110       -4.276824       -3.558738
  Si           4.645879       -3.778761       -3.602442
  Si           4.650648       -3.280698       -3.646146
  Si           4.655416       -2.782634       -3.689850
  Si           4.660185       -2.284571       -3.733554
  Si           4.664954       -1.786507       -3.777258
  Si           4.675445       -0.690767       -3.873407
  Si           4.680214       -0.192704       -3.917111
  Si           4.684983        0.305359       -3.960815
  Si           4.689752        0.803423       -4.004519
  Si           4.694520        1.301486       -4.048223
  Si           4.699289        1.799550       -4.091927
  Si           4.704058        2.297613       -4.135631
  Si           4.708827        2.795677       -4.179335
  Si           4.713596        3.293740       -4.223039
  Si           4.718364        3.791804       -4.266743
  Si           4.723133        4.289867       -4.310447
  Si           4.559087      -12.843516       -2.807029
  Si           4.563856      -12.345453       -2.850733
  Si           4.568624      -11.847389       -2.894437
  Si           4.573393      -11.349326       -2.938141
  Si           4.578162      -10.851262       -2.981845
  Si           4.582931      -10.353199       -3.025549
  Si           4.587700       -9.855135       -3.069253
  Si           4.592468       -9.357072       -3.112957
  Si           4.597237       -8.859008       -3.156661
  Si           4.602006       -8.360945       -3.200365
  Si           4.606775       -7.862881       -3.244069
  Si           4.666906       -6.863669       -4.434850
  Si           4.671675       -6.365605       -4.478554
  Si           4.676444       -5.867542       -4.522258
  Si           4.681213       -5.369478       -4.565963
  Si           4.685981       -4.871415       -4.609667
  Si           4.690750       -4.373351       -4.653371
  Si           4.695519       -3.875288       -4.697075
  Si           4.700288       -3.377224       -4.740779
  Si           4.705057       -2.879161       -4.784483
  Si           4.709825       -2.381098       -4.828187
  Si           4.714594       -1.883034       -4.871891
  Si           4.725085       -0.787294       -4.968039
  Si           4.729854       -0.289231       -5.011743
  Si           4.734623        0.208832       -5.055447
  Si           4.739392        0.706896       -5.099151
  Si           4.744161        1.204959       -5.142855
  Si           4.748929        1.703023       -5.186559
  Si           4.753698        2.201086       -5.230263
  Si           4.758467        2.699150       -5.273967
  Si           4.763236        3.197213       -5.317671
  Si           4.768005        3.695277       -5.361376
  Si           4.772773        4.193340       -5.405080
  Si           4.608727      -12.940043       -3.901662
  Si           4.613496      -12.441980       -3.945366
  Si           4.618265      -11.943916       -3.989070
  Si           4.623033      -11.445853       -4.032774
  Si           4.627802      -10.947789       -4.076478
  Si           4.632571      -10.449726       -4.120182
  Si           4.637340       -9.951662       -4.163886
  Si           4.642108       -9.453599       -4.207590
  Si           4.646877       -8.955535       -4.251294
  Si           4.651646       -8.457472       -4.294998
  Si           4.656415       -7.959408       -4.338702
  Si           4.716546       -6.960196       -5.529483
  Si           4.721315       -6.462132       -5.573187
  Si           4.726084       -5.964069       -5.616891
  Si           4.730853       -5.466005       -5.660595
  Si           4.735622       -4.967942       -5.704299
  Si           4.740390       -4.469878       -5.748003
  Si           4.745159       -3.971815       -5.791707
  Si           4.749928       -3.473751       -5.835411
  Si           4.754697       -2.975688       -5.879115
  Si           4.759465       -2.477625       -5.922819
  Si           4.764234       -1.979561       -5.966523
  Si           4.774726       -0.883821       -6.062672
  Si           4.779494       -0.385758       -6.106376
  Si           4.784263        0.112306       -6.150080
  Si           4.789032        0.610369       -6.193784
  Si           4.793801        1.108432       -6.237488
  Si           4.798570        1.606496       -6.281192
  Si           4.803338        2.104559       -6.324896
  Si           4.808107        2.602623       -6.368600
  Si           4.812876        3.100686       -6.412304
  Si           4.817645        3.598750       -6.456008
  Si           4.822414        4.096813       -6.499712
  Si           4.658367      -13.036570       -4.996294
  Si           4.663136      -12.538507       -5.039998
  Si           4.667905      -12.040443       -5.083702
  Si           4.672673      -11.542380       -5.127406
  Si           4.677442      -11.044316       -5.171110
  Si           4.682211      -10.546253       -5.214814
  Si           4.686980      -10.048189       -5.258518
  Si           4.691749       -9.550126       -5.302222
  Si           4.696517       -9.052062       -5.345926
  Si           4.701286       -8.553999       -5.389630
  Si           4.706055       -8.055935       -5.433334
  Si           4.766186       -7.056723       -6.624116
  Si           4.770955       -6.558659       -6.667820
  Si           4.775724       -6.060596       -6.711524
  Si           4.780493       -5.562532       -6.755228
  Si           4.785262       -5.064469       -6.798932
  Si           4.790030       -4.566405       -6.842636
  Si           4.794799       -4.068342       -6.886340
  Si           4.799568       -3.570278       -6.930044
  Si           4.804337       -3.072215       -6.973748
  Si           4.809106       -2.574151       -7.017452
  Si           4.813874       -2.076088       -7.061156
  Si           4.824366       -0.980348       -7.157305
  Si           4.829135       -0.482285       -7.201009
  Si           4.833903        0.015779       -7.244713
  Si           4.838672        0.513842       -7.288417
  Si           4.843441        1.011905       -7.332121
  Si           4.848210        1.509969       -7.375825
  Si           4.852979        2.008032       -7.419529
  Si           4.857747        2.506096       -7.463233
  Si           4.862516        3.004159       -7.506937
  Si           4.867285        3.502223       -7.550641
  Si           4.872054        4.000286       -7.594345
  Si           4.708007      -13.133097       -6.090927
  Si           4.712776      -12.635034       -6.134631
  Si           4.717545      -12.136970       -6.178335
  Si           4.722314      -11.638907       -6.222039
  Si           4.727082      -11.140843       -6.265743
  Si           4.731851      -10.642780       -6.309447
  Si           4.736620      -10.144716       -6.353151
  Si           4.741389       -9.646653       -6.396855
  Si           4.746158       -9.148589       -6.440559
  Si           4.750926       -8.650526       -6.484263
  Si           4.755695       -8.152462       -6.527967
  Si           4.815827       -7.153250       -7.718748
  Si           4.820595       -6.655186       -7.762452
  Si           4.825364       -6.157123       -7.806156
  Si           4.830133       -5.659059       -7.849860
  Si           4.834902       -5.160996       -7.893564
  Si           4.839671       -4.662932       -7.937268
  Si           4.844439       -4.164869       -7.980972
  Si           4.849208       -3.666805       -8.024676
  Si           4.853977       -3.168742       -8.068380
  Si           4.858746       -2.670678       -8.112084
  Si           4.863515       -2.172615       -8.155788
  Si           4.874006       -1.076875       -8.251937
  Si           4.878775       -0.578812       -8.295641
  Si           4.883543       -0.080748       -8.339345
  Si           4.888312        0.417315       -8.383049
  Si           4.893081        0.915378       -8.426753
  Si           4.897850        1.413442       -8.470457
  Si           4.902619        1.911505       -8.514161
  Si           4.907387        2.409569       -8.557865
  Si           4.912156        2.907632       -8.601569
  Si           4.916925        3.405696       -8.645273
  Si           4.921694        3.903759       -8.688977
  Si           4.757647      -13.229624       -7.185559
  Si           4.762416      -12.731561       -7.229263
  Si           4.767185      -12.233497       -7.272967
  Si           4.771954      -11.735434       -7.316671
  Si           4.776723      -11.237370       -7.360375
  Si           4.781491      -10.739307       -7.404079
  Si           4.786260      -10.241243       -7.447783
  Si           4.791029       -9.743180       -7.491488
  Si           4.795798       -9.245116       -7.535192
  Si           4.800566       -8.747053       -7.578896
  Si           4.805335       -8.248989       -7.622600
  Si           4.865467       -7.249777       -8.813381
  Si           4.870236       -6.751713       -8.857085
  Si           4.875004       -6.253650       -8.900789
  Si           4.879773       -5.755586       -8.944493
  Si           4.884542       -5.257523       -8.988197
  Si           4.889311       -4.759459       -9.031901
  Si           4.894080       -4.261396       -9.075605
  Si           4.898848       -3.763332       -9.119309
  Si           4.903617       -3.265269       -9.163013
  Si           4.908386       -2.767205       -9.206717
  Si           4.913155       -2.269142       -9.250421
  Si           4.923646       -1.173402       -9.346570
  Si           4.928415       -0.675339       -9.390274
  Si           4.933184       -0.177275       -9.433978
  Si           4.937952        0.320788       -9.477682
  Si           4.942721        0.818852       -9.521386
  Si           4.947490        1.316915       -9.565090
  Si           4.952259        1.814978       -9.608794
  Si           4.957028        2.313042       -9.652498
  Si           4.961796        2.811105       -9.696202
  Si           4.966565        3.309169       -9.739906
  Si           4.971334        3.807232       -9.783610
  Si           4.807288      -13.326151       -8.280192
  Si           4.812056      -12.828087       -8.323896
  Si           4.816825      -12.330024       -8.367600
  Si           4.821594      -11.831961       -8.411304
  Si           4.826363      -11.333897       -8.455008
  Si           4.831131      -10.835834       -8.498712
  Si           4.835900      -10.337770       -8.542416
  Si           4.840669       -9.839707       -8.586120
  Si           4.845438       -9.341643       -8.629824
  Si           4.850207       -8.843580       -8.673528
  Si           4.854975       -8.345516       -8.717232
  Si           4.915107       -7.346304       -9.908014
  Si           4.919876       -6.848240       -9.951718
  Si           4.924645       -6.350177       -9.995422
  Si           4.929413       -5.852113      -10.039126
  Si           4.934182       -5.354050      -10.082830
  Si           4.938951       -4.855986      -10.126534
  Si           4.943720       -4.357923      -10.170238
  Si           4.948488       -3.859859      -10.213942
  Si           4.953257       -3.361796      -10.257646
  Si           4.958026       -2.863732      -10.301350
  Si           4.962795       -2.365669      -10.345054
  Si           4.973286       -1.269929      -10.441203
  Si           4.978055       -0.771866      -10.484907
  Si           4.982824       -0.273802      -10.528611
  Si           4.987593        0.224261      -10.572315
  Si           4.992361        0.722325      -10.616019
  Si           4.997130        1.220388      -10.659723
  Si           5.001899        1.718451      -10.703427
  Si           5.006668        2.216515      -10.747131
  Si           5.011437        2.714578      -10.790835
  Si           5.016205        3.212642      -10.834539
  Si           5.020974        3.710705      -10.878243
  Si           4.856928      -13.422678       -9.374825
  Si           4.861696      -12.924614       -9.418529
  Si           4.866465      -12.426551       -9.462233
  Si           4.871234      -11.928488       -9.505937
  Si           4.876003      -11.430424       -9.549641
  Si           4.880772      -10.932361       -9.593345
  Si           4.885540      -10.434297       -9.637049
  Si           4.890309       -9.936234       -9.680753
  Si           4.895078       -9.438170       -9.724457
  Si           4.899847       -8.940107       -9.768161
  Si           4.904616       -8.442043       -9.811865
  Si           4.964747       -7.442831      -11.002646
  Si           4.969516       -6.944767      -11.046350
  Si           4.974285       -6.446704      -11.090054
  Si           4.979053       -5.948640      -11.133758
  Si           4.983822       -5.450577      -11.177462
  Si           4.988591       -4.952513      -11.221166
  Si           4.993360       -4.454450      -11.264870
  Si           4.998129       -3.956386      -11.308574
  Si           5.002897       -3.458323      -11.352278
  Si           5.007666       -2.960259      -11.395982
  Si           5.012435       -2.462196      -11.439686
  Si           5.022926       -1.366456      -11.535835
  Si           5.027695       -0.868393      -11.579539
  Si           5.032464       -0.370329      -11.623243
  Si           5.037233        0.127734      -11.666947
  Si           5.042001        0.625798      -11.710651
  Si           5.046770        1.123861      -11.754355
  Si           5.051539        1.621925      -11.798059
  Si           5.056308        2.119988      -11.841763
  Si           5.061077        2.618051      -11.885467
  Si           5.065845        3.116115      -11.929171
  Si           5.070614        3.614178      -11.972875
  Si           4.906568      -13.519205      -10.469457
  Si           4.911337      -13.021141      -10.513161
  Si           4.916105      -12.523078      -10.556865
  Si           4.920874      -12.025015      -10.600569
  Si           4.925643      -11.526951      -10.644273
  Si           4.930412      -11.028888      -10.687977
  Si           4.935181      -10.530824      -10.731681
  Si           4.939949      -10.032761      -10.775385
  Si           4.944718       -9.534697      -10.819089
  Si           4.949487       -9.036634      -10.862793
  Si           4.954256       -8.538570      -10.906497
  Si           4.170505       -5.898399        6.511476
  Si           4.175274       -5.400336        6.467772
  Si           4.180042       -4.902272        6.424068
  Si           4.184811       -4.404209        6.380364
  Si           4.189580       -3.906145        6.336660
  Si           4.194349       -3.408082        6.292956
  Si           4.199118       -2.910018        6.249252
  Si           4.203886       -2.411955        6.205548
  Si           4.208655       -1.913891        6.161844
  Si           4.213424       -1.415828        6.118140
  Si           4.218193       -0.917764        6.074436
  Si           4.228684        0.177975        5.978287
  Si           4.233453        0.676039        5.934583
  Si           4.238222        1.174102        5.890879
  Si           4.242990        1.672166        5.847175
  Si           4.247759        2.170229        5.803471
  Si           4.252528        2.668293        5.759767
  Si           4.257297        3.166356        5.716063
  Si           4.262066        3.664420        5.672359
  Si           4.266834        4.162483        5.628655
  Si           4.271603        4.660547        5.584951
  Si           4.276372        5.158610        5.541247
  Si           4.112326      -11.974773        7.044665
  Si           4.117094      -11.476710        7.000961
  Si           4.121863      -10.978646        6.957257
  Si           4.126632      -10.480583        6.913553
  Si           4.131401       -9.982519        6.869849
  Si           4.136169       -9.484456        6.826145
  Si           4.140938       -8.986393        6.782441
  Si           4.145707       -8.488329        6.738737
  Si           4.150476       -7.990266        6.695033
  Si           4.155245       -7.492202        6.651329
  Si           4.160013       -6.994139        6.607625
  Si           4.220145       -5.994926        5.416843
  Si           4.224914       -5.496863        5.373139
  Si           4.229682       -4.998799        5.329435
  Si           4.234451       -4.500736        5.285731
  Si           4.239220       -4.002672        5.242027
  Si           4.243989       -3.504609        5.198323
  Si           4.248758       -3.006545        5.154619
  Si           4.253526       -2.508482        5.110915
  Si           4.258295       -2.010418        5.067211
  Si           4.263064       -1.512355        5.023507
  Si           4.267833       -1.014291        4.979803
  Si           4.278324        0.081448        4.883654
  Si           4.283093        0.579512        4.839950
  Si           4.287862        1.077575        4.796246
  Si           4.292631        1.575639        4.752542
  Si           4.297399        2.073702        4.708838
  Si           4.302168        2.571766        4.665134
  Si           4.306937        3.069829        4.621430
  Si           4.311706        3.567893        4.577726
  Si           4.316475        4.065956        4.534022
  Si           4.321243        4.564020        4.490318
  Si           4.326012        5.062083        4.446614
  Si           4.161966      -12.071300        5.950032
  Si           4.166734      -11.573237        5.906328
  Si           4.171503      -11.075173        5.862624
  Si           4.176272      -10.577110        5.818920
  Si           4.181041      -10.079046        5.775216
  Si           4.185810       -9.580983        5.731512
  Si           4.190578       -9.082919        5.687808
  Si           4.195347       -8.584856        5.644104
  Si           4.200116       -8.086793        5.600400
  Si           4.204885       -7.588729        5.556696
  Si           4.209654       -7.090666        5.512992
  Si           4.269785       -6.091453        4.322211
  Si           4.274554       -5.593389        4.278507
  Si           4.279323       -5.095326        4.234803
  Si           4.284091       -4.597263        4.191099
  Si           4.288860       -4.099199        4.147395
  Si           4.293629       -3.601136        4.103691
  Si           4.298398       -3.103072        4.059987
  Si           4.303167       -2.605009        4.016283
  Si           4.307935       -2.106945        3.972579
  Si           4.312704       -1.608882        3.928874
  Si           4.317473       -1.110818        3.885170
  Si           4.327964       -0.015079        3.789022
  Si           4.332733        0.482985        3.745318
  Si           4.337502        0.981048        3.701614
  Si           4.342271        1.479112        3.657910
  Si           4.347039        1.977175        3.614206
  Si           4.351808        2.475239        3.570502
  Si           4.356577        2.973302        3.526798
  Si           4.361346        3.471366        3.483094
  Si           4.366115        3.969429        3.439390
  Si           4.370883        4.467493        3.395686
  Si           4.375652        4.965556        3.351982
  Si           4.211606      -12.167827        4.855400
  Si           4.216375      -11.669764        4.811696
  Si           4.221143      -11.171700        4.767992
  Si           4.225912      -10.673637        4.724287
  Si           4.230681      -10.175573        4.680583
  Si           4.235450       -9.677510        4.636879
  Si           4.240219       -9.179446        4.593175
  Si           4.244987       -8.681383        4.549471
  Si           4.249756       -8.183320        4.505767
  Si           4.254525       -7.685256        4.462063
  Si           4.259294       -7.187193        4.418359
  Si           4.319425       -6.187980        3.227578
  Si           4.324194       -5.689916        3.183874
  Si           4.328963       -5.191853        3.140170
  Si           4.333732       -4.693790        3.096466
  Si           4.338500       -4.195726        3.052762
  Si           4.343269       -3.697663        3.009058
  Si           4.348038       -3.199599        2.965354
  Si           4.352807       -2.701536        2.921650
  Si           4.357576       -2.203472        2.877946
  Si           4.362344       -1.705409        2.834242
  Si           4.367113       -1.207345        2.790538
  Si           4.377604       -0.111606        2.694389
  Si           4.382373        0.386458        2.650685
  Si           4.387142        0.884521        2.606981
  Si           4.391911        1.382585        2.563277
  Si           4.396680        1.880648        2.519573
  Si           4.401448        2.378712        2.475869
  Si           4.406217        2.876775        2.432165
  Si           4.410986        3.374839        2.388461
  Si           4.415755        3.872902        2.344757
  Si           4.420524        4.370966        2.301053
  Si           4.425292        4.869029        2.257349
  Si           4.261246      -12.264354        3.760767
  Si           4.266015      -11.766291        3.717063
  Si           4.270784      -11.268227        3.673359
  Si           4.275552      -10.770164        3.629655
  Si           4.280321      -10.272100        3.585951
  Si           4.285090       -9.774037        3.542247
  Si           4.289859       -9.275973        3.498543
  Si           4.294627       -8.777910        3.454839
  Si           4.299396       -8.279846        3.411135
  Si           4.304165       -7.781783        3.367431
  Si           4.308934       -7.283720        3.323727
  Si           4.369065       -6.284507        2.132945
  Si           4.373834       -5.786443        2.089241
  Si           4.378603       -5.288380        2.045537
  Si           4.383372       -4.790316        2.001833
  Si           4.388141       -4.292253        1.958129
  Si           4.392909       -3.794190        1.914425
  Si           4.397678       -3.296126        1.870721
  Si           4.402447       -2.798063        1.827017
  Si           4.407216       -2.299999        1.783313
  Si           4.411984       -1.801936        1.739609
  Si           4.416753       -1.303872        1.695905
  Si           4.427245       -0.208133        1.599756
  Si           4.432013        0.289931        1.556052
  Si           4.436782        0.787994        1.512348
  Si           4.441551        1.286058        1.468644
  Si           4.446320        1.784121        1.424940
  Si           4.451089        2.282185        1.381236
  Si           4.455857        2.780248        1.337532
  Si           4.460626        3.278312        1.293828
  Si           4.465395        3.776375        1.250124
  Si           4.470164        4.274439        1.206420
  Si           4.474933        4.772502        1.162716
  Si           4.310886      -12.360881        2.666134
  Si           4.315655      -11.862818        2.622430
  Si           4.320424      -11.364754        2.578726
  Si           4.325192      -10.866691        2.535022
  Si           4.329961      -10.368627        2.491318
  Si           4.334730       -9.870564        2.447614
  Si           4.339499       -9.372500        2.403910
  Si           4.344268       -8.874437        2.360206
  Si           4.349036       -8.376373        2.316502
  Si           4.353805       -7.878310        2.272798
  Si           4.358574       -7.380247        2.229094
  Si           4.418705       -6.381034        1.038313
  Si           4.423474       -5.882970        0.994609
  Si           4.428243       -5.384907        0.950905
  Si           4.433012       -4.886843        0.907201
  Si           4.437781       -4.388780        0.863497
  Si           4.442549       -3.890717        0.819793
  Si           4.447318       -3.392653        0.776089
  Si           4.452087       -2.894590        0.732385
  Si           4.456856       -2.396526        0.688681
  Si           4.461625       -1.898463        0.644977
  Si           4.466393       -1.400399        0.601273
  Si           4.476885       -0.304660        0.505124
  Si           4.481654        0.193404        0.461420
  Si           4.486422        0.691467        0.417716
  Si           4.491191        1.189531        0.374012
  Si           4.495960        1.687594        0.330308
  Si           4.500729        2.185658        0.286604
  Si           4.505497        2.683721        0.242900
  Si           4.510266        3.181785        0.199196
  Si           4.515035        3.679848        0.155492
  Si           4.519804        4.177912        0.111788
  Si           4.524573        4.675975        0.068084
  Si           4.360526      -12.457408        1.571502
  Si           4.365295      -11.959345        1.527798
  Si           4.370064      -11.461281        1.484094
  Si           4.374833      -10.963218        1.440390
  Si           4.379601      -10.465154        1.396686
  Si           4.384370       -9.967091        1.352982
  Si           4.389139       -9.469027        1.309278
  Si           4.393908       -8.970964        1.265574
  Si           4.398677       -8.472900        1.221870
  Si           4.403445       -7.974837        1.178166
  Si           4.408214       -7.476774        1.134462
  Si           4.468346       -6.477561       -0.056320
  Si           4.473114       -5.979497       -0.100024
  Si           4.477883       -5.481434       -0.143728
  Si           4.482652       -4.983370       -0.187432
  Si           4.487421       -4.485307       -0.231136
  Si           4.492190       -3.987244       -0.274840
  Si           4.496958       -3.489180       -0.318544
  Si           4.501727       -2.991117       -0.362248
  Si           4.506496       -2.493053       -0.405952
  Si           4.511265       -1.994990       -0.449656
  Si           4.516034       -1.496926       -0.493360
  Si           4.526525       -0.401187       -0.589509
  Si           4.531294        0.096877       -0.633213
  Si           4.536062        0.594940       -0.676917
  Si           4.540831        1.093004       -0.720621
  Si           4.545600        1.591067       -0.764325
  Si           4.550369        2.089131       -0.808029
  Si           4.555138        2.587194       -0.851733
  Si           4.559906        3.085258       -0.895437
  Si           4.564675        3.583321       -0.939141
  Si           4.569444        4.081385       -0.982845
  Si           4.574213        4.579448       -1.026549
  Si           4.410166      -12.553935        0.476869
  Si           4.414935      -12.055872        0.433165
  Si           4.419704      -11.557808        0.389461
  Si           4.424473      -11.059745        0.345757
  Si           4.429242      -10.561681        0.302053
  Si           4.434010      -10.063618        0.258349
  Si           4.438779       -9.565554        0.214645
  Si           4.443548       -9.067491        0.170941
  Si           4.448317       -8.569427        0.127237
  Si           4.453085       -8.071364        0.083533
  Si           4.457854       -7.573300        0.039829
  Si           4.517986       -6.574088       -1.150953
  Si           4.522755       -6.076024       -1.194657
  Si           4.527523       -5.577961       -1.238361
  Si           4.532292       -5.079897       -1.282065
  Si           4.537061       -4.581834       -1.325769
  Si           4.541830       -4.083770       -1.369473
  Si           4.546599       -3.585707       -1.413177
  Si           4.551367       -3.087644       -1.456881
  Si           4.556136       -2.589580       -1.500585
  Si           4.560905       -2.091517       -1.544289
  Si           4.565674       -1.593453       -1.587993
  Si           4.576165       -0.497714       -1.684142
  Si           4.580934        0.000350       -1.727846
  Si           4.585703        0.498413       -1.771550
  Si           4.590471        0.996477       -1.815254
  Si           4.595240        1.494540       -1.858958
  Si           4.600009        1.992604       -1.902662
  Si           4.604778        2.490667       -1.946366
  Si           4.609547        2.988731       -1.990070
  Si           4.614315        3.486794       -2.033774
  Si           4.619084        3.984858       -2.077478
  Si           4.623853        4.482921       -2.121182
  Si           4.459807      -12.650462       -0.617764
  Si           4.464575      -12.152399       -0.661468
  Si           4.469344      -11.654335       -0.705172
  Si           4.474113      -11.156272       -0.748876
  Si           4.478882      -10.658208       -0.792580
  Si           4.483650      -10.160145       -0.836284
  Si           4.488419       -9.662081       -0.879988
  Si           4.493188       -9.164018       -0.923692
  Si           4.497957       -8.665954       -0.967396
  Si           4.502726       -8.167891       -1.011100
  Si           4.507494       -7.669827       -1.054804
  Si           5.666456       -6.676716       -2.195217
  Si           5.671225       -6.178653       -2.238921
  Si           5.675994       -5.680589       -2.282625
  Si           5.680763       -5.182526       -2.326329
  Si           5.685531       -4.684462       -2.370033
  Si           5.690300       -4.186399       -2.413737
  Si           5.695069       -3.688335       -2.457441
  Si           5.699838       -3.190272       -2.501145
  Si           5.704607       -2.692208       -2.544849
  Si           5.709375       -2.194145       -2.588553
  Si           5.714144       -1.696081       -2.632257
  Si           5.724635       -0.600342       -2.728406
  Si           5.729404       -0.102278       -2.772110
  Si           5.734173        0.395785       -2.815814
  Si           5.738942        0.893849       -2.859518
  Si           5.743711        1.391912       -2.903222
  Si           5.748479        1.889976       -2.946926
  Si           5.753248        2.388039       -2.990630
  Si           5.758017        2.886103       -3.034334
  Si           5.762786        3.384166       -3.078038
  Si           5.767555        3.882230       -3.121742
  Si           5.772323        4.380293       -3.165446
  Si           5.608277      -12.753090       -1.662028
  Si           5.613046      -12.255027       -1.705732
  Si           5.617815      -11.756963       -1.749436
  Si           5.622583      -11.258900       -1.793140
  Si           5.627352      -10.760836       -1.836844
  Si           5.632121      -10.262773       -1.880548
  Si           5.636890       -9.764710       -1.924252
  Si           5.641658       -9.266646       -1.967956
  Si           5.646427       -8.768583       -2.011660
  Si           5.651196       -8.270519       -2.055364
  Si           5.655965       -7.772456       -2.099068
  Si           5.716096       -6.773243       -3.289849
  Si           5.720865       -6.275180       -3.333553
  Si           5.725634       -5.777116       -3.377257
  Si           5.730403       -5.279053       -3.420961
  Si           5.735172       -4.780989       -3.464665
  Si           5.739940       -4.282926       -3.508369
  Si           5.744709       -3.784862       -3.552073
  Si           5.749478       -3.286799       -3.595777
  Si           5.754247       -2.788735       -3.639481
  Si           5.759015       -2.290672       -3.683185
  Si           5.763784       -1.792608       -3.726889
  Si           5.774276       -0.696869       -3.823038
  Si           5.779044       -0.198805       -3.866742
  Si           5.783813        0.299258       -3.910446
  Si           5.788582        0.797322       -3.954150
  Si           5.793351        1.295385       -3.997854
  Si           5.798120        1.793449       -4.041558
  Si           5.802888        2.291512       -4.085262
  Si           5.807657        2.789576       -4.128966
  Si           5.812426        3.287639       -4.172670
  Si           5.817195        3.785703       -4.216374
  Si           5.821964        4.283766       -4.260078
  Si           5.657917      -12.849617       -2.756660
  Si           5.662686      -12.351554       -2.800364
  Si           5.667455      -11.853490       -2.844068
  Si           5.672223      -11.355427       -2.887772
  Si           5.676992      -10.857363       -2.931476
  Si           5.681761      -10.359300       -2.975180
  Si           5.686530       -9.861236       -3.018884
  Si           5.691299       -9.363173       -3.062588
  Si           5.696067       -8.865110       -3.106292
  Si           5.700836       -8.367046       -3.149996
  Si           5.705605       -7.868983       -3.193700
  Si           5.765736       -6.869770       -4.384482
  Si           5.770505       -6.371706       -4.428186
  Si           5.775274       -5.873643       -4.471890
  Si           5.780043       -5.375580       -4.515594
  Si           5.784812       -4.877516       -4.559298
  Si           5.789580       -4.379453       -4.603002
  Si           5.794349       -3.881389       -4.646706
  Si           5.799118       -3.383326       -4.690410
  Si           5.803887       -2.885262       -4.734114
  Si           5.808656       -2.387199       -4.777818
  Si           5.813424       -1.889135       -4.821522
  Si           5.823916       -0.793396       -4.917671
  Si           5.828685       -0.295332       -4.961375
  Si           5.833453        0.202731       -5.005079
  Si           5.838222        0.700795       -5.048783
  Si           5.842991        1.198858       -5.092487
  Si           5.847760        1.696922       -5.136191
  Si           5.852528        2.194985       -5.179895
  Si           5.857297        2.693049       -5.223599
  Si           5.862066        3.191112       -5.267303
  Si           5.866835        3.689176       -5.311007
  Si           5.871604        4.187239       -5.354711
  Si           5.707557      -12.946144       -3.851293
  Si           5.712326      -12.448081       -3.894997
  Si           5.717095      -11.950017       -3.938701
  Si           5.721864      -11.451954       -3.982405
  Si           5.726632      -10.953890       -4.026109
  Si           5.731401      -10.455827       -4.069813
  Si           5.736170       -9.957763       -4.113517
  Si           5.740939       -9.459700       -4.157221
  Si           5.745708       -8.961637       -4.200925
  Si           5.750476       -8.463573       -4.244629
  Si           5.755245       -7.965510       -4.288333
  Si           5.815377       -6.966297       -5.479115
  Si           5.820145       -6.468233       -5.522819
  Si           5.824914       -5.970170       -5.566523
  Si           5.829683       -5.472107       -5.610227
  Si           5.834452       -4.974043       -5.653931
  Si           5.839221       -4.475980       -5.697635
  Si           5.843989       -3.977916       -5.741339
  Si           5.848758       -3.479853       -5.785043
  Si           5.853527       -2.981789       -5.828747
  Si           5.858296       -2.483726       -5.872451
  Si           5.863065       -1.985662       -5.916155
  Si           5.873556       -0.889923       -6.012304
  Si           5.878325       -0.391859       -6.056008
  Si           5.883093        0.106204       -6.099712
  Si           5.887862        0.604268       -6.143416
  Si           5.892631        1.102331       -6.187120
  Si           5.897400        1.600395       -6.230824
  Si           5.902169        2.098458       -6.274528
  Si           5.906937        2.596522       -6.318232
  Si           5.911706        3.094585       -6.361936
  Si           5.916475        3.592649       -6.405640
  Si           5.921244        4.090712       -6.449344
  Si           5.757197      -13.042671       -4.945926
  Si           5.761966      -12.544608       -4.989630
  Si           5.766735      -12.046544       -5.033334
  Si           5.771504      -11.548481       -5.077038
  Si           5.776273      -11.050417       -5.120742
  Si           5.781041      -10.552354       -5.164446
  Si           5.785810      -10.054290       -5.208150
  Si           5.790579       -9.556227       -5.251854
  Si           5.795348       -9.058163       -5.295558
  Si           5.800116       -8.560100       -5.339262
  Si           5.804885       -8.062037       -5.382966
  Si           5.865017       -7.062824       -6.573747
  Si           5.869786       -6.564760       -6.617451
  Si           5.874554       -6.066697       -6.661155
  Si           5.879323       -5.568634       -6.704859
  Si           5.884092       -5.070570       -6.748563
  Si           5.888861       -4.572507       -6.792267
  Si           5.893630       -4.074443       -6.835971
  Si           5.898398       -3.576380       -6.879675
  Si           5.903167       -3.078316       -6.923379
  Si           5.907936       -2.580253       -6.967083
  Si           5.912705       -2.082189       -7.010787
  Si           5.923196       -0.986450       -7.106936
  Si           5.927965       -0.488386       -7.150640
  Si           5.932734        0.009677       -7.194344
  Si           5.937502        0.507741       -7.238048
  Si           5.942271        1.005804       -7.281752
  Si           5.947040        1.503868       -7.325456
  Si           5.951809        2.001931       -7.369160
  Si           5.956578        2.499995       -7.412864
  Si           5.961346        2.998058       -7.456568
  Si           5.966115        3.496122       -7.500272
  Si           5.970884        3.994185       -7.543976
  Si           5.806838      -13.139198       -6.040558
  Si           5.811606      -12.641135       -6.084262
  Si           5.816375      -12.143071       -6.127966
  Si           5.821144      -11.645008       -6.171670
  Si           5.825913      -11.146944       -6.215374
  Si           5.830681      -10.648881       -6.259078
  Si           5.835450      -10.150817       -6.302782
  Si           5.840219       -9.652754       -6.346486
  Si           5.844988       -9.154690       -6.390190
  Si           5.849757       -8.656627       -6.433894
  Si           5.854525       -8.158564       -6.477598
  Si           5.914657       -7.159351       -7.668380
  Si           5.919426       -6.661287       -7.712084
  Si           5.924194       -6.163224       -7.755788
  Si           5.928963       -5.665160       -7.799492
  Si           5.933732       -5.167097       -7.843196
  Si           5.938501       -4.669034       -7.886900
  Si           5.943270       -4.170970       -7.930604
  Si           5.948038       -3.672907       -7.974308
  Si           5.952807       -3.174843       -8.018012
  Si           5.957576       -2.676780       -8.061716
  Si           5.962345       -2.178716       -8.105420
  Si           5.972836       -1.082977       -8.201569
  Si           5.977605       -0.584913       -8.245273
  Si           5.982374       -0.086850       -8.288977
  Si           5.987143        0.411214       -8.332681
  Si           5.991911        0.909277       -8.376385
  Si           5.996680        1.407341       -8.420089
  Si           6.001449        1.905404       -8.463793
  Si           6.006218        2.403468       -8.507497
  Si           6.010987        2.901531       -8.551201
  Si           6.015755        3.399595       -8.594905
  Si           6.020524        3.897658       -8.638609
  Si           5.856478      -13.235725       -7.135191
  Si           5.861246      -12.737662       -7.178895
  Si           5.866015      -12.239598       -7.222599
  Si           5.870784      -11.741535       -7.266303
  Si           5.875553      -11.243471       -7.310007
  Si           5.880322      -10.745408       -7.353711
  Si           5.885090      -10.247344       -7.397415
  Si           5.889859       -9.749281       -7.441119
  Si           5.894628       -9.251217       -7.484823
  Si           5.899397       -8.753154       -7.528527
  Si           5.904166       -8.255091       -7.572231
  Si           5.964297       -7.255878       -8.763012
  Si           5.969066       -6.757814       -8.806716
  Si           5.973835       -6.259751       -8.850420
  Si           5.978603       -5.761687       -8.894125
  Si           5.983372       -5.263624       -8.937829
  Si           5.988141       -4.765561       -8.981533
  Si           5.992910       -4.267497       -9.025237
  Si           5.997679       -3.769434       -9.068941
  Si           6.002447       -3.271370       -9.112645
  Si           6.007216       -2.773307       -9.156349
  Si           6.011985       -2.275243       -9.200053
  Si           6.022476       -1.179504       -9.296201
  Si           6.027245       -0.681440       -9.339905
  Si           6.032014       -0.183377       -9.383609
  Si           6.036783        0.314687       -9.427313
  Si           6.041551        0.812750       -9.471017
  Si           6.046320        1.310814       -9.514721
  Si           6.051089        1.808877       -9.558425
  Si           6.055858        2.306941       -9.602129
  Si           6.060627        2.805004       -9.645834
  Si           6.065395        3.303068       -9.689538
  Si           6.070164        3.801131       -9.733242
  Si           5.906118      -13.332252       -8.229824
  Si           5.910887      -12.834189       -8.273528
  Si           5.915655      -12.336125       -8.317232
  Si           5.920424      -11.838062       -8.360936
  Si           5.925193      -11.339998       -8.404640
  Si           5.929962      -10.841935       -8.448344
  Si           5.934731      -10.343871       -8.492048
  Si           5.939499       -9.845808       -8.535752
  Si           5.944268       -9.347744       -8.579456
  Si           5.949037       -8.849681       -8.623160
  Si           5.953806       -8.351617       -8.666864
  Si           6.013937       -7.352405       -9.857645
  Si           6.018706       -6.854341       -9.901349
  Si           6.023475       -6.356278       -9.945053
  Si           6.028244       -5.858214       -9.988757
  Si           6.033012       -5.360151      -10.032461
  Si           6.037781       -4.862087      -10.076165
  Si           6.042550       -4.364024      -10.119869
  Si           6.047319       -3.865961      -10.163573
  Si           6.052088       -3.367897      -10.207277
  Si           6.056856       -2.869834      -10.250981
  Si           6.061625       -2.371770      -10.294685
  Si           6.072116       -1.276031      -10.390834
  Si           6.076885       -0.777967      -10.434538
  Si           6.081654       -0.279904      -10.478242
  Si           6.086423        0.218160      -10.521946
  Si           6.091192        0.716223      -10.565650
  Si           6.095960        1.214287      -10.609354
  Si           6.100729        1.712350      -10.653058
  Si           6.105498        2.210414      -10.696762
  Si           6.110267        2.708477      -10.740466
  Si           6.115036        3.206541      -10.784170
  Si           6.119804        3.704604      -10.827874
  Si           5.955758      -13.428779       -9.324456
  Si           5.960527      -12.930716       -9.368160
  Si           5.965296      -12.432652       -9.411864
  Si           5.970064      -11.934589       -9.455568
  Si           5.974833      -11.436525       -9.499272
  Si           5.979602      -10.938462       -9.542976
  Si           5.984371      -10.440398       -9.586680
  Si           5.989139       -9.942335       -9.630384
  Si           5.993908       -9.444271       -9.674088
  Si           5.998677       -8.946208       -9.717792
  Si           6.003446       -8.448144       -9.761496
  Si           6.063577       -7.448932      -10.952278
  Si           6.068346       -6.950868      -10.995982
  Si           6.073115       -6.452805      -11.039686
  Si           6.077884       -5.954741      -11.083390
  Si           6.082653       -5.456678      -11.127094
  Si           6.087421       -4.958614      -11.170798
  Si           6.092190       -4.460551      -11.214502
  Si           6.096959       -3.962488      -11.258206
  Si           6.101728       -3.464424      -11.301910
  Si           6.106496       -2.966361      -11.345614
  Si           6.111265       -2.468297      -11.389318
  Si           6.121757       -1.372558      -11.485467
  Si           6.126525       -0.874494      -11.529171
  Si           6.131294       -0.376431      -11.572875
  Si           6.136063        0.121633      -11.616579
  Si           6.140832        0.619696      -11.660283
  Si           6.145601        1.117760      -11.703987
  Si           6.150369        1.615823      -11.747691
  Si           6.155138        2.113887      -11.791395
  Si           6.159907        2.611950      -11.835099
  Si           6.164676        3.110014      -11.878803
  Si           6.169445        3.608077      -11.922507
  Si           6.005398      -13.525306      -10.419089
  Si           6.010167      -13.027243      -10.462793
  Si           6.014936      -12.529179      -10.506497
  Si           6.019704      -12.031116      -10.550201
  Si           6.024473      -11.533052      -10.593905
  Si           6.029242      -11.034989      -10.637609
  Si           6.034011      -10.536925      -10.681313
  Si           6.038780      -10.038862      -10.725017
  Si           6.043548       -9.540798      -10.768721
  Si           6.048317       -9.042735      -10.812425
  Si           6.053086       -8.544671      -10.856129
  Si           5.269335       -5.904500        6.561844
  Si           5.274104       -5.406437        6.518140
  Si           5.278873       -4.908373        6.474436
  Si           5.283641       -4.410310        6.430732
  Si           5.288410       -3.912246        6.387028
  Si           5.293179       -3.414183        6.343324
  Si           5.297948       -2.916119        6.299620
  Si           5.302717       -2.418056        6.255916
  Si           5.307485       -1.919992        6.212212
  Si           5.312254       -1.421929        6.168508
  Si           5.317023       -0.923866        6.124804
  Si           5.327514        0.171874        6.028655
  Si           5.332283        0.669938        5.984951
  Si           5.337052        1.168001        5.941247
  Si           5.341821        1.666065        5.897543
  Si           5.346589        2.164128        5.853839
  Si           5.351358        2.662191        5.810135
  Si           5.356127        3.160255        5.766431
  Si           5.360896        3.658318        5.722727
  Si           5.365665        4.156382        5.679023
  Si           5.370433        4.654445        5.635319
  Si           5.375202        5.152509        5.591615
  Si           5.211156      -11.980875        7.095033
  Si           5.215925      -11.482811        7.051329
  Si           5.220693      -10.984748        7.007625
  Si           5.225462      -10.486684        6.963921
  Si           5.230231       -9.988621        6.920217
  Si           5.235000       -9.490557        6.876513
  Si           5.239769       -8.992494        6.832809
  Si           5.244537       -8.494430        6.789105
  Si           5.249306       -7.996367        6.745401
  Si           5.254075       -7.498303        6.701697
  Si           5.258844       -7.000240        6.657993
  Si           5.318975       -6.001027        5.467212
  Si           5.323744       -5.502964        5.423508
  Si           5.328513       -5.004900        5.379804
  Si           5.333282       -4.506837        5.336100
  Si           5.338050       -4.008773        5.292396
  Si           5.342819       -3.510710        5.248692
  Si           5.347588       -3.012646        5.204988
  Si           5.352357       -2.514583        5.161284
  Si           5.357126       -2.016519        5.117580
  Si           5.361894       -1.518456        5.073876
  Si           5.366663       -1.020393        5.030172
  Si           5.377154        0.075347        4.934023
  Si           5.381923        0.573411        4.890319
  Si           5.386692        1.071474        4.846615
  Si           5.391461        1.569538        4.802911
  Si           5.396230        2.067601        4.759207
  Si           5.400998        2.565664        4.715503
  Si           5.405767        3.063728        4.671799
  Si           5.410536        3.561791        4.628095
  Si           5.415305        4.059855        4.584391
  Si           5.420074        4.557918        4.540687
  Si           5.424842        5.055982        4.496983
  Si           5.260796      -12.077401        6.000401
  Si           5.265565      -11.579338        5.956697
  Si           5.270334      -11.081275        5.912993
  Si           5.275102      -10.583211        5.869289
  Si           5.279871      -10.085148        5.825585
  Si           5.284640       -9.587084        5.781881
  Si           5.289409       -9.089021        5.738177
  Si           5.294177       -8.590957        5.694473
  Si           5.298946       -8.092894        5.650769
  Si           5.303715       -7.594830        5.607065
  Si           5.308484       -7.096767        5.563361
  Si           5.368615       -6.097554        4.372579
  Si           5.373384       -5.599491        4.328875
  Si           5.378153       -5.101427        4.285171
  Si           5.382922       -4.603364        4.241467
  Si           5.387691       -4.105300        4.197763
  Si           5.392459       -3.607237        4.154059
  Si           5.397228       -3.109173        4.110355
  Si           5.401997       -2.611110        4.066651
  Si           5.406766       -2.113046        4.022947
  Si           5.411534       -1.614983        3.979243
  Si           5.416303       -1.116919        3.935539
  Si           5.426795       -0.021180        3.839390
  Si           5.431563        0.476884        3.795686
  Si           5.436332        0.974947        3.751982
  Si           5.441101        1.473011        3.708278
  Si           5.445870        1.971074        3.664574
  Si           5.450639        2.469137        3.620870
  Si           5.455407        2.967201        3.577166
  Si           5.460176        3.465264        3.533462
  Si           5.464945        3.963328        3.489758
  Si           5.469714        4.461391        3.446054
  Si           5.474483        4.959455        3.402350
  Si           5.310436      -12.173928        4.905768
  Si           5.315205      -11.675865        4.862064
  Si           5.319974      -11.177802        4.818360
  Si           5.324742      -10.679738        4.774656
  Si           5.329511      -10.181675        4.730952
  Si           5.334280       -9.683611        4.687248
  Si           5.339049       -9.185548        4.643544
  Si           5.343818       -8.687484        4.599840
  Si           5.348586       -8.189421        4.556136
  Si           5.353355       -7.691357        4.512432
  Si           5.358124       -7.193294        4.468728
  Si           5.418255       -6.194081        3.277946
  Si           5.423024       -5.696018        3.234242
  Si           5.427793       -5.197954        3.190538
  Si           5.432562       -4.699891        3.146834
  Si           5.437331       -4.201827        3.103130
  Si           5.442099       -3.703764        3.059426
  Si           5.446868       -3.205700        3.015722
  Si           5.451637       -2.707637        2.972018
  Si           5.456406       -2.209573        2.928314
  Si           5.461175       -1.711510        2.884610
  Si           5.465943       -1.213446        2.840906
  Si           5.476435       -0.117707        2.744758
  Si           5.481204        0.380357        2.701054
  Si           5.485972        0.878420        2.657350
  Si           5.490741        1.376484        2.613646
  Si           5.495510        1.874547        2.569941
  Si           5.500279        2.372611        2.526237
  Si           5.505047        2.870674        2.482533
  Si           5.509816        3.368737        2.438829
  Si           5.514585        3.866801        2.395125
  Si           5.519354        4.364864        2.351421
  Si           5.524123        4.862928        2.307717
  Si           5.360076      -12.270455        3.811135
  Si           5.364845      -11.772392        3.767431
  Si           5.369614      -11.274329        3.723727
  Si           5.374383      -10.776265        3.680023
  Si           5.379151      -10.278202        3.636319
  Si           5.383920       -9.780138        3.592615
  Si           5.388689       -9.282075        3.548911
  Si           5.393458       -8.784011        3.505207
  Si           5.398227       -8.285948        3.461503
  Si           5.402995       -7.787884        3.417799
  Si           5.407764       -7.289821        3.374095
  Si           5.467896       -6.290608        2.183314
  Si           5.472664       -5.792545        2.139610
  Si           5.477433       -5.294481        2.095906
  Si           5.482202       -4.796418        2.052202
  Si           5.486971       -4.298354        2.008498
  Si           5.491740       -3.800291        1.964794
  Si           5.496508       -3.302227        1.921090
  Si           5.501277       -2.804164        1.877386
  Si           5.506046       -2.306100        1.833682
  Si           5.510815       -1.808037        1.789978
  Si           5.515584       -1.309973        1.746274
  Si           5.526075       -0.214234        1.650125
  Si           5.530844        0.283830        1.606421
  Si           5.535612        0.781893        1.562717
  Si           5.540381        1.279957        1.519013
  Si           5.545150        1.778020        1.475309
  Si           5.549919        2.276084        1.431605
  Si           5.554688        2.774147        1.387901
  Si           5.559456        3.272210        1.344197
  Si           5.564225        3.770274        1.300493
  Si           5.568994        4.268337        1.256789
  Si           5.573763        4.766401        1.213085
  Si           5.409716      -12.366982        2.716503
  Si           5.414485      -11.868919        2.672799
  Si           5.419254      -11.370855        2.629095
  Si           5.424023      -10.872792        2.585391
  Si           5.428792      -10.374729        2.541687
  Si           5.433560       -9.876665        2.497983
  Si           5.438329       -9.378602        2.454279
  Si           5.443098       -8.880538        2.410575
  Si           5.447867       -8.382475        2.366871
  Si           5.452635       -7.884411        2.323167
  Si           5.457404       -7.386348        2.279463
  Si           5.517536       -6.387135        1.088681
  Si           5.522305       -5.889072        1.044977
  Si           5.527073       -5.391008        1.001273
  Si           5.531842       -4.892945        0.957569
  Si           5.536611       -4.394881        0.913865
  Si           5.541380       -3.896818        0.870161
  Si           5.546149       -3.398754        0.826457
  Si           5.550917       -2.900691        0.782753
  Si           5.555686       -2.402627        0.739049
  Si           5.560455       -1.904564        0.695345
  Si           5.565224       -1.406500        0.651641
  Si           5.575715       -0.310761        0.555492
  Si           5.580484        0.187303        0.511788
  Si           5.585253        0.685366        0.468084
  Si           5.590021        1.183430        0.424380
  Si           5.594790        1.681493        0.380676
  Si           5.599559        2.179557        0.336972
  Si           5.604328        2.677620        0.293268
  Si           5.609097        3.175684        0.249564
  Si           5.613865        3.673747        0.205860
  Si           5.618634        4.171810        0.162156
  Si           5.623403        4.669874        0.118452
  Si           5.459357      -12.463509        1.621870
  Si           5.464125      -11.965446        1.578166
  Si           5.468894      -11.467382        1.534462
  Si           5.473663      -10.969319        1.490758
  Si           5.478432      -10.471256        1.447054
  Si           5.483200       -9.973192        1.403350
  Si           5.487969       -9.475129        1.359646
  Si           5.492738       -8.977065        1.315942
  Si           5.497507       -8.479002        1.272238
  Si           5.502276       -7.980938        1.228534
  Si           5.507044       -7.482875        1.184830
  Si           5.567176       -6.483662       -0.005951
  Si           5.571945       -5.985599       -0.049655
  Si           5.576713       -5.487535       -0.093359
  Si           5.581482       -4.989472       -0.137063
  Si           5.586251       -4.491408       -0.180767
  Si           5.591020       -3.993345       -0.224471
  Si           5.595789       -3.495281       -0.268175
  Si           5.600557       -2.997218       -0.311879
  Si           5.605326       -2.499154       -0.355584
  Si           5.610095       -2.001091       -0.399288
  Si           5.614864       -1.503027       -0.442992
  Si           5.625355       -0.407288       -0.539140
  Si           5.630124        0.090776       -0.582844
  Si           5.634893        0.588839       -0.626548
  Si           5.639662        1.086903       -0.670252
  Si           5.644430        1.584966       -0.713956
  Si           5.649199        2.083030       -0.757660
  Si           5.653968        2.581093       -0.801364
  Si           5.658737        3.079157       -0.845068
  Si           5.663506        3.577220       -0.888772
  Si           5.668274        4.075283       -0.932476
  Si           5.673043        4.573347       -0.976180
  Si           5.508997      -12.560036        0.527238
  Si           5.513765      -12.061973        0.483534
  Si           5.518534      -11.563909        0.439829
  Si           5.523303      -11.065846        0.396125
  Si           5.528072      -10.567782        0.352421
  Si           5.532841      -10.069719        0.308717
  Si           5.537609       -9.571656        0.265013
  Si           5.542378       -9.073592        0.221309
  Si           5.547147       -8.575529        0.177605
  Si           5.551916       -8.077465        0.133901
  Si           5.556685       -7.579402        0.090197
  Si           5.616816       -6.580189       -1.100584
  Si           5.621585       -6.082126       -1.144288
  Si           5.626354       -5.584062       -1.187992
  Si           5.631122       -5.085999       -1.231696
  Si           5.635891       -4.587935       -1.275400
  Si           5.640660       -4.089872       -1.319104
  Si           5.645429       -3.591808       -1.362808
  Si           5.650198       -3.093745       -1.406512
  Si           5.654966       -2.595681       -1.450216
  Si           5.659735       -2.097618       -1.493920
  Si           5.664504       -1.599554       -1.537624
  Si           5.674995       -0.503815       -1.633773
  Si           5.679764       -0.005751       -1.677477
  Si           5.684533        0.492312       -1.721181
  Si           5.689302        0.990376       -1.764885
  Si           5.694070        1.488439       -1.808589
  Si           5.698839        1.986503       -1.852293
  Si           5.703608        2.484566       -1.895997
  Si           5.708377        2.982630       -1.939701
  Si           5.713146        3.480693       -1.983405
  Si           5.717914        3.978756       -2.027109
  Si           5.722683        4.476820       -2.070813
  Si           5.558637      -12.656563       -0.567395
  Si           5.563406      -12.158500       -0.611099
  Si           5.568174      -11.660436       -0.654803
  Si           5.572943      -11.162373       -0.698507
  Si           5.577712      -10.664309       -0.742211
  Si           5.582481      -10.166246       -0.785915
  Si           5.587250       -9.668183       -0.829619
  Si           5.592018       -9.170119       -0.873323
  Si           5.596787       -8.672056       -0.917027
  Si           5.601556       -8.173992       -0.960731
  Si           5.606325       -7.675929       -1.004435
  Si           6.765286       -6.682817       -2.144848
  Si           6.770055       -6.184754       -2.188552
  Si           6.774824       -5.686690       -2.232256
  Si           6.779593       -5.188627       -2.275960
  Si           6.784362       -4.690563       -2.319664
  Si           6.789130       -4.192500       -2.363368
  Si           6.793899       -3.694436       -2.407072
  Si           6.798668       -3.196373       -2.450776
  Si           6.803437       -2.698309       -2.494480
  Si           6.808206       -2.200246       -2.538184
  Si           6.812974       -1.702183       -2.581888
  Si           6.823466       -0.606443       -2.678037
  Si           6.828235       -0.108379       -2.721741
  Si           6.833003        0.389684       -2.765445
  Si           6.837772        0.887748       -2.809149
  Si           6.842541        1.385811       -2.852853
  Si           6.847310        1.883874       -2.896557
  Si           6.852078        2.381938       -2.940261
  Si           6.856847        2.880001       -2.983965
  Si           6.861616        3.378065       -3.027669
  Si           6.866385        3.876128       -3.071373
  Si           6.871154        4.374192       -3.115077
  Si           6.707107      -12.759192       -1.611659
  Si           6.711876      -12.261128       -1.655363
  Si           6.716645      -11.763065       -1.699067
  Si           6.721414      -11.265001       -1.742771
  Si           6.726182      -10.766938       -1.786475
  Si           6.730951      -10.268874       -1.830179
  Si           6.735720       -9.770811       -1.873883
  Si           6.740489       -9.272747       -1.917587
  Si           6.745258       -8.774684       -1.961291
  Si           6.750026       -8.276620       -2.004995
  Si           6.754795       -7.778557       -2.048699
  Si           6.814927       -6.779344       -3.239481
  Si           6.819695       -6.281281       -3.283185
  Si           6.824464       -5.783217       -3.326889
  Si           6.829233       -5.285154       -3.370593
  Si           6.834002       -4.787090       -3.414297
  Si           6.838771       -4.289027       -3.458001
  Si           6.843539       -3.790963       -3.501705
  Si           6.848308       -3.292900       -3.545409
  Si           6.853077       -2.794836       -3.589113
  Si           6.857846       -2.296773       -3.632817
  Si           6.862615       -1.798710       -3.676521
  Si           6.873106       -0.702970       -3.772670
  Si           6.877875       -0.204906       -3.816374
  Si           6.882643        0.293157       -3.860078
  Si           6.887412        0.791221       -3.903782
  Si           6.892181        1.289284       -3.947486
  Si           6.896950        1.787347       -3.991190
  Si           6.901719        2.285411       -4.034894
  Si           6.906487        2.783474       -4.078598
  Si           6.911256        3.281538       -4.122302
  Si           6.916025        3.779601       -4.166006
  Si           6.920794        4.277665       -4.209710
  Si           6.756747      -12.855718       -2.706292
  Si           6.761516      -12.357655       -2.749996
  Si           6.766285      -11.859592       -2.793700
  Si           6.771054      -11.361528       -2.837404
  Si           6.775823      -10.863465       -2.881108
  Si           6.780591      -10.365401       -2.924812
  Si           6.785360       -9.867338       -2.968516
  Si           6.790129       -9.369274       -3.012220
  Si           6.794898       -8.871211       -3.055924
  Si           6.799666       -8.373147       -3.099628
  Si           6.804435       -7.875084       -3.143332
  Si           6.864567       -6.875871       -4.334113
  Si           6.869336       -6.377808       -4.377817
  Si           6.874104       -5.879744       -4.421521
  Si           6.878873       -5.381681       -4.465225
  Si           6.883642       -4.883617       -4.508929
  Si           6.888411       -4.385554       -4.552633
  Si           6.893180       -3.887490       -4.596337
  Si           6.897948       -3.389427       -4.640042
  Si           6.902717       -2.891363       -4.683746
  Si           6.907486       -2.393300       -4.727450
  Si           6.912255       -1.895236       -4.771154
  Si           6.922746       -0.799497       -4.867302
  Si           6.927515       -0.301433       -4.911006
  Si           6.932284        0.196630       -4.954710
  Si           6.937052        0.694694       -4.998414
  Si           6.941821        1.192757       -5.042118
  Si           6.946590        1.690820       -5.085822
  Si           6.951359        2.188884       -5.129526
  Si           6.956128        2.686947       -5.173230
  Si           6.960896        3.185011       -5.216934
  Si           6.965665        3.683074       -5.260638
  Si           6.970434        4.181138       -5.304342
  Si           6.806388      -12.952245       -3.800924
  Si           6.811156      -12.454182       -3.844629
  Si           6.815925      -11.956119       -3.888333
  Si           6.820694      -11.458055       -3.932037
  Si           6.825463      -10.959992       -3.975741
  Si           6.830231      -10.461928       -4.019445
  Si           6.835000       -9.963865       -4.063149
  Si           6.839769       -9.465801       -4.106853
  Si           6.844538       -8.967738       -4.150557
  Si           6.849307       -8.469674       -4.194261
  Si           6.854075       -7.971611       -4.237965
  Si           6.914207       -6.972398       -5.428746
  Si           6.918976       -6.474335       -5.472450
  Si           6.923744       -5.976271       -5.516154
  Si           6.928513       -5.478208       -5.559858
  Si           6.933282       -4.980144       -5.603562
  Si           6.938051       -4.482081       -5.647266
  Si           6.942820       -3.984017       -5.690970
  Si           6.947588       -3.485954       -5.734674
  Si           6.952357       -2.987890       -5.778378
  Si           6.957126       -2.489827       -5.822082
  Si           6.961895       -1.991763       -5.865786
  Si           6.972386       -0.896024       -5.961935
  Si           6.977155       -0.397960       -6.005639
  Si           6.981924        0.100103       -6.049343
  Si           6.986693        0.598167       -6.093047
  Si           6.991461        1.096230       -6.136751
  Si           6.996230        1.594294       -6.180455
  Si           7.000999        2.092357       -6.224159
  Si           7.005768        2.590420       -6.267863
  Si           7.010537        3.088484       -6.311567
  Si           7.015305        3.586547       -6.355271
  Si           7.020074        4.084611       -6.398975
  Si           6.856028      -13.048772       -4.895557
  Si           6.860796      -12.550709       -4.939261
  Si           6.865565      -12.052646       -4.982965
  Si           6.870334      -11.554582       -5.026669
  Si           6.875103      -11.056519       -5.070373
  Si           6.879872      -10.558455       -5.114077
  Si           6.884640      -10.060392       -5.157781
  Si           6.889409       -9.562328       -5.201485
  Si           6.894178       -9.064265       -5.245189
  Si           6.898947       -8.566201       -5.288893
  Si           6.903716       -8.068138       -5.332597
  Si           6.963847       -7.068925       -6.523379
  Si           6.968616       -6.570862       -6.567083
  Si           6.973385       -6.072798       -6.610787
  Si           6.978153       -5.574735       -6.654491
  Si           6.982922       -5.076671       -6.698195
  Si           6.987691       -4.578608       -6.741899
  Si           6.992460       -4.080544       -6.785603
  Si           6.997229       -3.582481       -6.829307
  Si           7.001997       -3.084417       -6.873011
  Si           7.006766       -2.586354       -6.916715
  Si           7.011535       -2.088290       -6.960419
  Si           7.022026       -0.992551       -7.056568
  Si           7.026795       -0.494487       -7.100272
  Si           7.031564        0.003576       -7.143976
  Si           7.036333        0.501640       -7.187680
  Si           7.041101        0.999703       -7.231384
  Si           7.045870        1.497767       -7.275088
  Si           7.050639        1.995830       -7.318792
  Si           7.055408        2.493893       -7.362496
  Si           7.060177        2.991957       -7.406200
  Si           7.064945        3.490020       -7.449904
  Si           7.069714        3.988084       -7.493608
  Si           6.905668      -13.145299       -5.990190
  Si           6.910437      -12.647236       -6.033894
  Si           6.915205      -12.149172       -6.077598
  Si           6.919974      -11.651109       -6.121302
  Si           6.924743      -11.153046       -6.165006
  Si           6.929512      -10.654982       -6.208710
  Si           6.934281      -10.156919       -6.252414
  Si           6.939049       -9.658855       -6.296118
  Si           6.943818       -9.160792       -6.339822
  Si           6.948587       -8.662728       -6.383526
  Si           6.953356       -8.164665       -6.427230
  Si           7.013487       -7.165452       -7.618011
  Si           7.018256       -6.667389       -7.661715
  Si           7.023025       -6.169325       -7.705419
  Si           7.027794       -5.671262       -7.749123
  Si           7.032562       -5.173198       -7.792827
  Si           7.037331       -4.675135       -7.836531
  Si           7.042100       -4.177071       -7.880235
  Si           7.046869       -3.679008       -7.923939
  Si           7.051638       -3.180944       -7.967643
  Si           7.056406       -2.682881       -8.011347
  Si           7.061175       -2.184817       -8.055051
  Si           7.071666       -1.089078       -8.151200
  Si           7.076435       -0.591014       -8.194904
  Si           7.081204       -0.092951       -8.238608
  Si           7.085973        0.405113       -8.282312
  Si           7.090742        0.903176       -8.326016
  Si           7.095510        1.401240       -8.369720
  Si           7.100279        1.899303       -8.413424
  Si           7.105048        2.397366       -8.457128
  Si           7.109817        2.895430       -8.500832
  Si           7.114586        3.393493       -8.544536
  Si           7.119354        3.891557       -8.588240
  Si           6.955308      -13.241826       -7.084822
  Si           6.960077      -12.743763       -7.128526
  Si           6.964846      -12.245699       -7.172230
  Si           6.969614      -11.747636       -7.215934
  Si           6.974383      -11.249573       -7.259638
  Si           6.979152      -10.751509       -7.303342
  Si           6.983921      -10.253446       -7.347046
  Si           6.988689       -9.755382       -7.390750
  Si           6.993458       -9.257319       -7.434454
  Si           6.998227       -8.759255       -7.478158
  Si           7.002996       -8.261192       -7.521863
  Si           7.063127       -7.261979       -8.712644
  Si           7.067896       -6.763916       -8.756348
  Si           7.072665       -6.265852       -8.800052
  Si           7.077434       -5.767789       -8.843756
  Si           7.082203       -5.269725       -8.887460
  Si           7.086971       -4.771662       -8.931164
  Si           7.091740       -4.273598       -8.974868
  Si           7.096509       -3.775535       -9.018572
  Si           7.101278       -3.277471       -9.062276
  Si           7.106046       -2.779408       -9.105980
  Si           7.110815       -2.281344       -9.149684
  Si           7.121307       -1.185605       -9.245833
  Si           7.126075       -0.687541       -9.289537
  Si           7.130844       -0.189478       -9.333241
  Si           7.135613        0.308586       -9.376945
  Si           7.140382        0.806649       -9.420649
  Si           7.145151        1.304713       -9.464353
  Si           7.149919        1.802776       -9.508057
  Si           7.154688        2.300840       -9.551761
  Si           7.159457        2.798903       -9.595465
  Si           7.164226        3.296966       -9.639169
  Si           7.168995        3.795030       -9.682873
  Si           7.004948      -13.338353       -8.179455
  Si           7.009717      -12.840290       -8.223159
  Si           7.014486      -12.342226       -8.266863
  Si           7.019254      -11.844163       -8.310567
  Si           7.024023      -11.346100       -8.354271
  Si           7.028792      -10.848036       -8.397975
  Si           7.033561      -10.349973       -8.441679
  Si           7.038330       -9.851909       -8.485383
  Si           7.043098       -9.353846       -8.529087
  Si           7.047867       -8.855782       -8.572791
  Si           7.052636       -8.357719       -8.616495
  Si           7.112767       -7.358506       -9.807277
  Si           7.117536       -6.860443       -9.850981
  Si           7.122305       -6.362379       -9.894685
  Si           7.127074       -5.864316       -9.938389
  Si           7.131843       -5.366252       -9.982093
  Si           7.136611       -4.868189      -10.025797
  Si           7.141380       -4.370125      -10.069501
  Si           7.146149       -3.872062      -10.113205
  Si           7.150918       -3.373998      -10.156909
  Si           7.155687       -2.875935      -10.200613
  Si           7.160455       -2.377871      -10.244317
  Si           7.170947       -1.282132      -10.340466
  Si           7.175716       -0.784068      -10.384170
  Si           7.180484       -0.286005      -10.427874
  Si           7.185253        0.212059      -10.471578
  Si           7.190022        0.710122      -10.515282
  Si           7.194791        1.208186      -10.558986
  Si           7.199559        1.706249      -10.602690
  Si           7.204328        2.204313      -10.646394
  Si           7.209097        2.702376      -10.690098
  Si           7.213866        3.200439      -10.733802
  Si           7.218635        3.698503      -10.777506
  Si           7.054588      -13.434880       -9.274088
  Si           7.059357      -12.936817       -9.317792
  Si           7.064126      -12.438753       -9.361496
  Si           7.068895      -11.940690       -9.405200
  Si           7.073663      -11.442626       -9.448904
  Si           7.078432      -10.944563       -9.492608
  Si           7.083201      -10.446500       -9.536312
  Si           7.087970       -9.948436       -9.580016
  Si           7.092739       -9.450373       -9.623720
  Si           7.097507       -8.952309       -9.667424
  Si           7.102276       -8.454246       -9.711128
  Si           7.162408       -7.455033      -10.901909
  Si           7.167176       -6.956970      -10.945613
  Si           7.171945       -6.458906      -10.989317
  Si           7.176714       -5.960843      -11.033021
  Si           7.181483       -5.462779      -11.076725
  Si           7.186252       -4.964716      -11.120429
  Si           7.191020       -4.466652      -11.164133
  Si           7.195789       -3.968589      -11.207837
  Si           7.200558       -3.470525      -11.251541
  Si           7.205327       -2.972462      -11.295245
  Si           7.210096       -2.474398      -11.338949
  Si           7.220587       -1.378659      -11.435098
  Si           7.225356       -0.880595      -11.478802
  Si           7.230124       -0.382532      -11.522506
  Si           7.234893        0.115532      -11.566210
  Si           7.239662        0.613595      -11.609914
  Si           7.244431        1.111659      -11.653618
  Si           7.249200        1.609722      -11.697322
  Si           7.253968        2.107786      -11.741026
  Si           7.258737        2.605849      -11.784730
  Si           7.263506        3.103913      -11.828434
  Si           7.268275        3.601976      -11.872138
  Si           7.104228      -13.531407      -10.368720
  Si           7.108997      -13.033344      -10.412424
  Si           7.113766      -12.535280      -10.456128
  Si           7.118535      -12.037217      -10.499832
  Si           7.123304      -11.539153      -10.543536
  Si           7.128072      -11.041090      -10.587240
  Si           7.132841      -10.543027      -10.630944
  Si           7.137610      -10.044963      -10.674648
  Si           7.142379       -9.546900      -10.718352
  Si           7.147147       -9.048836      -10.762056
  Si           7.151916       -8.550773      -10.805760
  Si           6.368165       -5.910601        6.612213
  Si           6.372934       -5.412538        6.568509
  Si           6.377703       -4.914474        6.524805
  Si           6.382472       -4.416411        6.481101
  Si           6.387240       -3.918348        6.437397
  Si           6.392009       -3.420284        6.393693
  Si           6.396778       -2.922221        6.349989
  Si           6.401547       -2.424157        6.306285
  Si           6.406316       -1.926094        6.262581
  Si           6.411084       -1.428030        6.218877
  Si           6.415853       -0.929967        6.175173
  Si           6.426345        0.165773        6.079024
  Si           6.431113        0.663836        6.035320
  Si           6.435882        1.161900        5.991616
  Si           6.440651        1.659963        5.947912
  Si           6.445420        2.158027        5.904208
  Si           6.450189        2.656090        5.860504
  Si           6.454957        3.154154        5.816800
  Si           6.459726        3.652217        5.773096
  Si           6.464495        4.150281        5.729392
  Si           6.469264        4.648344        5.685688
  Si           6.474033        5.146408        5.641984
  Si           6.309986      -11.986976        7.145402
  Si           6.314755      -11.488912        7.101698
  Si           6.319524      -10.990849        7.057994
  Si           6.324292      -10.492785        7.014290
  Si           6.329061       -9.994722        6.970586
  Si           6.333830       -9.496658        6.926882
  Si           6.338599       -8.998595        6.883178
  Si           6.343368       -8.500531        6.839474
  Si           6.348136       -8.002468        6.795770
  Si           6.352905       -7.504405        6.752066
  Si           6.357674       -7.006341        6.708362
  Si           6.417805       -6.007128        5.517580
  Si           6.422574       -5.509065        5.473876
  Si           6.427343       -5.011001        5.430172
  Si           6.432112       -4.512938        5.386468
  Si           6.436881       -4.014875        5.342764
  Si           6.441649       -3.516811        5.299060
  Si           6.446418       -3.018748        5.255356
  Si           6.451187       -2.520684        5.211652
  Si           6.455956       -2.022621        5.167948
  Si           6.460725       -1.524557        5.124244
  Si           6.465493       -1.026494        5.080540
  Si           6.475985        0.069246        4.984391
  Si           6.480754        0.567309        4.940687
  Si           6.485522        1.065373        4.896983
  Si           6.490291        1.563436        4.853279
  Si           6.495060        2.061500        4.809575
  Si           6.499829        2.559563        4.765871
  Si           6.504597        3.057627        4.722167
  Si           6.509366        3.555690        4.678463
  Si           6.514135        4.053754        4.634759
  Si           6.518904        4.551817        4.591055
  Si           6.523673        5.049881        4.547351
  Si           6.359626      -12.083503        6.050769
  Si           6.364395      -11.585439        6.007065
  Si           6.369164      -11.087376        5.963361
  Si           6.373933      -10.589312        5.919657
  Si           6.378701      -10.091249        5.875953
  Si           6.383470       -9.593185        5.832249
  Si           6.388239       -9.095122        5.788545
  Si           6.393008       -8.597058        5.744841
  Si           6.397777       -8.098995        5.701137
  Si           6.402545       -7.600931        5.657433
  Si           6.407314       -7.102868        5.613729
  Si           6.467446       -6.103655        4.422948
  Si           6.472214       -5.605592        4.379244
  Si           6.476983       -5.107528        4.335540
  Si           6.481752       -4.609465        4.291836
  Si           6.486521       -4.111401        4.248132
  Si           6.491290       -3.613338        4.204428
  Si           6.496058       -3.115275        4.160724
  Si           6.500827       -2.617211        4.117020
  Si           6.505596       -2.119148        4.073316
  Si           6.510365       -1.621084        4.029612
  Si           6.515134       -1.123021        3.985908
  Si           6.525625       -0.027281        3.889759
  Si           6.530394        0.470782        3.846055
  Si           6.535162        0.968846        3.802351
  Si           6.539931        1.466909        3.758647
  Si           6.544700        1.964973        3.714943
  Si           6.549469        2.463036        3.671239
  Si           6.554238        2.961100        3.627535
  Si           6.559006        3.459163        3.583831
  Si           6.563775        3.957227        3.540127
  Si           6.568544        4.455290        3.496423
  Si           6.573313        4.953354        3.452719
  Si           6.409266      -12.180030        4.956137
  Si           6.414035      -11.681966        4.912433
  Si           6.418804      -11.183903        4.868729
  Si           6.423573      -10.685839        4.825025
  Si           6.428342      -10.187776        4.781321
  Si           6.433110       -9.689712        4.737617
  Si           6.437879       -9.191649        4.693912
  Si           6.442648       -8.693585        4.650208
  Si           6.447417       -8.195522        4.606504
  Si           6.452185       -7.697458        4.562800
  Si           6.456954       -7.199395        4.519096
  Si           6.517086       -6.200182        3.328315
  Si           6.521855       -5.702119        3.284611
  Si           6.526623       -5.204055        3.240907
  Si           6.531392       -4.705992        3.197203
  Si           6.536161       -4.207928        3.153499
  Si           6.540930       -3.709865        3.109795
  Si           6.545699       -3.211802        3.066091
  Si           6.550467       -2.713738        3.022387
  Si           6.555236       -2.215675        2.978683
  Si           6.560005       -1.717611        2.934979
  Si           6.564774       -1.219548        2.891275
  Si           6.575265       -0.123808        2.795126
  Si           6.580034        0.374255        2.751422
  Si           6.584803        0.872319        2.707718
  Si           6.589571        1.370382        2.664014
  Si           6.594340        1.868446        2.620310
  Si           6.599109        2.366509        2.576606
  Si           6.603878        2.864573        2.532902
  Si           6.608647        3.362636        2.489198
  Si           6.613415        3.860700        2.445494
  Si           6.618184        4.358763        2.401790
  Si           6.622953        4.856827        2.358086
  Si           6.458906      -12.276557        3.861504
  Si           6.463675      -11.778493        3.817800
  Si           6.468444      -11.280430        3.774096
  Si           6.473213      -10.782366        3.730392
  Si           6.477982      -10.284303        3.686688
  Si           6.482750       -9.786239        3.642984
  Si           6.487519       -9.288176        3.599280
  Si           6.492288       -8.790112        3.555576
  Si           6.497057       -8.292049        3.511872
  Si           6.501826       -7.793985        3.468168
  Si           6.506594       -7.295922        3.424464
  Si           6.566726       -6.296709        2.233682
  Si           6.571495       -5.798646        2.189978
  Si           6.576263       -5.300582        2.146274
  Si           6.581032       -4.802519        2.102570
  Si           6.585801       -4.304455        2.058866
  Si           6.590570       -3.806392        2.015162
  Si           6.595339       -3.308329        1.971458
  Si           6.600107       -2.810265        1.927754
  Si           6.604876       -2.312202        1.884050
  Si           6.609645       -1.814138        1.840346
  Si           6.614414       -1.316075        1.796642
  Si           6.624905       -0.220335        1.700493
  Si           6.629674        0.277728        1.656789
  Si           6.634443        0.775792        1.613085
  Si           6.639212        1.273855        1.569381
  Si           6.643980        1.771919        1.525677
  Si           6.648749        2.269982        1.481973
  Si           6.653518        2.768046        1.438269
  Si           6.658287        3.266109        1.394565
  Si           6.663055        3.764173        1.350861
  Si           6.667824        4.262236        1.307157
  Si           6.672593        4.760300        1.263453
  Si           6.508547      -12.373084        2.766871
  Si           6.513315      -11.875020        2.723167
  Si           6.518084      -11.376957        2.679463
  Si           6.522853      -10.878893        2.635759
  Si           6.527622      -10.380830        2.592055
  Si           6.532391       -9.882766        2.548351
  Si           6.537159       -9.384703        2.504647
  Si           6.541928       -8.886639        2.460943
  Si           6.546697       -8.388576        2.417239
  Si           6.551466       -7.890512        2.373535
  Si           6.556235       -7.392449        2.329831
  Si           6.616366       -6.393236        1.139050
  Si           6.621135       -5.895173        1.095346
  Si           6.625904       -5.397109        1.051642
  Si           6.630672       -4.899046        1.007938
  Si           6.635441       -4.400982        0.964234
  Si           6.640210       -3.902919        0.920530
  Si           6.644979       -3.404855        0.876826
  Si           6.649748       -2.906792        0.833122
  Si           6.654516       -2.408729        0.789418
  Si           6.659285       -1.910665        0.745714
  Si           6.664054       -1.412602        0.702010
  Si           6.674545       -0.316862        0.605861
  Si           6.679314        0.181201        0.562157
  Si           6.684083        0.679265        0.518453
  Si           6.688852        1.177328        0.474749
  Si           6.693620        1.675392        0.431045
  Si           6.698389        2.173455        0.387341
  Si           6.703158        2.671519        0.343637
  Si           6.707927        3.169582        0.299933
  Si           6.712696        3.667646        0.256229
  Si           6.717464        4.165709        0.212525
  Si           6.722233        4.663773        0.168821
  Si           6.558187      -12.469611        1.672239
  Si           6.562956      -11.971547        1.628535
  Si           6.567724      -11.473484        1.584831
  Si           6.572493      -10.975420        1.541127
  Si           6.577262      -10.477357        1.497423
  Si           6.582031       -9.979293        1.453719
  Si           6.586800       -9.481230        1.410015
  Si           6.591568       -8.983166        1.366311
  Si           6.596337       -8.485103        1.322607
  Si           6.601106       -7.987039        1.278903
  Si           6.605875       -7.488976        1.235199
  Si           6.666006       -6.489763        0.044417
  Si           6.670775       -5.991700        0.000713
  Si           6.675544       -5.493636       -0.042991
  Si           6.680313       -4.995573       -0.086695
  Si           6.685081       -4.497509       -0.130399
  Si           6.689850       -3.999446       -0.174103
  Si           6.694619       -3.501382       -0.217807
  Si           6.699388       -3.003319       -0.261511
  Si           6.704157       -2.505256       -0.305215
  Si           6.708925       -2.007192       -0.348919
  Si           6.713694       -1.509129       -0.392623
  Si           6.724185       -0.413389       -0.488772
  Si           6.728954        0.084675       -0.532476
  Si           6.733723        0.582738       -0.576180
  Si           6.738492        1.080801       -0.619884
  Si           6.743261        1.578865       -0.663588
  Si           6.748029        2.076928       -0.707292
  Si           6.752798        2.574992       -0.750996
  Si           6.757567        3.073055       -0.794700
  Si           6.762336        3.571119       -0.838404
  Si           6.767105        4.069182       -0.882108
  Si           6.771873        4.567246       -0.925812
  Si           6.607827      -12.566138        0.577606
  Si           6.612596      -12.068074        0.533902
  Si           6.617365      -11.570011        0.490198
  Si           6.622133      -11.071947        0.446494
  Si           6.626902      -10.573884        0.402790
  Si           6.631671      -10.075820        0.359086
  Si           6.636440       -9.577757        0.315382
  Si           6.641208       -9.079693        0.271678
  Si           6.645977       -8.581630        0.227974
  Si           6.650746       -8.083566        0.184270
  Si           6.655515       -7.585503        0.140566
  Si           6.715646       -6.586290       -1.050216
  Si           6.720415       -6.088227       -1.093920
  Si           6.725184       -5.590163       -1.137624
  Si           6.729953       -5.092100       -1.181328
  Si           6.734722       -4.594036       -1.225032
  Si           6.739490       -4.095973       -1.268736
  Si           6.744259       -3.597909       -1.312440
  Si           6.749028       -3.099846       -1.356144
  Si           6.753797       -2.601782       -1.399848
  Si           6.758565       -2.103719       -1.443552
  Si           6.763334       -1.605656       -1.487256
  Si           6.773826       -0.509916       -1.583404
  Si           6.778594       -0.011852       -1.627108
  Si           6.783363        0.486211       -1.670812
  Si           6.788132        0.984274       -1.714517
  Si           6.792901        1.482338       -1.758221
  Si           6.797670        1.980401       -1.801925
  Si           6.802438        2.478465       -1.845629
  Si           6.807207        2.976528       -1.889333
  Si           6.811976        3.474592       -1.933037
  Si           6.816745        3.972655       -1.976741
  Si           6.821514        4.470719       -2.020445
  Si           6.657467      -12.662665       -0.517027
  Si           6.662236      -12.164601       -0.560731
  Si           6.667005      -11.666538       -0.604435
  Si           6.671773      -11.168474       -0.648139
  Si           6.676542      -10.670411       -0.691843
  Si           6.681311      -10.172347       -0.735547
  Si           6.686080       -9.674284       -0.779251
  Si           6.690849       -9.176220       -0.822955
  Si           6.695617       -8.678157       -0.866659
  Si           6.700386       -8.180093       -0.910363
  Si           6.705155       -7.682030       -0.954067
  Si           7.864117       -6.688918       -2.094480
  Si           7.868886       -6.190855       -2.138184
  Si           7.873654       -5.692791       -2.181888
  Si           7.878423       -5.194728       -2.225592
  Si           7.883192       -4.696665       -2.269296
  Si           7.887961       -4.198601       -2.313000
  Si           7.892730       -3.700538       -2.356704
  Si           7.897498       -3.202474       -2.400408
  Si           7.902267       -2.704411       -2.444112
  Si           7.907036       -2.206347       -2.487816
  Si           7.911805       -1.708284       -2.531520
  Si           7.922296       -0.612544       -2.627669
  Si           7.927065       -0.114481       -2.671373
  Si           7.931834        0.383583       -2.715077
  Si           7.936602        0.881646       -2.758781
  Si           7.941371        1.379710       -2.802485
  Si           7.946140        1.877773       -2.846189
  Si           7.950909        2.375837       -2.889893
  Si           7.955678        2.873900       -2.933597
  Si           7.960446        3.371964       -2.977301
  Si           7.965215        3.870027       -3.021005
  Si           7.969984        4.368091       -3.064709
  Si           7.805937      -12.765293       -1.561291
  Si           7.810706      -12.267229       -1.604995
  Si           7.815475      -11.769166       -1.648699
  Si           7.820244      -11.271102       -1.692403
  Si           7.825013      -10.773039       -1.736107
  Si           7.829781      -10.274975       -1.779811
  Si           7.834550       -9.776912       -1.823515
  Si           7.839319       -9.278848       -1.867219
  Si           7.844088       -8.780785       -1.910923
  Si           7.848857       -8.282722       -1.954627
  Si           7.853625       -7.784658       -1.998331
  Si           7.913757       -6.785445       -3.189112
  Si           7.918526       -6.287382       -3.232816
  Si           7.923294       -5.789318       -3.276520
  Si           7.928063       -5.291255       -3.320224
  Si           7.932832       -4.793192       -3.363928
  Si           7.937601       -4.295128       -3.407632
  Si           7.942370       -3.797065       -3.451336
  Si           7.947138       -3.299001       -3.495040
  Si           7.951907       -2.800938       -3.538744
  Si           7.956676       -2.302874       -3.582448
  Si           7.961445       -1.804811       -3.626152
  Si           7.971936       -0.709071       -3.722301
  Si           7.976705       -0.211008       -3.766005
  Si           7.981474        0.287056       -3.809709
  Si           7.986243        0.785119       -3.853413
  Si           7.991011        1.283183       -3.897117
  Si           7.995780        1.781246       -3.940821
  Si           8.000549        2.279310       -3.984525
  Si           8.005318        2.777373       -4.028229
  Si           8.010086        3.275437       -4.071933
  Si           8.014855        3.773500       -4.115637
  Si           8.019624        4.271564       -4.159341
  Si           7.855578      -12.861820       -2.655923
  Si           7.860346      -12.363756       -2.699627
  Si           7.865115      -11.865693       -2.743331
  Si           7.869884      -11.367629       -2.787035
  Si           7.874653      -10.869566       -2.830739
  Si           7.879422      -10.371502       -2.874443
  Si           7.884190       -9.873439       -2.918147
  Si           7.888959       -9.375375       -2.961851
  Si           7.893728       -8.877312       -3.005555
  Si           7.898497       -8.379248       -3.049259
  Si           7.903266       -7.881185       -3.092963
  Si           7.963397       -6.881972       -4.283745
  Si           7.968166       -6.383909       -4.327449
  Si           7.972935       -5.885845       -4.371153
  Si           7.977703       -5.387782       -4.414857
  Si           7.982472       -4.889718       -4.458561
  Si           7.987241       -4.391655       -4.502265
  Si           7.992010       -3.893592       -4.545969
  Si           7.996779       -3.395528       -4.589673
  Si           8.001547       -2.897465       -4.633377
  Si           8.006316       -2.399401       -4.677081
  Si           8.011085       -1.901338       -4.720785
  Si           8.021576       -0.805598       -4.816934
  Si           8.026345       -0.307535       -4.860638
  Si           8.031114        0.190529       -4.904342
  Si           8.035883        0.688592       -4.948046
  Si           8.040651        1.186656       -4.991750
  Si           8.045420        1.684719       -5.035454
  Si           8.050189        2.182783       -5.079158
  Si           8.054958        2.680846       -5.122862
  Si           8.059727        3.178910       -5.166566
  Si           8.064495        3.676973       -5.210270
  Si           8.069264        4.175037       -5.253974
  Si           7.905218      -12.958347       -3.750556
  Si           7.909987      -12.460283       -3.794260
  Si           7.914755      -11.962220       -3.837964
  Si           7.919524      -11.464156       -3.881668
  Si           7.924293      -10.966093       -3.925372
  Si           7.929062      -10.468029       -3.969076
  Si           7.933831       -9.969966       -4.012780
  Si           7.938599       -9.471902       -4.056484
  Si           7.943368       -8.973839       -4.100188
  Si           7.948137       -8.475775       -4.143892
  Si           7.952906       -7.977712       -4.187596
  Si           8.013037       -6.978499       -5.378378
  Si           8.017806       -6.480436       -5.422082
  Si           8.022575       -5.982372       -5.465786
  Si           8.027344       -5.484309       -5.509490
  Si           8.032112       -4.986245       -5.553194
  Si           8.036881       -4.488182       -5.596898
  Si           8.041650       -3.990119       -5.640602
  Si           8.046419       -3.492055       -5.684306
  Si           8.051188       -2.993992       -5.728010
  Si           8.055956       -2.495928       -5.771714
  Si           8.060725       -1.997865       -5.815418
  Si           8.071216       -0.902125       -5.911566
  Si           8.075985       -0.404062       -5.955270
  Si           8.080754        0.094002       -5.998975
  Si           8.085523        0.592065       -6.042679
  Si           8.090292        1.090129       -6.086383
  Si           8.095060        1.588192       -6.130087
  Si           8.099829        2.086256       -6.173791
  Si           8.104598        2.584319       -6.217495
  Si           8.109367        3.082383       -6.261199
  Si           8.114136        3.580446       -6.304903
  Si           8.118904        4.078510       -6.348607
  Si           7.954858      -13.054874       -4.845189
  Si           7.959627      -12.556810       -4.888893
  Si           7.964396      -12.058747       -4.932597
  Si           7.969164      -11.560683       -4.976301
  Si           7.973933      -11.062620       -5.020005
  Si           7.978702      -10.564556       -5.063709
  Si           7.983471      -10.066493       -5.107413
  Si           7.988239       -9.568429       -5.151117
  Si           7.993008       -9.070366       -5.194821
  Si           7.997777       -8.572302       -5.238525
  Si           8.002546       -8.074239       -5.282229
  Si           8.062677       -7.075026       -6.473010
  Si           8.067446       -6.576963       -6.516714
  Si           8.072215       -6.078899       -6.560418
  Si           8.076984       -5.580836       -6.604122
  Si           8.081752       -5.082772       -6.647826
  Si           8.086521       -4.584709       -6.691530
  Si           8.091290       -4.086646       -6.735234
  Si           8.096059       -3.588582       -6.778938
  Si           8.100828       -3.090519       -6.822642
  Si           8.105596       -2.592455       -6.866346
  Si           8.110365       -2.094392       -6.910050
  Si           8.120857       -0.998652       -7.006199
  Si           8.125625       -0.500589       -7.049903
  Si           8.130394       -0.002525       -7.093607
  Si           8.135163        0.495538       -7.137311
  Si           8.139932        0.993602       -7.181015
  Si           8.144701        1.491665       -7.224719
  Si           8.149469        1.989729       -7.268423
  Si           8.154238        2.487792       -7.312127
  Si           8.159007        2.985856       -7.355831
  Si           8.163776        3.483919       -7.399535
  Si           8.168545        3.981983       -7.443239
  Si           8.004498      -13.151401       -5.939821
  Si           8.009267      -12.653337       -5.983525
  Si           8.014036      -12.155274       -6.027229
  Si           8.018804      -11.657210       -6.070933
  Si           8.023573      -11.159147       -6.114637
  Si           8.028342      -10.661083       -6.158341
  Si           8.033111      -10.163020       -6.202045
  Si           8.037880       -9.664956       -6.245749
  Si           8.042648       -9.166893       -6.289453
  Si           8.047417       -8.668829       -6.333157
  Si           8.052186       -8.170766       -6.376861
  Si           8.112317       -7.171553       -7.567643
  Si           8.117086       -6.673490       -7.611347
  Si           8.121855       -6.175426       -7.655051
  Si           8.126624       -5.677363       -7.698755
  Si           8.131393       -5.179299       -7.742459
  Si           8.136161       -4.681236       -7.786163
  Si           8.140930       -4.183172       -7.829867
  Si           8.145699       -3.685109       -7.873571
  Si           8.150468       -3.187046       -7.917275
  Si           8.155237       -2.688982       -7.960979
  Si           8.160005       -2.190919       -8.004683
  Si           8.170497       -1.095179       -8.100832
  Si           8.175266       -0.597116       -8.144536
  Si           8.180034       -0.099052       -8.188240
  Si           8.184803        0.399011       -8.231944
  Si           8.189572        0.897075       -8.275648
  Si           8.194341        1.395138       -8.319352
  Si           8.199109        1.893202       -8.363056
  Si           8.203878        2.391265       -8.406760
  Si           8.208647        2.889329       -8.450464
  Si           8.213416        3.387392       -8.494168
  Si           8.218185        3.885456       -8.537872
  Si           8.054138      -13.247928       -7.034454
  Si           8.058907      -12.749864       -7.078158
  Si           8.063676      -12.251801       -7.121862
  Si           8.068445      -11.753737       -7.165566
  Si           8.073213      -11.255674       -7.209270
  Si           8.077982      -10.757610       -7.252974
  Si           8.082751      -10.259547       -7.296678
  Si           8.087520       -9.761483       -7.340382
  Si           8.092289       -9.263420       -7.384086
  Si           8.097057       -8.765356       -7.427790
  Si           8.101826       -8.267293       -7.471494
  Si           8.161958       -7.268080       -8.662275
  Si           8.166726       -6.770017       -8.705979
  Si           8.171495       -6.271953       -8.749683
  Si           8.176264       -5.773890       -8.793387
  Si           8.181033       -5.275826       -8.837091
  Si           8.185802       -4.777763       -8.880795
  Si           8.190570       -4.279699       -8.924500
  Si           8.195339       -3.781636       -8.968204
  Si           8.200108       -3.283573       -9.011908
  Si           8.204877       -2.785509       -9.055612
  Si           8.209646       -2.287446       -9.099316
  Si           8.220137       -1.191706       -9.195464
  Si           8.224906       -0.693642       -9.239168
  Si           8.229674       -0.195579       -9.282872
  Si           8.234443        0.302484       -9.326576
  Si           8.239212        0.800548       -9.370280
  Si           8.243981        1.298611       -9.413984
  Si           8.248750        1.796675       -9.457688
  Si           8.253518        2.294738       -9.501392
  Si           8.258287        2.792802       -9.545096
  Si           8.263056        3.290865       -9.588800
  Si           8.267825        3.788929       -9.632504
  Si           8.103778      -13.344455       -8.129087
  Si           8.108547      -12.846391       -8.172791
  Si           8.113316      -12.348328       -8.216495
  Si           8.118085      -11.850264       -8.260199
  Si           8.122854      -11.352201       -8.303903
  Si           8.127622      -10.854137       -8.347607
  Si           8.132391      -10.356074       -8.391311
  Si           8.137160       -9.858010       -8.435015
  Si           8.141929       -9.359947       -8.478719
  Si           8.146697       -8.861883       -8.522423
  Si           8.151466       -8.363820       -8.566127
  Si           8.211598       -7.364607       -9.756908
  Si           8.216367       -6.866544       -9.800612
  Si           8.221135       -6.368480       -9.844316
  Si           8.225904       -5.870417       -9.888020
  Si           8.230673       -5.372353       -9.931724
  Si           8.235442       -4.874290       -9.975428
  Si           8.240211       -4.376226      -10.019132
  Si           8.244979       -3.878163      -10.062836
  Si           8.249748       -3.380100      -10.106540
  Si           8.254517       -2.882036      -10.150244
  Si           8.259286       -2.383973      -10.193948
  Si           8.269777       -1.288233      -10.290097
  Si           8.274546       -0.790169      -10.333801
  Si           8.279315       -0.292106      -10.377505
  Si           8.284083        0.205957      -10.421209
  Si           8.288852        0.704021      -10.464913
  Si           8.293621        1.202084      -10.508617
  Si           8.298390        1.700148      -10.552321
  Si           8.303159        2.198211      -10.596025
  Si           8.307927        2.696275      -10.639729
  Si           8.312696        3.194338      -10.683433
  Si           8.317465        3.692402      -10.727137
  Si           8.153418      -13.440982       -9.223719
  Si           8.158187      -12.942918       -9.267423
  Si           8.162956      -12.444855       -9.311127
  Si           8.167725      -11.946791       -9.354831
  Si           8.172494      -11.448728       -9.398535
  Si           8.177262      -10.950664       -9.442239
  Si           8.182031      -10.452601       -9.485943
  Si           8.186800       -9.954537       -9.529647
  Si           8.191569       -9.456474       -9.573351
  Si           8.196338       -8.958410       -9.617055
  Si           8.201106       -8.460347       -9.660759
  Si           8.261238       -7.461134      -10.851541
  Si           8.266007       -6.963071      -10.895245
  Si           8.270775       -6.465007      -10.938949
  Si           8.275544       -5.966944      -10.982653
  Si           8.280313       -5.468880      -11.026357
  Si           8.285082       -4.970817      -11.070061
  Si           8.289851       -4.472753      -11.113765
  Si           8.294619       -3.974690      -11.157469
  Si           8.299388       -3.476626      -11.201173
  Si           8.304157       -2.978563      -11.244877
  Si           8.308926       -2.480500      -11.288581
  Si           8.319417       -1.384760      -11.384730
  Si           8.324186       -0.886696      -11.428434
  Si           8.328955       -0.388633      -11.472138
  Si           8.333724        0.109430      -11.515842
  Si           8.338492        0.607494      -11.559546
  Si           8.343261        1.105557      -11.603250
  Si           8.348030        1.603621      -11.646954
  Si           8.352799        2.101684      -11.690658
  Si           8.357568        2.599748      -11.734362
  Si           8.362336        3.097811      -11.778066
  Si           8.367105        3.595875      -11.821770
  Si           8.203059      -13.537509      -10.318352
  Si           8.207827      -13.039445      -10.362056
  Si           8.212596      -12.541382      -10.405760
  Si           8.217365      -12.043318      -10.449464
  Si           8.222134      -11.545255      -10.493168
  Si           8.226903      -11.047191      -10.536872
  Si           8.231671      -10.549128      -10.580576
  Si           8.236440      -10.051064      -10.624280
  Si           8.241209       -9.553001      -10.667984
  Si           8.245978       -9.054937      -10.711688
  Si           8.250747       -8.556874      -10.755392
  Si           7.466996       -5.916703        6.662581
  Si           7.471764       -5.418639        6.618877
  Si           7.476533       -4.920576        6.575173
  Si           7.481302       -4.422512        6.531469
  Si           7.486071       -3.924449        6.487765
  Si           7.490840       -3.426385        6.444061
  Si           7.495608       -2.928322        6.400357
  Si           7.500377       -2.430258        6.356653
  Si           7.505146       -1.932195        6.312949
  Si           7.509915       -1.434131        6.269245
  Si           7.514684       -0.936068        6.225541
  Si           7.525175        0.159672        6.129392
  Si           7.529944        0.657735        6.085688
  Si           7.534712        1.155799        6.041984
  Si           7.539481        1.653862        5.998280
  Si           7.544250        2.151926        5.954576
  Si           7.549019        2.649989        5.910872
  Si           7.553788        3.148053        5.867168
  Si           7.558556        3.646116        5.823464
  Si           7.563325        4.144179        5.779760
  Si           7.568094        4.642243        5.736056
  Si           7.572863        5.140306        5.692352
  Si           7.408816      -11.993077        7.195770
  Si           7.413585      -11.495013        7.152066
  Si           7.418354      -10.996950        7.108362
  Si           7.423123      -10.498887        7.064658
  Si           7.427892      -10.000823        7.020954
  Si           7.432660       -9.502760        6.977250
  Si           7.437429       -9.004696        6.933546
  Si           7.442198       -8.506633        6.889842
  Si           7.446967       -8.008569        6.846138
  Si           7.451735       -7.510506        6.802434
  Si           7.456504       -7.012442        6.758730
  Si           7.516636       -6.013230        5.567949
  Si           7.521405       -5.515166        5.524245
  Si           7.526173       -5.017103        5.480541
  Si           7.530942       -4.519039        5.436837
  Si           7.535711       -4.020976        5.393133
  Si           7.540480       -3.522912        5.349429
  Si           7.545249       -3.024849        5.305725
  Si           7.550017       -2.526785        5.262021
  Si           7.554786       -2.028722        5.218317
  Si           7.559555       -1.530658        5.174613
  Si           7.564324       -1.032595        5.130909
  Si           7.574815        0.063145        5.034760
  Si           7.579584        0.561208        4.991056
  Si           7.584353        1.059272        4.947352
  Si           7.589121        1.557335        4.903648
  Si           7.593890        2.055399        4.859944
  Si           7.598659        2.553462        4.816240
  Si           7.603428        3.051526        4.772536
  Si           7.608197        3.549589        4.728832
  Si           7.612965        4.047652        4.685128
  Si           7.617734        4.545716        4.641424
  Si           7.622503        5.043779        4.597720
  Si           7.458456      -12.089604        6.101138
  Si           7.463225      -11.591540        6.057434
  Si           7.467994      -11.093477        6.013730
  Si           7.472763      -10.595413        5.970026
  Si           7.477532      -10.097350        5.926322
  Si           7.482300       -9.599287        5.882618
  Si           7.487069       -9.101223        5.838914
  Si           7.491838       -8.603160        5.795210
  Si           7.496607       -8.105096        5.751506
  Si           7.501376       -7.607033        5.707802
  Si           7.506144       -7.108969        5.664098
  Si           7.566276       -6.109757        4.473316
  Si           7.571045       -5.611693        4.429612
  Si           7.575813       -5.113630        4.385908
  Si           7.580582       -4.615566        4.342204
  Si           7.585351       -4.117503        4.298500
  Si           7.590120       -3.619439        4.254796
  Si           7.594889       -3.121376        4.211092
  Si           7.599657       -2.623312        4.167388
  Si           7.604426       -2.125249        4.123684
  Si           7.609195       -1.627185        4.079980
  Si           7.613964       -1.129122        4.036276
  Si           7.624455       -0.033382        3.940127
  Si           7.629224        0.464681        3.896423
  Si           7.633993        0.962745        3.852719
  Si           7.638762        1.460808        3.809015
  Si           7.643530        1.958872        3.765311
  Si           7.648299        2.456935        3.721607
  Si           7.653068        2.954999        3.677903
  Si           7.657837        3.453062        3.634199
  Si           7.662605        3.951125        3.590495
  Si           7.667374        4.449189        3.546791
  Si           7.672143        4.947252        3.503087
  Si           7.508097      -12.186131        5.006505
  Si           7.512865      -11.688067        4.962801
  Si           7.517634      -11.190004        4.919097
  Si           7.522403      -10.691940        4.875393
  Si           7.527172      -10.193877        4.831689
  Si           7.531941       -9.695814        4.787985
  Si           7.536709       -9.197750        4.744281
  Si           7.541478       -8.699687        4.700577
  Si           7.546247       -8.201623        4.656873
  Si           7.551016       -7.703560        4.613169
  Si           7.555785       -7.205496        4.569465
  Si           7.615916       -6.206284        3.378684
  Si           7.620685       -5.708220        3.334980
  Si           7.625454       -5.210157        3.291275
  Si           7.630222       -4.712093        3.247571
  Si           7.634991       -4.214030        3.203867
  Si           7.639760       -3.715966        3.160163
  Si           7.644529       -3.217903        3.116459
  Si           7.649298       -2.719839        3.072755
  Si           7.654066       -2.221776        3.029051
  Si           7.658835       -1.723712        2.985347
  Si           7.663604       -1.225649        2.941643
  Si           7.674095       -0.129909        2.845495
  Si           7.678864        0.368154        2.801791
  Si           7.683633        0.866218        2.758087
  Si           7.688402        1.364281        2.714383
  Si           7.693170        1.862345        2.670679
  Si           7.697939        2.360408        2.626975
  Si           7.702708        2.858472        2.583271
  Si           7.707477        3.356535        2.539566
  Si           7.712246        3.854599        2.495862
  Si           7.717014        4.352662        2.452158
  Si           7.721783        4.850725        2.408454
  Si           7.557737      -12.282658        3.911872
  Si           7.562506      -11.784594        3.868168
  Si           7.567274      -11.286531        3.824464
  Si           7.572043      -10.788467        3.780760
  Si           7.576812      -10.290404        3.737056
  Si           7.581581       -9.792341        3.693352
  Si           7.586350       -9.294277        3.649648
  Si           7.591118       -8.796214        3.605944
  Si           7.595887       -8.298150        3.562240
  Si           7.600656       -7.800087        3.518536
  Si           7.605425       -7.302023        3.474832
  Si           7.665556       -6.302811        2.284051
  Si           7.670325       -5.804747        2.240347
  Si           7.675094       -5.306684        2.196643
  Si           7.679863       -4.808620        2.152939
  Si           7.684631       -4.310557        2.109235
  Si           7.689400       -3.812493        2.065531
  Si           7.694169       -3.314430        2.021827
  Si           7.698938       -2.816366        1.978123
  Si           7.703707       -2.318303        1.934419
  Si           7.708475       -1.820239        1.890715
  Si           7.713244       -1.322176        1.847011
  Si           7.723735       -0.226436        1.750862
  Si           7.728504        0.271627        1.707158
  Si           7.733273        0.769691        1.663454
  Si           7.738042        1.267754        1.619750
  Si           7.742811        1.765818        1.576046
  Si           7.747579        2.263881        1.532342
  Si           7.752348        2.761945        1.488638
  Si           7.757117        3.260008        1.444934
  Si           7.761886        3.758072        1.401230
  Si           7.766655        4.256135        1.357526
  Si           7.771423        4.754198        1.313822
  Si           7.607377      -12.379185        2.817240
  Si           7.612146      -11.881121        2.773536
  Si           7.616915      -11.383058        2.729832
  Si           7.621683      -10.884994        2.686128
  Si           7.626452      -10.386931        2.642424
  Si           7.631221       -9.888867        2.598720
  Si           7.635990       -9.390804        2.555016
  Si           7.640758       -8.892741        2.511312
  Si           7.645527       -8.394677        2.467608
  Si           7.650296       -7.896614        2.423904
  Si           7.655065       -7.398550        2.380200
  Si           7.715196       -6.399337        1.189418
  Si           7.719965       -5.901274        1.145714
  Si           7.724734       -5.403211        1.102010
  Si           7.729503       -4.905147        1.058306
  Si           7.734271       -4.407084        1.014602
  Si           7.739040       -3.909020        0.970898
  Si           7.743809       -3.410957        0.927194
  Si           7.748578       -2.912893        0.883490
  Si           7.753347       -2.414830        0.839786
  Si           7.758115       -1.916766        0.796082
  Si           7.762884       -1.418703        0.752378
  Si           7.773376       -0.322963        0.656229
  Si           7.778144        0.175100        0.612525
  Si           7.782913        0.673164        0.568821
  Si           7.787682        1.171227        0.525117
  Si           7.792451        1.669291        0.481413
  Si           7.797220        2.167354        0.437709
  Si           7.801988        2.665418        0.394005
  Si           7.806757        3.163481        0.350301
  Si           7.811526        3.661545        0.306597
  Si           7.816295        4.159608        0.262893
  Si           7.821064        4.657671        0.219189
  Si           7.657017      -12.475712        1.722607
  Si           7.661786      -11.977648        1.678903
  Si           7.666555      -11.479585        1.635199
  Si           7.671323      -10.981521        1.591495
  Si           7.676092      -10.483458        1.547791
  Si           7.680861       -9.985394        1.504087
  Si           7.685630       -9.487331        1.460383
  Si           7.690399       -8.989268        1.416679
  Si           7.695167       -8.491204        1.372975
  Si           7.699936       -7.993141        1.329271
  Si           7.704705       -7.495077        1.285567
  Si           7.764836       -6.495864        0.094786
  Si           7.769605       -5.997801        0.051082
  Si           7.774374       -5.499738        0.007378
  Si           7.779143       -5.001674       -0.036326
  Si           7.783912       -4.503611       -0.080030
  Si           7.788680       -4.005547       -0.123734
  Si           7.793449       -3.507484       -0.167438
  Si           7.798218       -3.009420       -0.211142
  Si           7.802987       -2.511357       -0.254846
  Si           7.807756       -2.013293       -0.298550
  Si           7.812524       -1.515230       -0.342254
  Si           7.823016       -0.419490       -0.438403
  Si           7.827785        0.078573       -0.482107
  Si           7.832553        0.576637       -0.525811
  Si           7.837322        1.074700       -0.569515
  Si           7.842091        1.572764       -0.613219
  Si           7.846860        2.070827       -0.656923
  Si           7.851628        2.568891       -0.700627
  Si           7.856397        3.066954       -0.744331
  Si           7.861166        3.565018       -0.788035
  Si           7.865935        4.063081       -0.831739
  Si           7.870704        4.561145       -0.875443
  Si           7.706657      -12.572239        0.627975
  Si           7.711426      -12.074175        0.584271
  Si           7.716195      -11.576112        0.540567
  Si           7.720964      -11.078048        0.496863
  Si           7.725732      -10.579985        0.453159
  Si           7.730501      -10.081921        0.409454
  Si           7.735270       -9.583858        0.365750
  Si           7.740039       -9.085794        0.322046
  Si           7.744808       -8.587731        0.278342
  Si           7.749576       -8.089668        0.234638
  Si           7.754345       -7.591604        0.190934
  Si           7.814477       -6.592391       -0.999847
  Si           7.819245       -6.094328       -1.043551
  Si           7.824014       -5.596265       -1.087255
  Si           7.828783       -5.098201       -1.130959
  Si           7.833552       -4.600138       -1.174663
  Si           7.838321       -4.102074       -1.218367
  Si           7.843089       -3.604011       -1.262071
  Si           7.847858       -3.105947       -1.305775
  Si           7.852627       -2.607884       -1.349479
  Si           7.857396       -2.109820       -1.393183
  Si           7.862165       -1.611757       -1.436887
  Si           7.872656       -0.516017       -1.533036
  Si           7.877425       -0.017954       -1.576740
  Si           7.882193        0.480110       -1.620444
  Si           7.886962        0.978173       -1.664148
  Si           7.891731        1.476237       -1.707852
  Si           7.896500        1.974300       -1.751556
  Si           7.901269        2.472364       -1.795260
  Si           7.906037        2.970427       -1.838964
  Si           7.910806        3.468491       -1.882668
  Si           7.915575        3.966554       -1.926372
  Si           7.920344        4.464618       -1.970076
  Si           7.756297      -12.668766       -0.466658
  Si           7.761066      -12.170702       -0.510362
  Si           7.765835      -11.672639       -0.554066
  Si           7.770604      -11.174575       -0.597770
  Si           7.775373      -10.676512       -0.641474
  Si           7.780141      -10.178448       -0.685178
  Si           7.784910       -9.680385       -0.728882
  Si           7.789679       -9.182321       -0.772586
  Si           7.794448       -8.684258       -0.816290
  Si           7.799216       -8.186195       -0.859994
  Si           7.803985       -7.688131       -0.903698
  Si           8.962947       -6.695020       -2.044111
  Si           8.967716       -6.196956       -2.087815
  Si           8.972485       -5.698893       -2.131519
  Si           8.977253       -5.200829       -2.175223
  Si           8.982022       -4.702766       -2.218927
  Si           8.986791       -4.204702       -2.262631
  Si           8.991560       -3.706639       -2.306335
  Si           8.996329       -3.208575       -2.350039
  Si           9.001097       -2.710512       -2.393743
  Si           9.005866       -2.212448       -2.437447
  Si           9.010635       -1.714385       -2.481151
  Si           9.021126       -0.618645       -2.577300
  Si           9.025895       -0.120582       -2.621004
  Si           9.030664        0.377482       -2.664708
  Si           9.035433        0.875545       -2.708412
  Si           9.040201        1.373609       -2.752116
  Si           9.044970        1.871672       -2.795820
  Si           9.049739        2.369735       -2.839524
  Si           9.054508        2.867799       -2.883228
  Si           9.059277        3.365862       -2.926932
  Si           9.064045        3.863926       -2.970636
  Si           9.068814        4.361989       -3.014340
  Si           8.904768      -12.771394       -1.510922
  Si           8.909537      -12.273330       -1.554626
  Si           8.914305      -11.775267       -1.598330
  Si           8.919074      -11.277204       -1.642034
  Si           8.923843      -10.779140       -1.685738
  Si           8.928612      -10.281077       -1.729442
  Si           8.933381       -9.783013       -1.773146
  Si           8.938149       -9.284950       -1.816850
  Si           8.942918       -8.786886       -1.860554
  Si           8.947687       -8.288823       -1.904258
  Si           8.952456       -7.790759       -1.947962
  Si           9.012587       -6.791547       -3.138744
  Si           9.017356       -6.293483       -3.182448
  Si           9.022125       -5.795420       -3.226152
  Si           9.026894       -5.297356       -3.269856
  Si           9.031662       -4.799293       -3.313560
  Si           9.036431       -4.301229       -3.357264
  Si           9.041200       -3.803166       -3.400968
  Si           9.045969       -3.305102       -3.444672
  Si           9.050738       -2.807039       -3.488376
  Si           9.055506       -2.308975       -3.532080
  Si           9.060275       -1.810912       -3.575784
  Si           9.070766       -0.715172       -3.671933
  Si           9.075535       -0.217109       -3.715637
  Si           9.080304        0.280955       -3.759341
  Si           9.085073        0.779018       -3.803045
  Si           9.089842        1.277082       -3.846749
  Si           9.094610        1.775145       -3.890453
  Si           9.099379        2.273209       -3.934157
  Si           9.104148        2.771272       -3.977861
  Si           9.108917        3.269335       -4.021565
  Si           9.113686        3.767399       -4.065269
  Si           9.118454        4.265462       -4.108973
  Si           8.954408      -12.867921       -2.605555
  Si           8.959177      -12.369857       -2.649259
  Si           8.963946      -11.871794       -2.692963
  Si           8.968714      -11.373730       -2.736667
  Si           8.973483      -10.875667       -2.780371
  Si           8.978252      -10.377604       -2.824075
  Si           8.983021       -9.879540       -2.867779
  Si           8.987789       -9.381477       -2.911483
  Si           8.992558       -8.883413       -2.955187
  Si           8.997327       -8.385350       -2.998891
  Si           9.002096       -7.887286       -3.042595
  Si           9.062227       -6.888074       -4.233376
  Si           9.066996       -6.390010       -4.277080
  Si           9.071765       -5.891947       -4.320784
  Si           9.076534       -5.393883       -4.364488
  Si           9.081302       -4.895820       -4.408192
  Si           9.086071       -4.397756       -4.451896
  Si           9.090840       -3.899693       -4.495600
  Si           9.095609       -3.401629       -4.539304
  Si           9.100378       -2.903566       -4.583008
  Si           9.105146       -2.405502       -4.626712
  Si           9.109915       -1.907439       -4.670417
  Si           9.120407       -0.811699       -4.766565
  Si           9.125175       -0.313636       -4.810269
  Si           9.129944        0.184428       -4.853973
  Si           9.134713        0.682491       -4.897677
  Si           9.139482        1.180555       -4.941381
  Si           9.144251        1.678618       -4.985085
  Si           9.149019        2.176682       -5.028789
  Si           9.153788        2.674745       -5.072493
  Si           9.158557        3.172808       -5.116197
  Si           9.163326        3.670872       -5.159901
  Si           9.168095        4.168935       -5.203605
  Si           9.004048      -12.964448       -3.700187
  Si           9.008817      -12.466384       -3.743891
  Si           9.013586      -11.968321       -3.787595
  Si           9.018354      -11.470257       -3.831299
  Si           9.023123      -10.972194       -3.875004
  Si           9.027892      -10.474131       -3.918708
  Si           9.032661       -9.976067       -3.962412
  Si           9.037430       -9.478004       -4.006116
  Si           9.042198       -8.979940       -4.049820
  Si           9.046967       -8.481877       -4.093524
  Si           9.051736       -7.983813       -4.137228
  Si           9.111867       -6.984601       -5.328009
  Si           9.116636       -6.486537       -5.371713
  Si           9.121405       -5.988474       -5.415417
  Si           9.126174       -5.490410       -5.459121
  Si           9.130943       -4.992347       -5.502825
  Si           9.135711       -4.494283       -5.546529
  Si           9.140480       -3.996220       -5.590233
  Si           9.145249       -3.498156       -5.633937
  Si           9.150018       -3.000093       -5.677641
  Si           9.154787       -2.502029       -5.721345
  Si           9.159555       -2.003966       -5.765049
  Si           9.170047       -0.908226       -5.861198
  Si           9.174816       -0.410163       -5.904902
  Si           9.179584        0.087901       -5.948606
  Si           9.184353        0.585964       -5.992310
  Si           9.189122        1.084028       -6.036014
  Si           9.193891        1.582091       -6.079718
  Si           9.198659        2.080155       -6.123422
  Si           9.203428        2.578218       -6.167126
  Si           9.208197        3.076282       -6.210830
  Si           9.212966        3.574345       -6.254534
  Si           9.217735        4.072408       -6.298238
  Si           9.053688      -13.060975       -4.794820
  Si           9.058457      -12.562911       -4.838524
  Si           9.063226      -12.064848       -4.882228
  Si           9.067995      -11.566784       -4.925932
  Si           9.072763      -11.068721       -4.969636
  Si           9.077532      -10.570658       -5.013340
  Si           9.082301      -10.072594       -5.057044
  Si           9.087070       -9.574531       -5.100748
  Si           9.091839       -9.076467       -5.144452
  Si           9.096607       -8.578404       -5.188156
  Si           9.101376       -8.080340       -5.231860
  Si           9.161508       -7.081128       -6.422642
  Si           9.166276       -6.583064       -6.466346
  Si           9.171045       -6.085001       -6.510050
  Si           9.175814       -5.586937       -6.553754
  Si           9.180583       -5.088874       -6.597458
  Si           9.185352       -4.590810       -6.641162
  Si           9.190120       -4.092747       -6.684866
  Si           9.194889       -3.594683       -6.728570
  Si           9.199658       -3.096620       -6.772274
  Si           9.204427       -2.598556       -6.815978
  Si           9.209196       -2.100493       -6.859682
  Si           9.219687       -1.004753       -6.955831
  Si           9.224456       -0.506690       -6.999535
  Si           9.229224       -0.008626       -7.043239
  Si           9.233993        0.489437       -7.086943
  Si           9.238762        0.987501       -7.130647
  Si           9.243531        1.485564       -7.174351
  Si           9.248300        1.983628       -7.218055
  Si           9.253068        2.481691       -7.261759
  Si           9.257837        2.979755       -7.305463
  Si           9.262606        3.477818       -7.349167
  Si           9.267375        3.975881       -7.392871
  Si           9.103328      -13.157502       -5.889453
  Si           9.108097      -12.659438       -5.933157
  Si           9.112866      -12.161375       -5.976861
  Si           9.117635      -11.663311       -6.020565
  Si           9.122404      -11.165248       -6.064269
  Si           9.127172      -10.667184       -6.107973
  Si           9.131941      -10.169121       -6.151677
  Si           9.136710       -9.671058       -6.195381
  Si           9.141479       -9.172994       -6.239085
  Si           9.146247       -8.674931       -6.282789
  Si           9.151016       -8.176867       -6.326493
  Si           9.211148       -7.177654       -7.517274
  Si           9.215917       -6.679591       -7.560978
  Si           9.220685       -6.181528       -7.604682
  Si           9.225454       -5.683464       -7.648386
  Si           9.230223       -5.185401       -7.692090
  Si           9.234992       -4.687337       -7.735794
  Si           9.239761       -4.189274       -7.779498
  Si           9.244529       -3.691210       -7.823202
  Si           9.249298       -3.193147       -7.866906
  Si           9.254067       -2.695083       -7.910610
  Si           9.258836       -2.197020       -7.954314
  Si           9.269327       -1.101280       -8.050463
  Si           9.274096       -0.603217       -8.094167
  Si           9.278865       -0.105153       -8.137871
  Si           9.283633        0.392910       -8.181575
  Si           9.288402        0.890974       -8.225279
  Si           9.293171        1.389037       -8.268983
  Si           9.297940        1.887101       -8.312687
  Si           9.302709        2.385164       -8.356391
  Si           9.307477        2.883228       -8.400095
  Si           9.312246        3.381291       -8.443799
  Si           9.317015        3.879354       -8.487503
  Si           9.152968      -13.254029       -6.984085
  Si           9.157737      -12.755965       -7.027789
  Si           9.162506      -12.257902       -7.071493
  Si           9.167275      -11.759838       -7.115197
  Si           9.172044      -11.261775       -7.158901
  Si           9.176812      -10.763711       -7.202605
  Si           9.181581      -10.265648       -7.246309
  Si           9.186350       -9.767585       -7.290013
  Si           9.191119       -9.269521       -7.333717
  Si           9.195888       -8.771458       -7.377421
  Si           9.200656       -8.273394       -7.421125
  Si           9.260788       -7.274181       -8.611907
  Si           9.265557       -6.776118       -8.655611
  Si           9.270325       -6.278055       -8.699315
  Si           9.275094       -5.779991       -8.743019
  Si           9.279863       -5.281928       -8.786723
  Si           9.284632       -4.783864       -8.830427
  Si           9.289401       -4.285801       -8.874131
  Si           9.294169       -3.787737       -8.917835
  Si           9.298938       -3.289674       -8.961539
  Si           9.303707       -2.791610       -9.005243
  Si           9.308476       -2.293547       -9.048947
  Si           9.318967       -1.197807       -9.145096
  Si           9.323736       -0.699744       -9.188800
  Si           9.328505       -0.201680       -9.232504
  Si           9.333274        0.296383       -9.276208
  Si           9.338042        0.794447       -9.319912
  Si           9.342811        1.292510       -9.363616
  Si           9.347580        1.790574       -9.407320
  Si           9.352349        2.288637       -9.451024
  Si           9.357117        2.786701       -9.494728
  Si           9.361886        3.284764       -9.538432
  Si           9.366655        3.782828       -9.582136
  Si           9.202609      -13.350556       -8.078718
  Si           9.207377      -12.852492       -8.122422
  Si           9.212146      -12.354429       -8.166126
  Si           9.216915      -11.856365       -8.209830
  Si           9.221684      -11.358302       -8.253534
  Si           9.226453      -10.860238       -8.297238
  Si           9.231221      -10.362175       -8.340942
  Si           9.235990       -9.864112       -8.384646
  Si           9.240759       -9.366048       -8.428350
  Si           9.245528       -8.867985       -8.472054
  Si           9.250297       -8.369921       -8.515758
  Si           9.310428       -7.370708       -9.706540
  Si           9.315197       -6.872645       -9.750244
  Si           9.319966       -6.374582       -9.793948
  Si           9.324734       -5.876518       -9.837652
  Si           9.329503       -5.378455       -9.881356
  Si           9.334272       -4.880391       -9.925060
  Si           9.339041       -4.382328       -9.968764
  Si           9.343810       -3.884264      -10.012468
  Si           9.348578       -3.386201      -10.056172
  Si           9.353347       -2.888137      -10.099876
  Si           9.358116       -2.390074      -10.143580
  Si           9.368607       -1.294334      -10.239728
  Si           9.373376       -0.796271      -10.283433
  Si           9.378145       -0.298207      -10.327137
  Si           9.382914        0.199856      -10.370841
  Si           9.387682        0.697920      -10.414545
  Si           9.392451        1.195983      -10.458249
  Si           9.397220        1.694047      -10.501953
  Si           9.401989        2.192110      -10.545657
  Si           9.406758        2.690174      -10.589361
  Si           9.411526        3.188237      -10.633065
  Si           9.416295        3.686301      -10.676769
  Si           9.252249      -13.447083       -9.173351
  Si           9.257018      -12.949019       -9.217055
  Si           9.261786      -12.450956       -9.260759
  Si           9.266555      -11.952892       -9.304463
  Si           9.271324      -11.454829       -9.348167
  Si           9.276093      -10.956765       -9.391871
  Si           9.280862      -10.458702       -9.435575
  Si           9.285630       -9.960638       -9.479279
  Si           9.290399       -9.462575       -9.522983
  Si           9.295168       -8.964512       -9.566687
  Si           9.299937       -8.466448       -9.610391
  Si           9.360068       -7.467235      -10.801172
  Si           9.364837       -6.969172      -10.844876
  Si           9.369606       -6.471108      -10.888580
  Si           9.374375       -5.973045      -10.932284
  Si           9.379143       -5.474982      -10.975988
  Si           9.383912       -4.976918      -11.019692
  Si           9.388681       -4.478855      -11.063396
  Si           9.393450       -3.980791      -11.107100
  Si           9.398219       -3.482728      -11.150804
  Si           9.402987       -2.984664      -11.194508
  Si           9.407756       -2.486601      -11.238212
  Si           9.418247       -1.390861      -11.334361
  Si           9.423016       -0.892798      -11.378065
  Si           9.427785       -0.394734      -11.421769
  Si           9.432554        0.103329      -11.465473
  Si           9.437323        0.601393      -11.509177
  Si           9.442091        1.099456      -11.552881
  Si           9.446860        1.597520      -11.596585
  Si           9.451629        2.095583      -11.640289
  Si           9.456398        2.593647      -11.683993
  Si           9.461167        3.091710      -11.727697
  Si           9.465935        3.589774      -11.771401
  Si           9.301889      -13.543610      -10.267983
  Si           9.306658      -13.045546      -10.311687
  Si           9.311427      -12.547483      -10.355391
  Si           9.316195      -12.049419      -10.399095
  Si           9.320964      -11.551356      -10.442799
  Si           9.325733      -11.053292      -10.486503
  Si           9.330502      -10.555229      -10.530207
  Si           9.335270      -10.057165      -10.573911
  Si           9.340039       -9.559102      -10.617615
  Si           9.344808       -9.061039      -10.661319
  Si           9.349577       -8.562975      -10.705023
  Si           8.565826       -5.922804        6.712950
  Si           8.570595       -5.424740        6.669246
  Si           8.575363       -4.926677        6.625542
  Si           8.580132       -4.428613        6.581838
  Si           8.584901       -3.930550        6.538134
  Si           8.589670       -3.432486        6.494430
  Si           8.594439       -2.934423        6.450726
  Si           8.599207       -2.436360        6.407022
  Si           8.603976       -1.938296        6.363318
  Si           8.608745       -1.440233        6.319614
  Si           8.613514       -0.942169        6.275910
  Si           8.624005        0.153570        6.179761
  Si           8.628774        0.651634        6.136057
  Si           8.633543        1.149697        6.092353
  Si           8.638312        1.647761        6.048649
  Si           8.643080        2.145824        6.004945
  Si           8.647849        2.643888        5.961241
  Si           8.652618        3.141951        5.917537
  Si           8.657387        3.640015        5.873833
  Si           8.662155        4.138078        5.830129
  Si           8.666924        4.636142        5.786425
  Si           8.671693        5.134205        5.742721
  Si           8.507647      -11.999178        7.246139
  Si           8.512415      -11.501115        7.202435
  Si           8.517184      -11.003051        7.158731
  Si           8.521953      -10.504988        7.115027
  Si           8.526722      -10.006924        7.071323
  Si           8.531491       -9.508861        7.027619
  Si           8.536259       -9.010797        6.983915
  Si           8.541028       -8.512734        6.940211
  Si           8.545797       -8.014670        6.896507
  Si           8.550566       -7.516607        6.852803
  Si           8.555335       -7.018543        6.809099
  Si           8.615466       -6.019331        5.618317
  Si           8.620235       -5.521267        5.574613
  Si           8.625004       -5.023204        5.530909
  Si           8.629772       -4.525140        5.487205
  Si           8.634541       -4.027077        5.443501
  Si           8.639310       -3.529013        5.399797
  Si           8.644079       -3.030950        5.356093
  Si           8.648848       -2.532887        5.312389
  Si           8.653616       -2.034823        5.268685
  Si           8.658385       -1.536760        5.224981
  Si           8.663154       -1.038696        5.181277
  Si           8.673645        0.057044        5.085128
  Si           8.678414        0.555107        5.041424
  Si           8.683183        1.053170        4.997720
  Si           8.687952        1.551234        4.954016
  Si           8.692720        2.049297        4.910312
  Si           8.697489        2.547361        4.866608
  Si           8.702258        3.045424        4.822904
  Si           8.707027        3.543488        4.779200
  Si           8.711796        4.041551        4.735496
  Si           8.716564        4.539615        4.691792
  Si           8.721333        5.037678        4.648088
  Si           8.557287      -12.095705        6.151506
  Si           8.562056      -11.597642        6.107802
  Si           8.566824      -11.099578        6.064098
  Si           8.571593      -10.601515        6.020394
  Si           8.576362      -10.103451        5.976690
  Si           8.581131       -9.605388        5.932986
  Si           8.585900       -9.107324        5.889282
  Si           8.590668       -8.609261        5.845578
  Si           8.595437       -8.111197        5.801874
  Si           8.600206       -7.613134        5.758170
  Si           8.604975       -7.115070        5.714466
  Si           8.665106       -6.115858        4.523685
  Si           8.669875       -5.617794        4.479981
  Si           8.674644       -5.119731        4.436277
  Si           8.679413       -4.621667        4.392573
  Si           8.684181       -4.123604        4.348869
  Si           8.688950       -3.625540        4.305165
  Si           8.693719       -3.127477        4.261461
  Si           8.698488       -2.629413        4.217757
  Si           8.703257       -2.131350        4.174053
  Si           8.708025       -1.633287        4.130349
  Si           8.712794       -1.135223        4.086645
  Si           8.723285       -0.039483        3.990496
  Si           8.728054        0.458580        3.946792
  Si           8.732823        0.956643        3.903088
  Si           8.737592        1.454707        3.859384
  Si           8.742361        1.952770        3.815680
  Si           8.747129        2.450834        3.771976
  Si           8.751898        2.948897        3.728272
  Si           8.756667        3.446961        3.684568
  Si           8.761436        3.945024        3.640864
  Si           8.766205        4.443088        3.597160
  Si           8.770973        4.941151        3.553456
  Si           8.606927      -12.192232        5.056874
  Si           8.611696      -11.694169        5.013170
  Si           8.616465      -11.196105        4.969466
  Si           8.621233      -10.698042        4.925762
  Si           8.626002      -10.199978        4.882058
  Si           8.630771       -9.701915        4.838354
  Si           8.635540       -9.203851        4.794650
  Si           8.640308       -8.705788        4.750946
  Si           8.645077       -8.207724        4.707242
  Si           8.649846       -7.709661        4.663537
  Si           8.654615       -7.211597        4.619833
  Si           8.714746       -6.212385        3.429052
  Si           8.719515       -5.714321        3.385348
  Si           8.724284       -5.216258        3.341644
  Si           8.729053       -4.718194        3.297940
  Si           8.733821       -4.220131        3.254236
  Si           8.738590       -3.722067        3.210532
  Si           8.743359       -3.224004        3.166828
  Si           8.748128       -2.725940        3.123124
  Si           8.752897       -2.227877        3.079420
  Si           8.757665       -1.729814        3.035716
  Si           8.762434       -1.231750        2.992012
  Si           8.772926       -0.136010        2.895863
  Si           8.777694        0.362053        2.852159
  Si           8.782463        0.860117        2.808455
  Si           8.787232        1.358180        2.764751
  Si           8.792001        1.856243        2.721047
  Si           8.796770        2.354307        2.677343
  Si           8.801538        2.852370        2.633639
  Si           8.806307        3.350434        2.589935
  Si           8.811076        3.848497        2.546231
  Si           8.815845        4.346561        2.502527
  Si           8.820614        4.844624        2.458823
  Si           8.656567      -12.288759        3.962241
  Si           8.661336      -11.790696        3.918537
  Si           8.666105      -11.292632        3.874833
  Si           8.670873      -10.794569        3.831129
  Si           8.675642      -10.296505        3.787425
  Si           8.680411       -9.798442        3.743721
  Si           8.685180       -9.300378        3.700017
  Si           8.689949       -8.802315        3.656313
  Si           8.694717       -8.304251        3.612609
  Si           8.699486       -7.806188        3.568905
  Si           8.704255       -7.308124        3.525201
  Si           8.764386       -6.308912        2.334419
  Si           8.769155       -5.810848        2.290715
  Si           8.773924       -5.312785        2.247011
  Si           8.778693       -4.814721        2.203307
  Si           8.783462       -4.316658        2.159603
  Si           8.788230       -3.818594        2.115899
  Si           8.792999       -3.320531        2.072195
  Si           8.797768       -2.822467        2.028491
  Si           8.802537       -2.324404        1.984787
  Si           8.807306       -1.826341        1.941083
  Si           8.812074       -1.328277        1.897379
  Si           8.822566       -0.232537        1.801230
  Si           8.827335        0.265526        1.757526
  Si           8.832103        0.763590        1.713822
  Si           8.836872        1.261653        1.670118
  Si           8.841641        1.759716        1.626414
  Si           8.846410        2.257780        1.582710
  Si           8.851178        2.755843        1.539006
  Si           8.855947        3.253907        1.495302
  Si           8.860716        3.751970        1.451598
  Si           8.865485        4.250034        1.407894
  Si           8.870254        4.748097        1.364190
  Si           8.706207      -12.385286        2.867608
  Si           8.710976      -11.887223        2.823904
  Si           8.715745      -11.389159        2.780200
  Si           8.720514      -10.891096        2.736496
  Si           8.725282      -10.393032        2.692792
  Si           8.730051       -9.894969        2.649088
  Si           8.734820       -9.396905        2.605384
  Si           8.739589       -8.898842        2.561680
  Si           8.744358       -8.400778        2.517976
  Si           8.749126       -7.902715        2.474272
  Si           8.753895       -7.404651        2.430568
  Si           8.814027       -6.405439        1.239787
  Si           8.818795       -5.907375        1.196083
  Si           8.823564       -5.409312        1.152379
  Si           8.828333       -4.911248        1.108675
  Si           8.833102       -4.413185        1.064971
  Si           8.837871       -3.915121        1.021267
  Si           8.842639       -3.417058        0.977563
  Si           8.847408       -2.918994        0.933859
  Si           8.852177       -2.420931        0.890155
  Si           8.856946       -1.922867        0.846451
  Si           8.861715       -1.424804        0.802747
  Si           8.872206       -0.329064        0.706598
  Si           8.876975        0.168999        0.662894
  Si           8.881743        0.667063        0.619190
  Si           8.886512        1.165126        0.575486
  Si           8.891281        1.663189        0.531782
  Si           8.896050        2.161253        0.488078
  Si           8.900819        2.659316        0.444374
  Si           8.905587        3.157380        0.400670
  Si           8.910356        3.655443        0.356966
  Si           8.915125        4.153507        0.313262
  Si           8.919894        4.651570        0.269558
  Si           8.755847      -12.481813        1.772976
  Si           8.760616      -11.983750        1.729272
  Si           8.765385      -11.485686        1.685568
  Si           8.770154      -10.987623        1.641864
  Si           8.774923      -10.489559        1.598160
  Si           8.779691       -9.991496        1.554456
  Si           8.784460       -9.493432        1.510752
  Si           8.789229       -8.995369        1.467048
  Si           8.793998       -8.497305        1.423344
  Si           8.798766       -7.999242        1.379640
  Si           8.803535       -7.501178        1.335936
  Si           8.863667       -6.501966        0.145154
  Si           8.868436       -6.003902        0.101450
  Si           8.873204       -5.505839        0.057746
  Si           8.877973       -5.007775        0.014042
  Si           8.882742       -4.509712       -0.029662
  Si           8.887511       -4.011648       -0.073366
  Si           8.892280       -3.513585       -0.117070
  Si           8.897048       -3.015521       -0.160774
  Si           8.901817       -2.517458       -0.204478
  Si           8.906586       -2.019394       -0.248182
  Si           8.911355       -1.521331       -0.291886
  Si           8.921846       -0.425591       -0.388035
  Si           8.926615        0.072472       -0.431739
  Si           8.931384        0.570536       -0.475443
  Si           8.936152        1.068599       -0.519147
  Si           8.940921        1.566663       -0.562851
  Si           8.945690        2.064726       -0.606555
  Si           8.950459        2.562789       -0.650259
  Si           8.955228        3.060853       -0.693963
  Si           8.959996        3.558916       -0.737667
  Si           8.964765        4.056980       -0.781371
  Si           8.969534        4.555043       -0.825075
  Si           8.805487      -12.578340        0.678343
  Si           8.810256      -12.080277        0.634639
  Si           8.815025      -11.582213        0.590935
  Si           8.819794      -11.084150        0.547231
  Si           8.824563      -10.586086        0.503527
  Si           8.829331      -10.088023        0.459823
  Si           8.834100       -9.589959        0.416119
  Si           8.838869       -9.091896        0.372415
  Si           8.843638       -8.593832        0.328711
  Si           8.848407       -8.095769        0.285007
  Si           8.853175       -7.597705        0.241303
  Si           8.913307       -6.598493       -0.949478
  Si           8.918076       -6.100429       -0.993183
  Si           8.922844       -5.602366       -1.036887
  Si           8.927613       -5.104302       -1.080591
  Si           8.932382       -4.606239       -1.124295
  Si           8.937151       -4.108175       -1.167999
  Si           8.941920       -3.610112       -1.211703
  Si           8.946688       -3.112048       -1.255407
  Si           8.951457       -2.613985       -1.299111
  Si           8.956226       -2.115921       -1.342815
  Si           8.960995       -1.617858       -1.386519
  Si           8.971486       -0.522118       -1.482667
  Si           8.976255       -0.024055       -1.526371
  Si           8.981024        0.474009       -1.570075
  Si           8.985793        0.972072       -1.613779
  Si           8.990561        1.470136       -1.657483
  Si           8.995330        1.968199       -1.701187
  Si           9.000099        2.466262       -1.744891
  Si           9.004868        2.964326       -1.788596
  Si           9.009636        3.462389       -1.832300
  Si           9.014405        3.960453       -1.876004
  Si           9.019174        4.458516       -1.919708
  Si           8.855128      -12.674867       -0.416290
  Si           8.859896      -12.176803       -0.459994
  Si           8.864665      -11.678740       -0.503698
  Si           8.869434      -11.180677       -0.547402
  Si           8.874203      -10.682613       -0.591106
  Si           8.878972      -10.184550       -0.634810
  Si           8.883740       -9.686486       -0.678514
  Si           8.888509       -9.188423       -0.722218
  Si           8.893278       -8.690359       -0.765922
  Si           8.898047       -8.192296       -0.809626
  Si           8.902816       -7.694232       -0.853330
  Si          10.061777       -6.701121       -1.993743
  Si          10.066546       -6.203057       -2.037447
  Si          10.071315       -5.704994       -2.081151
  Si          10.076084       -5.206930       -2.124855
  Si          10.080852       -4.708867       -2.168559
  Si          10.085621       -4.210803       -2.212263
  Si          10.090390       -3.712740       -2.255967
  Si          10.095159       -3.214677       -2.299671
  Si          10.099928       -2.716613       -2.343375
  Si          10.104696       -2.218550       -2.387079
  Si          10.109465       -1.720486       -2.430783
  Si          10.119957       -0.624747       -2.526932
  Si          10.124725       -0.126683       -2.570636
  Si          10.129494        0.371380       -2.614340
  Si          10.134263        0.869444       -2.658044
  Si          10.139032        1.367507       -2.701748
  Si          10.143801        1.865571       -2.745452
  Si          10.148569        2.363634       -2.789156
  Si          10.153338        2.861698       -2.832860
  Si          10.158107        3.359761       -2.876564
  Si          10.162876        3.857825       -2.920268
  Si          10.167645        4.355888       -2.963972
  Si          10.003598      -12.777495       -1.460554
  Si          10.008367      -12.279432       -1.504258
  Si          10.013136      -11.781368       -1.547962
  Si          10.017904      -11.283305       -1.591666
  Si          10.022673      -10.785241       -1.635370
  Si          10.027442      -10.287178       -1.679074
  Si          10.032211       -9.789114       -1.722778
  Si          10.036980       -9.291051       -1.766482
  Si          10.041748       -8.792987       -1.810186
  Si          10.046517       -8.294924       -1.853890
  Si          10.051286       -7.796860       -1.897594
  Si          10.111417       -6.797648       -3.088375
  Si          10.116186       -6.299584       -3.132079
  Si          10.120955       -5.801521       -3.175783
  Si          10.125724       -5.303457       -3.219487
  Si          10.130493       -4.805394       -3.263191
  Si          10.135261       -4.307330       -3.306895
  Si          10.140030       -3.809267       -3.350599
  Si          10.144799       -3.311204       -3.394303
  Si          10.149568       -2.813140       -3.438007
  Si          10.154337       -2.315077       -3.481711
  Si          10.159105       -1.817013       -3.525415
  Si          10.169597       -0.721273       -3.621564
  Si          10.174366       -0.223210       -3.665268
  Si          10.179134        0.274853       -3.708972
  Si          10.183903        0.772917       -3.752676
  Si          10.188672        1.270980       -3.796380
  Si          10.193441        1.769044       -3.840084
  Si          10.198209        2.267107       -3.883788
  Si          10.202978        2.765171       -3.927492
  Si          10.207747        3.263234       -3.971196
  Si          10.212516        3.761298       -4.014900
  Si          10.217285        4.259361       -4.058604
  Si          10.053238      -12.874022       -2.555186
  Si          10.058007      -12.375959       -2.598890
  Si          10.062776      -11.877895       -2.642594
  Si          10.067545      -11.379832       -2.686298
  Si          10.072313      -10.881768       -2.730002
  Si          10.077082      -10.383705       -2.773706
  Si          10.081851       -9.885641       -2.817410
  Si          10.086620       -9.387578       -2.861114
  Si          10.091389       -8.889514       -2.904818
  Si          10.096157       -8.391451       -2.948522
  Si          10.100926       -7.893387       -2.992226
  Si          10.161058       -6.894175       -4.183008
  Si          10.165826       -6.396111       -4.226712
  Si          10.170595       -5.898048       -4.270416
  Si          10.175364       -5.399984       -4.314120
  Si          10.180133       -4.901921       -4.357824
  Si          10.184902       -4.403857       -4.401528
  Si          10.189670       -3.905794       -4.445232
  Si          10.194439       -3.407730       -4.488936
  Si          10.199208       -2.909667       -4.532640
  Si          10.203977       -2.411604       -4.576344
  Si          10.208746       -1.913540       -4.620048
  Si          10.219237       -0.817800       -4.716197
  Si          10.224006       -0.319737       -4.759901
  Si          10.228774        0.178326       -4.803605
  Si          10.233543        0.676390       -4.847309
  Si          10.238312        1.174453       -4.891013
  Si          10.243081        1.672517       -4.934717
  Si          10.247850        2.170580       -4.978421
  Si          10.252618        2.668644       -5.022125
  Si          10.257387        3.166707       -5.065829
  Si          10.262156        3.664771       -5.109533
  Si          10.266925        4.162834       -5.153237
  Si          10.102878      -12.970549       -3.649819
  Si          10.107647      -12.472486       -3.693523
  Si          10.112416      -11.974422       -3.737227
  Si          10.117185      -11.476359       -3.780931
  Si          10.121954      -10.978295       -3.824635
  Si          10.126722      -10.480232       -3.868339
  Si          10.131491       -9.982168       -3.912043
  Si          10.136260       -9.484105       -3.955747
  Si          10.141029       -8.986041       -3.999451
  Si          10.145797       -8.487978       -4.043155
  Si          10.150566       -7.989914       -4.086859
  Si          10.210698       -6.990702       -5.277641
  Si          10.215467       -6.492638       -5.321345
  Si          10.220235       -5.994575       -5.365049
  Si          10.225004       -5.496511       -5.408753
  Si          10.229773       -4.998448       -5.452457
  Si          10.234542       -4.500384       -5.496161
  Si          10.239311       -4.002321       -5.539865
  Si          10.244079       -3.504257       -5.583569
  Si          10.248848       -3.006194       -5.627273
  Si          10.253617       -2.508131       -5.670977
  Si          10.258386       -2.010067       -5.714681
  Si          10.268877       -0.914327       -5.810829
  Si          10.273646       -0.416264       -5.854533
  Si          10.278415        0.081799       -5.898237
  Si          10.283183        0.579863       -5.941941
  Si          10.287952        1.077926       -5.985645
  Si          10.292721        1.575990       -6.029349
  Si          10.297490        2.074053       -6.073054
  Si          10.302259        2.572117       -6.116758
  Si          10.307027        3.070180       -6.160462
  Si          10.311796        3.568244       -6.204166
  Si          10.316565        4.066307       -6.247870
  Si          10.152518      -13.067076       -4.744452
  Si          10.157287      -12.569013       -4.788156
  Si          10.162056      -12.070949       -4.831860
  Si          10.166825      -11.572886       -4.875564
  Si          10.171594      -11.074822       -4.919268
  Si          10.176362      -10.576759       -4.962972
  Si          10.181131      -10.078695       -5.006676
  Si          10.185900       -9.580632       -5.050380
  Si          10.190669       -9.082568       -5.094084
  Si          10.195438       -8.584505       -5.137788
  Si          10.200206       -8.086441       -5.181492
  Si          10.260338       -7.087229       -6.372273
  Si          10.265107       -6.589165       -6.415977
  Si          10.269875       -6.091102       -6.459681
  Si          10.274644       -5.593038       -6.503385
  Si          10.279413       -5.094975       -6.547089
  Si          10.284182       -4.596911       -6.590793
  Si          10.288951       -4.098848       -6.634497
  Si          10.293719       -3.600784       -6.678201
  Si          10.298488       -3.102721       -6.721905
  Si          10.303257       -2.604658       -6.765609
  Si          10.308026       -2.106594       -6.809313
  Si          10.318517       -1.010854       -6.905462
  Si          10.323286       -0.512791       -6.949166
  Si          10.328055       -0.014727       -6.992870
  Si          10.332824        0.483336       -7.036574
  Si          10.337592        0.981399       -7.080278
  Si          10.342361        1.479463       -7.123982
  Si          10.347130        1.977526       -7.167686
  Si          10.351899        2.475590       -7.211390
  Si          10.356667        2.973653       -7.255094
  Si          10.361436        3.471717       -7.298798
  Si          10.366205        3.969780       -7.342502
  Si          10.202159      -13.163603       -5.839084
  Si          10.206927      -12.665540       -5.882788
  Si          10.211696      -12.167476       -5.926492
  Si          10.216465      -11.669413       -5.970196
  Si          10.221234      -11.171349       -6.013900
  Si          10.226003      -10.673286       -6.057604
  Si          10.230771      -10.175222       -6.101308
  Si          10.235540       -9.677159       -6.145012
  Si          10.240309       -9.179095       -6.188716
  Si          10.245078       -8.681032       -6.232420
  Si          10.249847       -8.182968       -6.276124
  Si          10.309978       -7.183756       -7.466906
  Si          10.314747       -6.685692       -7.510610
  Si          10.319516       -6.187629       -7.554314
  Si          10.324284       -5.689565       -7.598018
  Si          10.329053       -5.191502       -7.641722
  Si          10.333822       -4.693438       -7.685426
  Si          10.338591       -4.195375       -7.729130
  Si          10.343360       -3.697311       -7.772834
  Si          10.348128       -3.199248       -7.816538
  Si          10.352897       -2.701184       -7.860242
  Si          10.357666       -2.203121       -7.903946
  Si          10.368157       -1.107381       -8.000095
  Si          10.372926       -0.609318       -8.043799
  Si          10.377695       -0.111254       -8.087503
  Si          10.382464        0.386809       -8.131207
  Si          10.387232        0.884872       -8.174911
  Si          10.392001        1.382936       -8.218615
  Si          10.396770        1.880999       -8.262319
  Si          10.401539        2.379063       -8.306023
  Si          10.406308        2.877126       -8.349727
  Si          10.411076        3.375190       -8.393431
  Si          10.415845        3.873253       -8.437135
  Si          10.251799      -13.260130       -6.933717
  Si          10.256568      -12.762067       -6.977421
  Si          10.261336      -12.264003       -7.021125
  Si          10.266105      -11.765940       -7.064829
  Si          10.270874      -11.267876       -7.108533
  Si          10.275643      -10.769813       -7.152237
  Si          10.280412      -10.271749       -7.195941
  Si          10.285180       -9.773686       -7.239645
  Si          10.289949       -9.275622       -7.283349
  Si          10.294718       -8.777559       -7.327053
  Si          10.299487       -8.279495       -7.370757
  Si          10.359618       -7.280283       -8.561538
  Si          10.364387       -6.782219       -8.605242
  Si          10.369156       -6.284156       -8.648946
  Si          10.373925       -5.786092       -8.692650
  Si          10.378693       -5.288029       -8.736354
  Si          10.383462       -4.789965       -8.780058
  Si          10.388231       -4.291902       -8.823762
  Si          10.393000       -3.793838       -8.867466
  Si          10.397769       -3.295775       -8.911170
  Si          10.402537       -2.797711       -8.954875
  Si          10.407306       -2.299648       -8.998579
  Si          10.417797       -1.203908       -9.094727
  Si          10.422566       -0.705845       -9.138431
  Si          10.427335       -0.207781       -9.182135
  Si          10.432104        0.290282       -9.225839
  Si          10.436873        0.788346       -9.269543
  Si          10.441641        1.286409       -9.313247
  Si          10.446410        1.784472       -9.356951
  Si          10.451179        2.282536       -9.400655
  Si          10.455948        2.780599       -9.444359
  Si          10.460717        3.278663       -9.488063
  Si          10.465485        3.776726       -9.531767
  Si          10.301439      -13.356657       -8.028349
  Si          10.306208      -12.858594       -8.072053
  Si          10.310977      -12.360530       -8.115757
  Si          10.315745      -11.862467       -8.159462
  Si          10.320514      -11.364403       -8.203166
  Si          10.325283      -10.866340       -8.246870
  Si          10.330052      -10.368276       -8.290574
  Si          10.334820       -9.870213       -8.334278
  Si          10.339589       -9.372149       -8.377982
  Si          10.344358       -8.874086       -8.421686
  Si          10.349127       -8.376022       -8.465390
  Si          10.409258       -7.376810       -9.656171
  Si          10.414027       -6.878746       -9.699875
  Si          10.418796       -6.380683       -9.743579
  Si          10.423565       -5.882619       -9.787283
  Si          10.428333       -5.384556       -9.830987
  Si          10.433102       -4.886492       -9.874691
  Si          10.437871       -4.388429       -9.918395
  Si          10.442640       -3.890365       -9.962099
  Si          10.447409       -3.392302      -10.005803
  Si          10.452177       -2.894238      -10.049507
  Si          10.456946       -2.396175      -10.093211
  Si          10.467438       -1.300435      -10.189360
  Si          10.472206       -0.802372      -10.233064
  Si          10.476975       -0.304308      -10.276768
  Si          10.481744        0.193755      -10.320472
  Si          10.486513        0.691819      -10.364176
  Si          10.491282        1.189882      -10.407880
  Si          10.496050        1.687945      -10.451584
  Si          10.500819        2.186009      -10.495288
  Si          10.505588        2.684072      -10.538992
  Si          10.510357        3.182136      -10.582696
  Si          10.515126        3.680199      -10.626400
  Si          10.351079      -13.453184       -9.122982
  Si          10.355848      -12.955120       -9.166686
  Si          10.360617      -12.457057       -9.210390
  Si          10.365385      -11.958994       -9.254094
  Si          10.370154      -11.460930       -9.297798
  Si          10.374923      -10.962867       -9.341502
  Si          10.379692      -10.464803       -9.385206
  Si          10.384461       -9.966740       -9.428910
  Si          10.389229       -9.468676       -9.472614
  Si          10.393998       -8.970613       -9.516318
  Si          10.398767       -8.472549       -9.560022
  Si          10.458898       -7.473337      -10.750804
  Si          10.463667       -6.975273      -10.794508
  Si          10.468436       -6.477210      -10.838212
  Si          10.473205       -5.979146      -10.881916
  Si          10.477974       -5.481083      -10.925620
  Si          10.482742       -4.983019      -10.969324
  Si          10.487511       -4.484956      -11.013028
  Si          10.492280       -3.986892      -11.056732
  Si          10.497049       -3.488829      -11.100436
  Si          10.501818       -2.990765      -11.144140
  Si          10.506586       -2.492702      -11.187844
  Si          10.517078       -1.396962      -11.283993
  Si          10.521847       -0.898899      -11.327697
  Si          10.526615       -0.400835      -11.371401
  Si          10.531384        0.097228      -11.415105
  Si          10.536153        0.595292      -11.458809
  Si          10.540922        1.093355      -11.502513
  Si          10.545690        1.591418      -11.546217
  Si          10.550459        2.089482      -11.589921
  Si          10.555228        2.587545      -11.633625
  Si          10.559997        3.085609      -11.677329
  Si          10.564766        3.583672      -11.721033
  Si          10.400719      -13.549711      -10.217615
  Si          10.405488      -13.051647      -10.261319
  Si          10.410257      -12.553584      -10.305023
  Si          10.415026      -12.055521      -10.348727
  Si          10.419794      -11.557457      -10.392431
  Si          10.424563      -11.059394      -10.436135
  Si          10.429332      -10.561330      -10.479839
  Si          10.434101      -10.063267      -10.523543
  Si          10.438870       -9.565203      -10.567247
  Si          10.443638       -9.067140      -10.610951
  Si          10.448407       -8.569076      -10.654655
  Si           9.664656       -5.928905        6.763318
  Si           9.669425       -5.430842        6.719614
  Si           9.674194       -4.932778        6.675910
  Si           9.678963       -4.434715        6.632206
  Si           9.683731       -3.936651        6.588502
  Si           9.688500       -3.438588        6.544798
  Si           9.693269       -2.940524        6.501094
  Si           9.698038       -2.442461        6.457390
  Si           9.702807       -1.944397        6.413686
  Si           9.707575       -1.446334        6.369982
  Si           9.712344       -0.948270        6.326278
  Si           9.722835        0.147469        6.230130
  Si           9.727604        0.645533        6.186425
  Si           9.732373        1.143596        6.142721
  Si           9.737142        1.641660        6.099017
  Si           9.741911        2.139723        6.055313
  Si           9.746679        2.637787        6.011609
  Si           9.751448        3.135850        5.967905
  Si           9.756217        3.633914        5.924201
  Si           9.760986        4.131977        5.880497
  Si           9.765755        4.630041        5.836793
  Si           9.770523        5.128104        5.793089
  Si           9.606477      -12.005279        7.296507
  Si           9.611246      -11.507216        7.252803
  Si           9.616014      -11.009152        7.209099
  Si           9.620783      -10.511089        7.165395
  Si           9.625552      -10.013025        7.121691
  Si           9.630321       -9.514962        7.077987
  Si           9.635090       -9.016899        7.034283
  Si           9.639858       -8.518835        6.990579
  Si           9.644627       -8.020772        6.946875
  Si           9.649396       -7.522708        6.903171
  Si           9.654165       -7.024645        6.859467
  Si           9.714296       -6.025432        5.668686
  Si           9.719065       -5.527369        5.624982
  Si           9.723834       -5.029305        5.581278
  Si           9.728603       -4.531242        5.537574
  Si           9.733371       -4.033178        5.493870
  Si           9.738140       -3.535115        5.450166
  Si           9.742909       -3.037051        5.406462
  Si           9.747678       -2.538988        5.362758
  Si           9.752447       -2.040924        5.319054
  Si           9.757215       -1.542861        5.275350
  Si           9.761984       -1.044797        5.231646
  Si           9.772476        0.050942        5.135497
  Si           9.777244        0.549006        5.091793
  Si           9.782013        1.047069        5.048089
  Si           9.786782        1.545133        5.004385
  Si           9.791551        2.043196        4.960681
  Si           9.796320        2.541260        4.916977
  Si           9.801088        3.039323        4.873273
  Si           9.805857        3.537387        4.829569
  Si           9.810626        4.035450        4.785865
  Si           9.815395        4.533514        4.742161
  Si           9.820163        5.031577        4.698457
  Si           9.656117      -12.101806        6.201875
  Si           9.660886      -11.603743        6.158171
  Si           9.665655      -11.105679        6.114467
  Si           9.670423      -10.607616        6.070763
  Si           9.675192      -10.109552        6.027059
  Si           9.679961       -9.611489        5.983355
  Si           9.684730       -9.113425        5.939651
  Si           9.689499       -8.615362        5.895947
  Si           9.694267       -8.117299        5.852243
  Si           9.699036       -7.619235        5.808539
  Si           9.703805       -7.121172        5.764835
  Si           9.763936       -6.121959        4.574053
  Si           9.768705       -5.623896        4.530349
  Si           9.773474       -5.125832        4.486645
  Si           9.778243       -4.627769        4.442941
  Si           9.783012       -4.129705        4.399237
  Si           9.787780       -3.631642        4.355533
  Si           9.792549       -3.133578        4.311829
  Si           9.797318       -2.635515        4.268125
  Si           9.802087       -2.137451        4.224421
  Si           9.806856       -1.639388        4.180717
  Si           9.811624       -1.141324        4.137013
  Si           9.822116       -0.045585        4.040864
  Si           9.826885        0.452479        3.997160
  Si           9.831653        0.950542        3.953456
  Si           9.836422        1.448606        3.909752
  Si           9.841191        1.946669        3.866048
  Si           9.845960        2.444733        3.822344
  Si           9.850728        2.942796        3.778640
  Si           9.855497        3.440860        3.734936
  Si           9.860266        3.938923        3.691232
  Si           9.865035        4.436987        3.647528
  Si           9.869804        4.935050        3.603824
  Si           9.705757      -12.198333        5.107242
  Si           9.710526      -11.700270        5.063538
  Si           9.715295      -11.202206        5.019834
  Si           9.720064      -10.704143        4.976130
  Si           9.724832      -10.206079        4.932426
  Si           9.729601       -9.708016        4.888722
  Si           9.734370       -9.209952        4.845018
  Si           9.739139       -8.711889        4.801314
  Si           9.743908       -8.213826        4.757610
  Si           9.748676       -7.715762        4.713906
  Si           9.753445       -7.217699        4.670202
  Si           9.813577       -6.218486        3.479421
  Si           9.818345       -5.720422        3.435717
  Si           9.823114       -5.222359        3.392013
  Si           9.827883       -4.724296        3.348309
  Si           9.832652       -4.226232        3.304605
  Si           9.837421       -3.728169        3.260900
  Si           9.842189       -3.230105        3.217196
  Si           9.846958       -2.732042        3.173492
  Si           9.851727       -2.233978        3.129788
  Si           9.856496       -1.735915        3.086084
  Si           9.861265       -1.237851        3.042380
  Si           9.871756       -0.142112        2.946232
  Si           9.876525        0.355952        2.902528
  Si           9.881293        0.854015        2.858824
  Si           9.886062        1.352079        2.815120
  Si           9.890831        1.850142        2.771416
  Si           9.895600        2.348206        2.727712
  Si           9.900369        2.846269        2.684008
  Si           9.905137        3.344333        2.640304
  Si           9.909906        3.842396        2.596600
  Si           9.914675        4.340460        2.552896
  Si           9.919444        4.838523        2.509192
  Si           9.755397      -12.294860        4.012609
  Si           9.760166      -11.796797        3.968905
  Si           9.764935      -11.298733        3.925201
  Si           9.769704      -10.800670        3.881497
  Si           9.774473      -10.302606        3.837793
  Si           9.779241       -9.804543        3.794089
  Si           9.784010       -9.306479        3.750385
  Si           9.788779       -8.808416        3.706681
  Si           9.793548       -8.310353        3.662977
  Si           9.798316       -7.812289        3.619273
  Si           9.803085       -7.314226        3.575569
  Si           9.863217       -6.315013        2.384788
  Si           9.867986       -5.816949        2.341084
  Si           9.872754       -5.318886        2.297380
  Si           9.877523       -4.820823        2.253676
  Si           9.882292       -4.322759        2.209972
  Si           9.887061       -3.824696        2.166268
  Si           9.891829       -3.326632        2.122564
  Si           9.896598       -2.828569        2.078860
  Si           9.901367       -2.330505        2.035156
  Si           9.906136       -1.832442        1.991452
  Si           9.910905       -1.334378        1.947748
  Si           9.921396       -0.238639        1.851599
  Si           9.926165        0.259425        1.807895
  Si           9.930934        0.757488        1.764191
  Si           9.935702        1.255552        1.720487
  Si           9.940471        1.753615        1.676783
  Si           9.945240        2.251679        1.633079
  Si           9.950009        2.749742        1.589375
  Si           9.954778        3.247806        1.545671
  Si           9.959546        3.745869        1.501967
  Si           9.964315        4.243933        1.458263
  Si           9.969084        4.741996        1.414559
  Si           9.805037      -12.391387        2.917977
  Si           9.809806      -11.893324        2.874273
  Si           9.814575      -11.395260        2.830569
  Si           9.819344      -10.897197        2.786865
  Si           9.824113      -10.399133        2.743161
  Si           9.828881       -9.901070        2.699457
  Si           9.833650       -9.403006        2.655753
  Si           9.838419       -8.904943        2.612049
  Si           9.843188       -8.406879        2.568345
  Si           9.847957       -7.908816        2.524641
  Si           9.852725       -7.410753        2.480937
  Si           9.912857       -6.411540        1.290155
  Si           9.917626       -5.913476        1.246451
  Si           9.922394       -5.415413        1.202747
  Si           9.927163       -4.917349        1.159043
  Si           9.931932       -4.419286        1.115339
  Si           9.936701       -3.921223        1.071635
  Si           9.941470       -3.423159        1.027931
  Si           9.946238       -2.925096        0.984227
  Si           9.951007       -2.427032        0.940523
  Si           9.955776       -1.928969        0.896819
  Si           9.960545       -1.430905        0.853115
  Si           9.971036       -0.335166        0.756966
  Si           9.975805        0.162898        0.713262
  Si           9.980574        0.660961        0.669558
  Si           9.985343        1.159025        0.625854
  Si           9.990111        1.657088        0.582150
  Si           9.994880        2.155152        0.538446
  Si           9.999649        2.653215        0.494742
  Si          10.004418        3.151279        0.451038
  Si          10.009186        3.649342        0.407334
  Si          10.013955        4.147406        0.363630
  Si          10.018724        4.645469        0.319926
  Si           9.854678      -12.487914        1.823344
  Si           9.859446      -11.989851        1.779640
  Si           9.864215      -11.491787        1.735936
  Si           9.868984      -10.993724        1.692232
  Si           9.873753      -10.495660        1.648528
  Si           9.878522       -9.997597        1.604824
  Si           9.883290       -9.499533        1.561120
  Si           9.888059       -9.001470        1.517416
  Si           9.892828       -8.503406        1.473712
  Si           9.897597       -8.005343        1.430008
  Si           9.902366       -7.507280        1.386304
  Si           9.962497       -6.508067        0.195523
  Si           9.967266       -6.010003        0.151819
  Si           9.972035       -5.511940        0.108115
  Si           9.976803       -5.013876        0.064411
  Si           9.981572       -4.515813        0.020707
  Si           9.986341       -4.017750       -0.022997
  Si           9.991110       -3.519686       -0.066701
  Si           9.995879       -3.021623       -0.110405
  Si          10.000647       -2.523559       -0.154109
  Si          10.005416       -2.025496       -0.197813
  Si          10.010185       -1.527432       -0.241517
  Si          10.020676       -0.431693       -0.337666
  Si          10.025445        0.066371       -0.381370
  Si          10.030214        0.564434       -0.425074
  Si          10.034983        1.062498       -0.468778
  Si          10.039751        1.560561       -0.512482
  Si          10.044520        2.058625       -0.556186
  Si          10.049289        2.556688       -0.599890
  Si          10.054058        3.054752       -0.643594
  Si          10.058827        3.552815       -0.687298
  Si          10.063595        4.050879       -0.731002
  Si          10.068364        4.548942       -0.774706
  Si           9.904318      -12.584441        0.728712
  Si           9.909087      -12.086378        0.685008
  Si           9.913855      -11.588314        0.641304
  Si           9.918624      -11.090251        0.597600
  Si           9.923393      -10.592187        0.553896
  Si           9.928162      -10.094124        0.510192
  Si           9.932931       -9.596060        0.466488
  Si           9.937699       -9.097997        0.422784
  Si           9.942468       -8.599933        0.379079
  Si           9.947237       -8.101870        0.335375
  Si           9.952006       -7.603807        0.291671
  Si          10.012137       -6.604594       -0.899110
  Si          10.016906       -6.106530       -0.942814
  Si          10.021675       -5.608467       -0.986518
  Si          10.026444       -5.110403       -1.030222
  Si          10.031212       -4.612340       -1.073926
  Si          10.035981       -4.114277       -1.117630
  Si          10.040750       -3.616213       -1.161334
  Si          10.045519       -3.118150       -1.205038
  Si          10.050288       -2.620086       -1.248742
  Si          10.055056       -2.122023       -1.292446
  Si          10.059825       -1.623959       -1.336150
  Si          10.070316       -0.528220       -1.432299
  Si          10.075085       -0.030156       -1.476003
  Si          10.079854        0.467907       -1.519707
  Si          10.084623        0.965971       -1.563411
  Si          10.089392        1.464034       -1.607115
  Si          10.094160        1.962098       -1.650819
  Si          10.098929        2.460161       -1.694523
  Si          10.103698        2.958225       -1.738227
  Si          10.108467        3.456288       -1.781931
  Si          10.113236        3.954352       -1.825635
  Si          10.118004        4.452415       -1.869339
  Si           9.953958      -12.680968       -0.365921
  Si           9.958727      -12.182905       -0.409625
  Si           9.963495      -11.684841       -0.453329
  Si           9.968264      -11.186778       -0.497033
  Si           9.973033      -10.688714       -0.540737
  Si           9.977802      -10.190651       -0.584441
  Si           9.982571       -9.692587       -0.628145
  Si           9.987339       -9.194524       -0.671849
  Si           9.992108       -8.696460       -0.715553
  Si           9.996877       -8.198397       -0.759257
  Si          10.001646       -7.700333       -0.802961
  Si          11.160608       -6.707222       -1.943374
  Si          11.165376       -6.209159       -1.987078
  Si          11.170145       -5.711095       -2.030782
  Si          11.174914       -5.213032       -2.074486
  Si          11.179683       -4.714968       -2.118190
  Si          11.184452       -4.216905       -2.161894
  Si          11.189220       -3.718841       -2.205598
  Si          11.193989       -3.220778       -2.249302
  Si          11.198758       -2.722714       -2.293006
  Si          11.203527       -2.224651       -2.336710
  Si          11.208296       -1.726587       -2.380414
  Si          11.218787       -0.630848       -2.476563
  Si          11.223556       -0.132784       -2.520267
  Si          11.228324        0.365279       -2.563971
  Si          11.233093        0.863343       -2.607675
  Si          11.237862        1.361406       -2.651379
  Si          11.242631        1.859470       -2.695083
  Si          11.247400        2.357533       -2.738787
  Si          11.252168        2.855597       -2.782491
  Si          11.256937        3.353660       -2.826195
  Si          11.261706        3.851723       -2.869899
  Si          11.266475        4.349787       -2.913603
  Si          11.102428      -12.783596       -1.410185
  Si          11.107197      -12.285533       -1.453889
  Si          11.111966      -11.787469       -1.497593
  Si          11.116735      -11.289406       -1.541297
  Si          11.121504      -10.791342       -1.585001
  Si          11.126272      -10.293279       -1.628705
  Si          11.131041       -9.795216       -1.672409
  Si          11.135810       -9.297152       -1.716113
  Si          11.140579       -8.799089       -1.759817
  Si          11.145347       -8.301025       -1.803521
  Si          11.150116       -7.802962       -1.847225
  Si          11.210248       -6.803749       -3.038007
  Si          11.215017       -6.305686       -3.081711
  Si          11.219785       -5.807622       -3.125415
  Si          11.224554       -5.309559       -3.169119
  Si          11.229323       -4.811495       -3.212823
  Si          11.234092       -4.313432       -3.256527
  Si          11.238860       -3.815368       -3.300231
  Si          11.243629       -3.317305       -3.343935
  Si          11.248398       -2.819241       -3.387639
  Si          11.253167       -2.321178       -3.431343
  Si          11.257936       -1.823114       -3.475047
  Si          11.268427       -0.727375       -3.571196
  Si          11.273196       -0.229311       -3.614900
  Si          11.277965        0.268752       -3.658604
  Si          11.282733        0.766816       -3.702308
  Si          11.287502        1.264879       -3.746012
  Si          11.292271        1.762943       -3.789716
  Si          11.297040        2.261006       -3.833420
  Si          11.301809        2.759070       -3.877124
  Si          11.306577        3.257133       -3.920828
  Si          11.311346        3.755197       -3.964532
  Si          11.316115        4.253260       -4.008236
  Si          11.152068      -12.880123       -2.504818
  Si          11.156837      -12.382060       -2.548522
  Si          11.161606      -11.883996       -2.592226
  Si          11.166375      -11.385933       -2.635930
  Si          11.171144      -10.887869       -2.679634
  Si          11.175912      -10.389806       -2.723338
  Si          11.180681       -9.891743       -2.767042
  Si          11.185450       -9.393679       -2.810746
  Si          11.190219       -8.895616       -2.854450
  Si          11.194988       -8.397552       -2.898154
  Si          11.199756       -7.899489       -2.941858
  Si          11.259888       -6.900276       -4.132639
  Si          11.264657       -6.402213       -4.176343
  Si          11.269425       -5.904149       -4.220047
  Si          11.274194       -5.406086       -4.263751
  Si          11.278963       -4.908022       -4.307455
  Si          11.283732       -4.409959       -4.351159
  Si          11.288501       -3.911895       -4.394863
  Si          11.293269       -3.413832       -4.438567
  Si          11.298038       -2.915768       -4.482271
  Si          11.302807       -2.417705       -4.525975
  Si          11.307576       -1.919641       -4.569679
  Si          11.318067       -0.823902       -4.665828
  Si          11.322836       -0.325838       -4.709532
  Si          11.327605        0.172225       -4.753236
  Si          11.332374        0.670289       -4.796940
  Si          11.337142        1.168352       -4.840644
  Si          11.341911        1.666416       -4.884348
  Si          11.346680        2.164479       -4.928052
  Si          11.351449        2.662543       -4.971756
  Si          11.356217        3.160606       -5.015460
  Si          11.360986        3.658670       -5.059164
  Si          11.365755        4.156733       -5.102868
  Si          11.201709      -12.976650       -3.599450
  Si          11.206477      -12.478587       -3.643154
  Si          11.211246      -11.980523       -3.686858
  Si          11.216015      -11.482460       -3.730562
  Si          11.220784      -10.984396       -3.774266
  Si          11.225553      -10.486333       -3.817970
  Si          11.230321       -9.988269       -3.861674
  Si          11.235090       -9.490206       -3.905379
  Si          11.239859       -8.992143       -3.949083
  Si          11.244628       -8.494079       -3.992787
  Si          11.249397       -7.996016       -4.036491
  Si          11.309528       -6.996803       -5.227272
  Si          11.314297       -6.498739       -5.270976
  Si          11.319066       -6.000676       -5.314680
  Si          11.323834       -5.502613       -5.358384
  Si          11.328603       -5.004549       -5.402088
  Si          11.333372       -4.506486       -5.445792
  Si          11.338141       -4.008422       -5.489496
  Si          11.342910       -3.510359       -5.533200
  Si          11.347678       -3.012295       -5.576904
  Si          11.352447       -2.514232       -5.620608
  Si          11.357216       -2.016168       -5.664312
  Si          11.367707       -0.920429       -5.760461
  Si          11.372476       -0.422365       -5.804165
  Si          11.377245        0.075698       -5.847869
  Si          11.382014        0.573762       -5.891573
  Si          11.386782        1.071825       -5.935277
  Si          11.391551        1.569889       -5.978981
  Si          11.396320        2.067952       -6.022685
  Si          11.401089        2.566016       -6.066389
  Si          11.405858        3.064079       -6.110093
  Si          11.410626        3.562143       -6.153797
  Si          11.415395        4.060206       -6.197501
  Si          11.251349      -13.073177       -4.694083
  Si          11.256118      -12.575114       -4.737787
  Si          11.260886      -12.077050       -4.781491
  Si          11.265655      -11.578987       -4.825195
  Si          11.270424      -11.080923       -4.868899
  Si          11.275193      -10.582860       -4.912603
  Si          11.279962      -10.084796       -4.956307
  Si          11.284730       -9.586733       -5.000011
  Si          11.289499       -9.088670       -5.043715
  Si          11.294268       -8.590606       -5.087419
  Si          11.299037       -8.092543       -5.131123
  Si          11.359168       -7.093330       -6.321905
  Si          11.363937       -6.595266       -6.365609
  Si          11.368706       -6.097203       -6.409313
  Si          11.373475       -5.599140       -6.453017
  Si          11.378243       -5.101076       -6.496721
  Si          11.383012       -4.603013       -6.540425
  Si          11.387781       -4.104949       -6.584129
  Si          11.392550       -3.606886       -6.627833
  Si          11.397319       -3.108822       -6.671537
  Si          11.402087       -2.610759       -6.715241
  Si          11.406856       -2.112695       -6.758945
  Si          11.417347       -1.016956       -6.855094
  Si          11.422116       -0.518892       -6.898798
  Si          11.426885       -0.020829       -6.942502
  Si          11.431654        0.477235       -6.986206
  Si          11.436423        0.975298       -7.029910
  Si          11.441191        1.473362       -7.073614
  Si          11.445960        1.971425       -7.117318
  Si          11.450729        2.469489       -7.161022
  Si          11.455498        2.967552       -7.204726
  Si          11.460267        3.465616       -7.248430
  Si          11.465035        3.963679       -7.292134
  Si          11.300989      -13.169704       -5.788716
  Si          11.305758      -12.671641       -5.832420
  Si          11.310526      -12.173577       -5.876124
  Si          11.315295      -11.675514       -5.919828
  Si          11.320064      -11.177450       -5.963532
  Si          11.324833      -10.679387       -6.007236
  Si          11.329602      -10.181323       -6.050940
  Si          11.334370       -9.683260       -6.094644
  Si          11.339139       -9.185196       -6.138348
  Si          11.343908       -8.687133       -6.182052
  Si          11.348677       -8.189070       -6.225756
  Si          11.408808       -7.189857       -7.416537
  Si          11.413577       -6.691793       -7.460241
  Si          11.418346       -6.193730       -7.503945
  Si          11.423115       -5.695667       -7.547649
  Si          11.427883       -5.197603       -7.591353
  Si          11.432652       -4.699540       -7.635057
  Si          11.437421       -4.201476       -7.678761
  Si          11.442190       -3.703413       -7.722465
  Si          11.446959       -3.205349       -7.766169
  Si          11.451727       -2.707286       -7.809873
  Si          11.456496       -2.209222       -7.853577
  Si          11.466988       -1.113483       -7.949726
  Si          11.471756       -0.615419       -7.993430
  Si          11.476525       -0.117356       -8.037134
  Si          11.481294        0.380708       -8.080838
  Si          11.486063        0.878771       -8.124542
  Si          11.490832        1.376835       -8.168246
  Si          11.495600        1.874898       -8.211950
  Si          11.500369        2.372962       -8.255654
  Si          11.505138        2.871025       -8.299358
  Si          11.509907        3.369089       -8.343062
  Si          11.514676        3.867152       -8.386766
  Si          11.350629      -13.266231       -6.883348
  Si          11.355398      -12.768168       -6.927052
  Si          11.360167      -12.270104       -6.970756
  Si          11.364935      -11.772041       -7.014460
  Si          11.369704      -11.273977       -7.058164
  Si          11.374473      -10.775914       -7.101868
  Si          11.379242      -10.277850       -7.145572
  Si          11.384011       -9.779787       -7.189276
  Si          11.388779       -9.281723       -7.232980
  Si          11.393548       -8.783660       -7.276684
  Si          11.398317       -8.285597       -7.320388
  Si          11.458448       -7.286384       -8.511170
  Si          11.463217       -6.788320       -8.554874
  Si          11.467986       -6.290257       -8.598578
  Si          11.472755       -5.792193       -8.642282
  Si          11.477524       -5.294130       -8.685986
  Si          11.482292       -4.796067       -8.729690
  Si          11.487061       -4.298003       -8.773394
  Si          11.491830       -3.799940       -8.817098
  Si          11.496599       -3.301876       -8.860802
  Si          11.501368       -2.803813       -8.904506
  Si          11.506136       -2.305749       -8.948210
  Si          11.516628       -1.210010       -9.044359
  Si          11.521397       -0.711946       -9.088063
  Si          11.526165       -0.213883       -9.131767
  Si          11.530934        0.284181       -9.175471
  Si          11.535703        0.782244       -9.219175
  Si          11.540472        1.280308       -9.262879
  Si          11.545240        1.778371       -9.306583
  Si          11.550009        2.276435       -9.350287
  Si          11.554778        2.774498       -9.393991
  Si          11.559547        3.272562       -9.437695
  Si          11.564316        3.770625       -9.481399
  Si          11.400269      -13.362758       -7.977981
  Si          11.405038      -12.864695       -8.021685
  Si          11.409807      -12.366631       -8.065389
  Si          11.414576      -11.868568       -8.109093
  Si          11.419344      -11.370504       -8.152797
  Si          11.424113      -10.872441       -8.196501
  Si          11.428882      -10.374377       -8.240205
  Si          11.433651       -9.876314       -8.283909
  Si          11.438420       -9.378250       -8.327613
  Si          11.443188       -8.880187       -8.371317
  Si          11.447957       -8.382124       -8.415021
  Si          11.508089       -7.382911       -9.605803
  Si          11.512857       -6.884847       -9.649507
  Si          11.517626       -6.386784       -9.693211
  Si          11.522395       -5.888720       -9.736915
  Si          11.527164       -5.390657       -9.780619
  Si          11.531933       -4.892594       -9.824323
  Si          11.536701       -4.394530       -9.868027
  Si          11.541470       -3.896467       -9.911731
  Si          11.546239       -3.398403       -9.955435
  Si          11.551008       -2.900340       -9.999139
  Si          11.555777       -2.402276      -10.042843
  Si          11.566268       -1.306537      -10.138991
  Si          11.571037       -0.808473      -10.182695
  Si          11.575805       -0.310410      -10.226399
  Si          11.580574        0.187654      -10.270103
  Si          11.585343        0.685717      -10.313807
  Si          11.590112        1.183781      -10.357512
  Si          11.594881        1.681844      -10.401216
  Si          11.599649        2.179908      -10.444920
  Si          11.604418        2.677971      -10.488624
  Si          11.609187        3.176035      -10.532328
  Si          11.613956        3.674098      -10.576032
  Si          11.449909      -13.459285       -9.072614
  Si          11.454678      -12.961222       -9.116318
  Si          11.459447      -12.463158       -9.160022
  Si          11.464216      -11.965095       -9.203726
  Si          11.468985      -11.467031       -9.247430
  Si          11.473753      -10.968968       -9.291134
  Si          11.478522      -10.470904       -9.334838
  Si          11.483291       -9.972841       -9.378542
  Si          11.488060       -9.474777       -9.422246
  Si          11.492828       -8.976714       -9.465950
  Si          11.497597       -8.478650       -9.509654
  Si          11.557729       -7.479438      -10.700435
  Si          11.562498       -6.981374      -10.744139
  Si          11.567266       -6.483311      -10.787843
  Si          11.572035       -5.985247      -10.831547
  Si          11.576804       -5.487184      -10.875251
  Si          11.581573       -4.989120      -10.918955
  Si          11.586342       -4.491057      -10.962659
  Si          11.591110       -3.992994      -11.006363
  Si          11.595879       -3.494930      -11.050067
  Si          11.600648       -2.996867      -11.093771
  Si          11.605417       -2.498803      -11.137475
  Si          11.615908       -1.403064      -11.233624
  Si          11.620677       -0.905000      -11.277328
  Si          11.625446       -0.406937      -11.321032
  Si          11.630214        0.091127      -11.364736
  Si          11.634983        0.589190      -11.408440
  Si          11.639752        1.087254      -11.452144
  Si          11.644521        1.585317      -11.495848
  Si          11.649290        2.083381      -11.539552
  Si          11.654058        2.581444      -11.583256
  Si          11.658827        3.079508      -11.626960
  Si          11.663596        3.577571      -11.670664
  Si          11.499549      -13.555812      -10.167246
  Si          11.504318      -13.057749      -10.210950
  Si          11.509087      -12.559685      -10.254654
  Si          11.513856      -12.061622      -10.298358
  Si          11.518625      -11.563558      -10.342062
  Si          11.523393      -11.065495      -10.385766
  Si          11.528162      -10.567431      -10.429470
  Si          11.532931      -10.069368      -10.473174
  Si          11.537700       -9.571304      -10.516878
  Si          11.542469       -9.073241      -10.560582
  Si          11.547237       -8.575177      -10.604286
  Si          10.763486       -5.935006        6.813687
  Si          10.768255       -5.436943        6.769983
  Si          10.773024       -4.938879        6.726279
  Si          10.777793       -4.440816        6.682575
  Si          10.782562       -3.942752        6.638871
  Si          10.787330       -3.444689        6.595167
  Si          10.792099       -2.946625        6.551463
  Si          10.796868       -2.448562        6.507759
  Si          10.801637       -1.950498        6.464055
  Si          10.806406       -1.452435        6.420351
  Si          10.811174       -0.954372        6.376647
  Si          10.821666        0.141368        6.280498
  Si          10.826435        0.639432        6.236794
  Si          10.831203        1.137495        6.193090
  Si          10.835972        1.635558        6.149386
  Si          10.840741        2.133622        6.105682
  Si          10.845510        2.631685        6.061978
  Si          10.850278        3.129749        6.018274
  Si          10.855047        3.627812        5.974570
  Si          10.859816        4.125876        5.930866
  Si          10.864585        4.623939        5.887162
  Si          10.869354        5.122003        5.843458
  Si          10.705307      -12.011381        7.346876
  Si          10.710076      -11.513317        7.303172
  Si          10.714845      -11.015254        7.259468
  Si          10.719614      -10.517190        7.215764
  Si          10.724382      -10.019127        7.172060
  Si          10.729151       -9.521063        7.128356
  Si          10.733920       -9.023000        7.084652
  Si          10.738689       -8.524936        7.040948
  Si          10.743458       -8.026873        6.997244
  Si          10.748226       -7.528809        6.953540
  Si          10.752995       -7.030746        6.909836
  Si          10.813127       -6.031533        5.719054
  Si          10.817895       -5.533470        5.675350
  Si          10.822664       -5.035406        5.631646
  Si          10.827433       -4.537343        5.587942
  Si          10.832202       -4.039279        5.544238
  Si          10.836971       -3.541216        5.500534
  Si          10.841739       -3.043152        5.456830
  Si          10.846508       -2.545089        5.413126
  Si          10.851277       -2.047025        5.369422
  Si          10.856046       -1.548962        5.325718
  Si          10.860815       -1.050899        5.282014
  Si          10.871306        0.044841        5.185865
  Si          10.876075        0.542905        5.142161
  Si          10.880843        1.040968        5.098457
  Si          10.885612        1.539032        5.054753
  Si          10.890381        2.037095        5.011049
  Si          10.895150        2.535158        4.967345
  Si          10.899919        3.033222        4.923641
  Si          10.904687        3.531285        4.879937
  Si          10.909456        4.029349        4.836233
  Si          10.914225        4.527412        4.792529
  Si          10.918994        5.025476        4.748825
  Si          10.754947      -12.107908        6.252243
  Si          10.759716      -11.609844        6.208539
  Si          10.764485      -11.111781        6.164835
  Si          10.769254      -10.613717        6.121131
  Si          10.774023      -10.115654        6.077427
  Si          10.778791       -9.617590        6.033723
  Si          10.783560       -9.119527        5.990019
  Si          10.788329       -8.621463        5.946315
  Si          10.793098       -8.123400        5.902611
  Si          10.797866       -7.625336        5.858907
  Si          10.802635       -7.127273        5.815203
  Si          10.862767       -6.128060        4.624422
  Si          10.867536       -5.629997        4.580718
  Si          10.872304       -5.131933        4.537014
  Si          10.877073       -4.633870        4.493310
  Si          10.881842       -4.135806        4.449606
  Si          10.886611       -3.637743        4.405902
  Si          10.891379       -3.139679        4.362198
  Si          10.896148       -2.641616        4.318494
  Si          10.900917       -2.143552        4.274790
  Si          10.905686       -1.645489        4.231086
  Si          10.910455       -1.147425        4.187382
  Si          10.920946       -0.051686        4.091233
  Si          10.925715        0.446378        4.047529
  Si          10.930484        0.944441        4.003825
  Si          10.935252        1.442505        3.960121
  Si          10.940021        1.940568        3.916417
  Si          10.944790        2.438631        3.872713
  Si          10.949559        2.936695        3.829009
  Si          10.954328        3.434758        3.785305
  Si          10.959096        3.932822        3.741601
  Si          10.963865        4.430885        3.697897
  Si          10.968634        4.928949        3.654193
  Si          10.804587      -12.204434        5.157611
  Si          10.809356      -11.706371        5.113907
  Si          10.814125      -11.208308        5.070203
  Si          10.818894      -10.710244        5.026499
  Si          10.823663      -10.212181        4.982795
  Si          10.828431       -9.714117        4.939091
  Si          10.833200       -9.216054        4.895387
  Si          10.837969       -8.717990        4.851683
  Si          10.842738       -8.219927        4.807979
  Si          10.847507       -7.721863        4.764275
  Si          10.852275       -7.223800        4.720571
  Si          10.912407       -6.224587        3.529789
  Si          10.917176       -5.726524        3.486085
  Si          10.921944       -5.228460        3.442381
  Si          10.926713       -4.730397        3.398677
  Si          10.931482       -4.232333        3.354973
  Si          10.936251       -3.734270        3.311269
  Si          10.941020       -3.236206        3.267565
  Si          10.945788       -2.738143        3.223861
  Si          10.950557       -2.240079        3.180157
  Si          10.955326       -1.742016        3.136453
  Si          10.960095       -1.243952        3.092749
  Si          10.970586       -0.148213        2.996600
  Si          10.975355        0.349851        2.952896
  Si          10.980124        0.847914        2.909192
  Si          10.984893        1.345978        2.865488
  Si          10.989661        1.844041        2.821784
  Si          10.994430        2.342104        2.778080
  Si          10.999199        2.840168        2.734376
  Si          11.003968        3.338231        2.690672
  Si          11.008736        3.836295        2.646968
  Si          11.013505        4.334358        2.603264
  Si          11.018274        4.832422        2.559560
  Si          10.854228      -12.300961        4.062978
  Si          10.858996      -11.802898        4.019274
  Si          10.863765      -11.304835        3.975570
  Si          10.868534      -10.806771        3.931866
  Si          10.873303      -10.308708        3.888162
  Si          10.878072       -9.810644        3.844458
  Si          10.882840       -9.312581        3.800754
  Si          10.887609       -8.814517        3.757050
  Si          10.892378       -8.316454        3.713346
  Si          10.897147       -7.818390        3.669642
  Si          10.901916       -7.320327        3.625938
  Si          10.962047       -6.321114        2.435156
  Si          10.966816       -5.823051        2.391452
  Si          10.971585       -5.324987        2.347748
  Si          10.976353       -4.826924        2.304044
  Si          10.981122       -4.328860        2.260340
  Si          10.985891       -3.830797        2.216636
  Si          10.990660       -3.332733        2.172932
  Si          10.995429       -2.834670        2.129228
  Si          11.000197       -2.336606        2.085524
  Si          11.004966       -1.838543        2.041820
  Si          11.009735       -1.340479        1.998116
  Si          11.020226       -0.244740        1.901967
  Si          11.024995        0.253324        1.858263
  Si          11.029764        0.751387        1.814559
  Si          11.034533        1.249451        1.770855
  Si          11.039301        1.747514        1.727151
  Si          11.044070        2.245578        1.683447
  Si          11.048839        2.743641        1.639743
  Si          11.053608        3.241704        1.596039
  Si          11.058377        3.739768        1.552335
  Si          11.063145        4.237831        1.508631
  Si          11.067914        4.735895        1.464927
  Si          10.903868      -12.397488        2.968345
  Si          10.908637      -11.899425        2.924641
  Si          10.913405      -11.401361        2.880937
  Si          10.918174      -10.903298        2.837233
  Si          10.922943      -10.405235        2.793529
  Si          10.927712       -9.907171        2.749825
  Si          10.932481       -9.409108        2.706121
  Si          10.937249       -8.911044        2.662417
  Si          10.942018       -8.412981        2.618713
  Si          10.946787       -7.914917        2.575009
  Si          10.951556       -7.416854        2.531305
  Si          11.011687       -6.417641        1.340524
  Si          11.016456       -5.919578        1.296820
  Si          11.021225       -5.421514        1.253116
  Si          11.025994       -4.923451        1.209412
  Si          11.030762       -4.425387        1.165708
  Si          11.035531       -3.927324        1.122004
  Si          11.040300       -3.429260        1.078300
  Si          11.045069       -2.931197        1.034596
  Si          11.049838       -2.433133        0.990892
  Si          11.054606       -1.935070        0.947188
  Si          11.059375       -1.437006        0.903484
  Si          11.069866       -0.341267        0.807335
  Si          11.074635        0.156797        0.763631
  Si          11.079404        0.654860        0.719927
  Si          11.084173        1.152924        0.676223
  Si          11.088942        1.650987        0.632519
  Si          11.093710        2.149051        0.588815
  Si          11.098479        2.647114        0.545111
  Si          11.103248        3.145177        0.501407
  Si          11.108017        3.643241        0.457703
  Si          11.112786        4.141304        0.413999
  Si          11.117554        4.639368        0.370295
  Si          10.953508      -12.494015        1.873713
  Si          10.958277      -11.995952        1.830009
  Si          10.963045      -11.497888        1.786305
  Si          10.967814      -10.999825        1.742601
  Si          10.972583      -10.501762        1.698897
  Si          10.977352      -10.003698        1.655193
  Si          10.982121       -9.505635        1.611489
  Si          10.986889       -9.007571        1.567785
  Si          10.991658       -8.509508        1.524081
  Si          10.996427       -8.011444        1.480377
  Si          11.001196       -7.513381        1.436673
  Si          11.061327       -6.514168        0.245891
  Si          11.066096       -6.016105        0.202187
  Si          11.070865       -5.518041        0.158483
  Si          11.075634       -5.019978        0.114779
  Si          11.080402       -4.521914        0.071075
  Si          11.085171       -4.023851        0.027371
  Si          11.089940       -3.525787       -0.016333
  Si          11.094709       -3.027724       -0.060037
  Si          11.099478       -2.529660       -0.103741
  Si          11.104246       -2.031597       -0.147445
  Si          11.109015       -1.533533       -0.191149
  Si          11.119507       -0.437794       -0.287298
  Si          11.124275        0.060270       -0.331002
  Si          11.129044        0.558333       -0.374706
  Si          11.133813        1.056397       -0.418410
  Si          11.138582        1.554460       -0.462114
  Si          11.143351        2.052524       -0.505818
  Si          11.148119        2.550587       -0.549522
  Si          11.152888        3.048651       -0.593226
  Si          11.157657        3.546714       -0.636930
  Si          11.162426        4.044777       -0.680634
  Si          11.167194        4.542841       -0.724338
  Si          11.003148      -12.590542        0.779080
  Si          11.007917      -12.092479        0.735376
  Si          11.012686      -11.594415        0.691672
  Si          11.017454      -11.096352        0.647968
  Si          11.022223      -10.598289        0.604264
  Si          11.026992      -10.100225        0.560560
  Si          11.031761       -9.602162        0.516856
  Si          11.036530       -9.104098        0.473152
  Si          11.041298       -8.606035        0.429448
  Si          11.046067       -8.107971        0.385744
  Si          11.050836       -7.609908        0.342040
  Si          11.110967       -6.610695       -0.848741
  Si          11.115736       -6.112632       -0.892445
  Si          11.120505       -5.614568       -0.936149
  Si          11.125274       -5.116505       -0.979853
  Si          11.130043       -4.618441       -1.023558
  Si          11.134811       -4.120378       -1.067262
  Si          11.139580       -3.622314       -1.110966
  Si          11.144349       -3.124251       -1.154670
  Si          11.149118       -2.626187       -1.198374
  Si          11.153887       -2.128124       -1.242078
  Si          11.158655       -1.630060       -1.285782
  Si          11.169147       -0.534321       -1.381930
  Si          11.173916       -0.036257       -1.425634
  Si          11.178684        0.461806       -1.469338
  Si          11.183453        0.959870       -1.513042
  Si          11.188222        1.457933       -1.556746
  Si          11.192991        1.955997       -1.600450
  Si          11.197759        2.454060       -1.644154
  Si          11.202528        2.952124       -1.687858
  Si          11.207297        3.450187       -1.731562
  Si          11.212066        3.948250       -1.775266
  Si          11.216835        4.446314       -1.818971
  Si          11.052788      -12.687069       -0.315553
  Si          11.057557      -12.189006       -0.359257
  Si          11.062326      -11.690942       -0.402961
  Si          11.067095      -11.192879       -0.446665
  Si          11.071863      -10.694815       -0.490369
  Si          11.076632      -10.196752       -0.534073
  Si          11.081401       -9.698689       -0.577777
  Si          11.086170       -9.200625       -0.621481
  Si          11.090939       -8.702562       -0.665185
  Si          11.095707       -8.204498       -0.708889
  Si          11.100476       -7.706435       -0.752593
  Si          -6.420677       -6.609603       -2.749270
  Si          -6.415908       -6.111539       -2.792974
  Si          -6.411139       -5.613476       -2.836678
  Si          -6.406371       -5.115412       -2.880382
  Si          -6.401602       -4.617349       -2.924086
  Si          -6.396833       -4.119285       -2.967790
  Si          -6.392064       -3.621222       -3.011494
  Si          -6.387295       -3.123158       -3.055198
  Si          -6.382527       -2.625095       -3.098902
  Si          -6.377758       -2.127032       -3.142606
  Si          -6.372989       -1.628968       -3.186310
  Si          -6.362498       -0.533228       -3.282459
  Si          -6.357729       -0.035165       -3.326163
  Si          -6.352960        0.462898       -3.369867
  Si          -6.348191        0.960962       -3.413571
  Si          -6.343422        1.459025       -3.457275
  Si          -6.338654        1.957089       -3.500979
  Si          -6.333885        2.455152       -3.544683
  Si          -6.329116        2.953216       -3.588387
  Si          -6.324347        3.451279       -3.632091
  Si          -6.319579        3.949343       -3.675795
  Si          -6.314810        4.447406       -3.719499
  Si          -6.478856      -12.685977       -2.216081
  Si          -6.474087      -12.187914       -2.259785
  Si          -6.469319      -11.689850       -2.303489
  Si          -6.464550      -11.191787       -2.347193
  Si          -6.459781      -10.693723       -2.390897
  Si          -6.455012      -10.195660       -2.434602
  Si          -6.450243       -9.697596       -2.478306
  Si          -6.445475       -9.199533       -2.522010
  Si          -6.440706       -8.701469       -2.565714
  Si          -6.435937       -8.203406       -2.609418
  Si          -6.431168       -7.705342       -2.653122
  Si          -6.371037       -6.706130       -3.843903
  Si          -6.366268       -6.208066       -3.887607
  Si          -6.361499       -5.710003       -3.931311
  Si          -6.356730       -5.211939       -3.975015
  Si          -6.351962       -4.713876       -4.018719
  Si          -6.347193       -4.215812       -4.062423
  Si          -6.342424       -3.717749       -4.106127
  Si          -6.337655       -3.219685       -4.149831
  Si          -6.332886       -2.721622       -4.193535
  Si          -6.328118       -2.223559       -4.237239
  Si          -6.323349       -1.725495       -4.280943
  Si          -6.312857       -0.629755       -4.377092
  Si          -6.308089       -0.131692       -4.420796
  Si          -6.303320        0.366372       -4.464500
  Si          -6.298551        0.864435       -4.508204
  Si          -6.293782        1.362498       -4.551908
  Si          -6.289014        1.860562       -4.595612
  Si          -6.284245        2.358625       -4.639316
  Si          -6.279476        2.856689       -4.683020
  Si          -6.274707        3.354752       -4.726724
  Si          -6.269938        3.852816       -4.770428
  Si          -6.265170        4.350879       -4.814132
  Si          -6.429216      -12.782504       -3.310714
  Si          -6.424447      -12.284441       -3.354418
  Si          -6.419678      -11.786377       -3.398122
  Si          -6.414910      -11.288314       -3.441826
  Si          -6.410141      -10.790250       -3.485530
  Si          -6.405372      -10.292187       -3.529234
  Si          -6.400603       -9.794123       -3.572938
  Si          -6.395834       -9.296060       -3.616642
  Si          -6.391066       -8.797996       -3.660346
  Si          -6.386297       -8.299933       -3.704050
  Si          -6.381528       -7.801869       -3.747754
  Si          -6.321397       -6.802657       -4.938536
  Si          -6.316628       -6.304593       -4.982240
  Si          -6.311859       -5.806530       -5.025944
  Si          -6.307090       -5.308466       -5.069648
  Si          -6.302321       -4.810403       -5.113352
  Si          -6.297553       -4.312339       -5.157056
  Si          -6.292784       -3.814276       -5.200760
  Si          -6.288015       -3.316212       -5.244464
  Si          -6.283246       -2.818149       -5.288168
  Si          -6.278477       -2.320086       -5.331872
  Si          -6.273709       -1.822022       -5.375576
  Si          -6.263217       -0.726282       -5.471725
  Si          -6.258449       -0.228219       -5.515429
  Si          -6.253680        0.269845       -5.559133
  Si          -6.248911        0.767908       -5.602837
  Si          -6.244142        1.265971       -5.646541
  Si          -6.239373        1.764035       -5.690245
  Si          -6.234605        2.262098       -5.733949
  Si          -6.229836        2.760162       -5.777653
  Si          -6.225067        3.258225       -5.821357
  Si          -6.220298        3.756289       -5.865061
  Si          -6.215529        4.254352       -5.908765
  Si          -6.379576      -12.879031       -4.405347
  Si          -6.374807      -12.380968       -4.449051
  Si          -6.370038      -11.882904       -4.492755
  Si          -6.365270      -11.384841       -4.536459
  Si          -6.360501      -10.886777       -4.580163
  Si          -6.355732      -10.388714       -4.623867
  Si          -6.350963       -9.890650       -4.667571
  Si          -6.346194       -9.392587       -4.711275
  Si          -6.341426       -8.894523       -4.754979
  Si          -6.336657       -8.396460       -4.798683
  Si          -6.331888       -7.898396       -4.842387
  Si          -6.271756       -6.899184       -6.033168
  Si          -6.266988       -6.401120       -6.076872
  Si          -6.262219       -5.903057       -6.120576
  Si          -6.257450       -5.404993       -6.164280
  Si          -6.252681       -4.906930       -6.207984
  Si          -6.247913       -4.408866       -6.251688
  Si          -6.243144       -3.910803       -6.295392
  Si          -6.238375       -3.412739       -6.339096
  Si          -6.233606       -2.914676       -6.382800
  Si          -6.228837       -2.416612       -6.426504
  Si          -6.224069       -1.918549       -6.470208
  Si          -6.213577       -0.822809       -6.566357
  Si          -6.208808       -0.324746       -6.610061
  Si          -6.204040        0.173318       -6.653765
  Si          -6.199271        0.671381       -6.697469
  Si          -6.194502        1.169444       -6.741173
  Si          -6.189733        1.667508       -6.784877
  Si          -6.184964        2.165571       -6.828581
  Si          -6.180196        2.663635       -6.872285
  Si          -6.175427        3.161698       -6.915989
  Si          -6.170658        3.659762       -6.959693
  Si          -6.165889        4.157825       -7.003397
  Si          -6.329936      -12.975558       -5.499979
  Si          -6.325167      -12.477495       -5.543683
  Si          -6.320398      -11.979431       -5.587387
  Si          -6.315629      -11.481368       -5.631091
  Si          -6.310861      -10.983304       -5.674795
  Si          -6.306092      -10.485241       -5.718499
  Si          -6.301323       -9.987177       -5.762203
  Si          -6.296554       -9.489114       -5.805907
  Si          -6.291785       -8.991050       -5.849611
  Si          -6.287017       -8.492987       -5.893315
  Si          -6.282248       -7.994923       -5.937019
  Si          -6.222116       -6.995711       -7.127801
  Si          -6.217348       -6.497647       -7.171505
  Si          -6.212579       -5.999584       -7.215209
  Si          -6.207810       -5.501520       -7.258913
  Si          -6.203041       -5.003457       -7.302617
  Si          -6.198272       -4.505393       -7.346321
  Si          -6.193504       -4.007330       -7.390025
  Si          -6.188735       -3.509266       -7.433729
  Si          -6.183966       -3.011203       -7.477433
  Si          -6.179197       -2.513139       -7.521137
  Si          -6.174428       -2.015076       -7.564841
  Si          -6.163937       -0.919336       -7.660990
  Si          -6.159168       -0.421273       -7.704694
  Si          -6.154399        0.076791       -7.748398
  Si          -6.149631        0.574854       -7.792102
  Si          -6.144862        1.072918       -7.835806
  Si          -6.140093        1.570981       -7.879510
  Si          -6.135324        2.069044       -7.923214
  Si          -6.130556        2.567108       -7.966918
  Si          -6.125787        3.065171       -8.010622
  Si          -6.121018        3.563235       -8.054326
  Si          -6.116249        4.061298       -8.098030
  Si          -6.280296      -13.072085       -6.594612
  Si          -6.275527      -12.574022       -6.638316
  Si          -6.270758      -12.075958       -6.682020
  Si          -6.265989      -11.577895       -6.725724
  Si          -6.261220      -11.079831       -6.769428
  Si          -6.256452      -10.581768       -6.813132
  Si          -6.251683      -10.083704       -6.856836
  Si          -6.246914       -9.585641       -6.900540
  Si          -6.242145       -9.087577       -6.944244
  Si          -6.237376       -8.589514       -6.987948
  Si          -6.232608       -8.091450       -7.031652
  Si          -6.172476       -7.092238       -8.222434
  Si          -6.167707       -6.594174       -8.266138
  Si          -6.162939       -6.096111       -8.309842
  Si          -6.158170       -5.598047       -8.353546
  Si          -6.153401       -5.099984       -8.397250
  Si          -6.148632       -4.601920       -8.440954
  Si          -6.143863       -4.103857       -8.484658
  Si          -6.139095       -3.605793       -8.528362
  Si          -6.134326       -3.107730       -8.572066
  Si          -6.129557       -2.609666       -8.615770
  Si          -6.124788       -2.111603       -8.659474
  Si          -6.114297       -1.015863       -8.755622
  Si          -6.109528       -0.517800       -8.799326
  Si          -6.104759       -0.019736       -8.843031
  Si          -6.099991        0.478327       -8.886735
  Si          -6.095222        0.976391       -8.930439
  Si          -6.090453        1.474454       -8.974143
  Si          -6.085684        1.972517       -9.017847
  Si          -6.080915        2.470581       -9.061551
  Si          -6.076147        2.968644       -9.105255
  Si          -6.071378        3.466708       -9.148959
  Si          -6.066609        3.964771       -9.192663
  Si          -6.230655      -13.168612       -7.689245
  Si          -6.225887      -12.670548       -7.732949
  Si          -6.221118      -12.172485       -7.776653
  Si          -6.216349      -11.674422       -7.820357
  Si          -6.211580      -11.176358       -7.864061
  Si          -6.206811      -10.678295       -7.907765
  Si          -6.202043      -10.180231       -7.951469
  Si          -6.197274       -9.682168       -7.995173
  Si          -6.192505       -9.184104       -8.038877
  Si          -6.187736       -8.686041       -8.082581
  Si          -6.182968       -8.187977       -8.126285
  Si          -6.122836       -7.188765       -9.317066
  Si          -6.118067       -6.690701       -9.360770
  Si          -6.113298       -6.192638       -9.404474
  Si          -6.108530       -5.694574       -9.448178
  Si          -6.103761       -5.196511       -9.491882
  Si          -6.098992       -4.698447       -9.535586
  Si          -6.094223       -4.200384       -9.579290
  Si          -6.089454       -3.702320       -9.622994
  Si          -6.084686       -3.204257       -9.666698
  Si          -6.079917       -2.706193       -9.710402
  Si          -6.075148       -2.208130       -9.754106
  Si          -6.064657       -1.112390       -9.850255
  Si          -6.059888       -0.614327       -9.893959
  Si          -6.055119       -0.116263       -9.937663
  Si          -6.050350        0.381800       -9.981367
  Si          -6.045582        0.879864      -10.025071
  Si          -6.040813        1.377927      -10.068775
  Si          -6.036044        1.875990      -10.112479
  Si          -6.031275        2.374054      -10.156183
  Si          -6.026506        2.872117      -10.199887
  Si          -6.021738        3.370181      -10.243591
  Si          -6.016969        3.868244      -10.287295
  Si          -6.181015      -13.265139       -8.783877
  Si          -6.176247      -12.767075       -8.827581
  Si          -6.171478      -12.269012       -8.871285
  Si          -6.166709      -11.770949       -8.914989
  Si          -6.161940      -11.272885       -8.958693
  Si          -6.157171      -10.774822       -9.002397
  Si          -6.152403      -10.276758       -9.046101
  Si          -6.147634       -9.778695       -9.089805
  Si          -6.142865       -9.280631       -9.133509
  Si          -6.138096       -8.782568       -9.177213
  Si          -6.133327       -8.284504       -9.220917
  Si          -6.073196       -7.285292      -10.411699
  Si          -6.068427       -6.787228      -10.455403
  Si          -6.063658       -6.289165      -10.499107
  Si          -6.058890       -5.791101      -10.542811
  Si          -6.054121       -5.293038      -10.586515
  Si          -6.049352       -4.794974      -10.630219
  Si          -6.044583       -4.296911      -10.673923
  Si          -6.039814       -3.798847      -10.717627
  Si          -6.035046       -3.300784      -10.761331
  Si          -6.030277       -2.802720      -10.805035
  Si          -6.025508       -2.304657      -10.848739
  Si          -6.015017       -1.208917      -10.944888
  Si          -6.010248       -0.710854      -10.988592
  Si          -6.005479       -0.212790      -11.032296
  Si          -6.000710        0.285273      -11.076000
  Si          -5.995941        0.783337      -11.119704
  Si          -5.991173        1.281400      -11.163408
  Si          -5.986404        1.779464      -11.207112
  Si          -5.981635        2.277527      -11.250816
  Si          -5.976866        2.775590      -11.294520
  Si          -5.972098        3.273654      -11.338224
  Si          -5.967329        3.771717      -11.381928
  Si          -6.131375      -13.361666       -9.878510
  Si          -6.126606      -12.863602       -9.922214
  Si          -6.121838      -12.365539       -9.965918
  Si          -6.117069      -11.867475      -10.009622
  Si          -6.112300      -11.369412      -10.053326
  Si          -6.107531      -10.871349      -10.097030
  Si          -6.102762      -10.373285      -10.140734
  Si          -6.097994       -9.875222      -10.184438
  Si          -6.093225       -9.377158      -10.228142
  Si          -6.088456       -8.879095      -10.271846
  Si          -6.083687       -8.381031      -10.315550
  Si          -6.023556       -7.381819      -11.506331
  Si          -6.018787       -6.883755      -11.550035
  Si          -6.014018       -6.385692      -11.593739
  Si          -6.009249       -5.887628      -11.637443
  Si          -6.004481       -5.389565      -11.681147
  Si          -5.999712       -4.891501      -11.724851
  Si          -5.994943       -4.393438      -11.768556
  Si          -5.990174       -3.895374      -11.812260
  Si          -5.985405       -3.397311      -11.855964
  Si          -5.980637       -2.899247      -11.899668
  Si          -5.975868       -2.401184      -11.943372
  Si          -5.965376       -1.305444      -12.039520
  Si          -5.960608       -0.807381      -12.083224
  Si          -5.955839       -0.309317      -12.126928
  Si          -5.951070        0.188746      -12.170632
  Si          -5.946301        0.686810      -12.214336
  Si          -5.941533        1.184873      -12.258040
  Si          -5.936764        1.682937      -12.301744
  Si          -5.931995        2.181000      -12.345448
  Si          -5.927226        2.679063      -12.389152
  Si          -5.922457        3.177127      -12.432856
  Si          -5.917689        3.675190      -12.476560
  Si          -6.081735      -13.458193      -10.973143
  Si          -6.076966      -12.960129      -11.016847
  Si          -6.072197      -12.462066      -11.060551
  Si          -6.067429      -11.964002      -11.104255
  Si          -6.062660      -11.465939      -11.147959
  Si          -6.057891      -10.967876      -11.191663
  Si          -6.053122      -10.469812      -11.235367
  Si          -6.048353       -9.971749      -11.279071
  Si          -6.043585       -9.473685      -11.322775
  Si          -6.038816       -8.975622      -11.366479
  Si          -6.034047       -8.477558      -11.410183
  Si          -6.817798       -5.837387        6.007791
  Si          -6.813029       -5.339323        5.964087
  Si          -6.808260       -4.841260        5.920383
  Si          -6.803492       -4.343197        5.876679
  Si          -6.798723       -3.845133        5.832975
  Si          -6.793954       -3.347070        5.789271
  Si          -6.789185       -2.849006        5.745567
  Si          -6.784417       -2.350943        5.701863
  Si          -6.779648       -1.852879        5.658159
  Si          -6.774879       -1.354816        5.614455
  Si          -6.770110       -0.856752        5.570751
  Si          -6.759619        0.238987        5.474602
  Si          -6.754850        0.737051        5.430898
  Si          -6.750081        1.235114        5.387194
  Si          -6.745312        1.733178        5.343490
  Si          -6.740544        2.231241        5.299786
  Si          -6.735775        2.729305        5.256082
  Si          -6.731006        3.227368        5.212378
  Si          -6.726237        3.725432        5.168674
  Si          -6.721468        4.223495        5.124970
  Si          -6.716700        4.721559        5.081266
  Si          -6.711931        5.219622        5.037562
  Si          -6.875977      -11.913761        6.540980
  Si          -6.871209      -11.415698        6.497276
  Si          -6.866440      -10.917634        6.453572
  Si          -6.861671      -10.419571        6.409868
  Si          -6.856902       -9.921507        6.366164
  Si          -6.852133       -9.423444        6.322460
  Si          -6.847365       -8.925380        6.278756
  Si          -6.842596       -8.427317        6.235052
  Si          -6.837827       -7.929254        6.191348
  Si          -6.833058       -7.431190        6.147644
  Si          -6.828289       -6.933127        6.103939
  Si          -6.768158       -5.933914        4.913158
  Si          -6.763389       -5.435850        4.869454
  Si          -6.758620       -4.937787        4.825750
  Si          -6.753852       -4.439724        4.782046
  Si          -6.749083       -3.941660        4.738342
  Si          -6.744314       -3.443597        4.694638
  Si          -6.739545       -2.945533        4.650934
  Si          -6.734776       -2.447470        4.607230
  Si          -6.730008       -1.949406        4.563526
  Si          -6.725239       -1.451343        4.519822
  Si          -6.720470       -0.953279        4.476118
  Si          -6.709979        0.142460        4.379969
  Si          -6.705210        0.640524        4.336265
  Si          -6.700441        1.138587        4.292561
  Si          -6.695672        1.636651        4.248857
  Si          -6.690903        2.134714        4.205153
  Si          -6.686135        2.632778        4.161449
  Si          -6.681366        3.130841        4.117745
  Si          -6.676597        3.628905        4.074041
  Si          -6.671828        4.126968        4.030337
  Si          -6.667060        4.625032        3.986633
  Si          -6.662291        5.123095        3.942929
  Si          -6.826337      -12.010288        5.446347
  Si          -6.821568      -11.512225        5.402643
  Si          -6.816800      -11.014161        5.358939
  Si          -6.812031      -10.516098        5.315235
  Si          -6.807262      -10.018034        5.271531
  Si          -6.802493       -9.519971        5.227827
  Si          -6.797724       -9.021907        5.184123
  Si          -6.792956       -8.523844        5.140419
  Si          -6.788187       -8.025781        5.096715
  Si          -6.783418       -7.527717        5.053011
  Si          -6.778649       -7.029654        5.009307
  Si          -6.718518       -6.030441        3.818525
  Si          -6.713749       -5.532377        3.774821
  Si          -6.708980       -5.034314        3.731117
  Si          -6.704211       -4.536251        3.687413
  Si          -6.699443       -4.038187        3.643709
  Si          -6.694674       -3.540124        3.600005
  Si          -6.689905       -3.042060        3.556301
  Si          -6.685136       -2.543997        3.512597
  Si          -6.680367       -2.045933        3.468893
  Si          -6.675599       -1.547870        3.425189
  Si          -6.670830       -1.049806        3.381485
  Si          -6.660339        0.045933        3.285336
  Si          -6.655570        0.543997        3.241632
  Si          -6.650801        1.042060        3.197928
  Si          -6.646032        1.540124        3.154224
  Si          -6.641263        2.038187        3.110520
  Si          -6.636495        2.536251        3.066816
  Si          -6.631726        3.034314        3.023112
  Si          -6.626957        3.532378        2.979408
  Si          -6.622188        4.030441        2.935704
  Si          -6.617419        4.528505        2.892000
  Si          -6.612651        5.026568        2.848296
  Si          -6.776697      -12.106815        4.351714
  Si          -6.771928      -11.608752        4.308010
  Si          -6.767159      -11.110688        4.264306
  Si          -6.762391      -10.612625        4.220602
  Si          -6.757622      -10.114561        4.176898
  Si          -6.752853       -9.616498        4.133194
  Si          -6.748084       -9.118434        4.089490
  Si          -6.743315       -8.620371        4.045786
  Si          -6.738547       -8.122307        4.002082
  Si          -6.733778       -7.624244        3.958378
  Si          -6.729009       -7.126181        3.914674
  Si          -6.668878       -6.126968        2.723893
  Si          -6.664109       -5.628904        2.680189
  Si          -6.659340       -5.130841        2.636485
  Si          -6.654571       -4.632777        2.592781
  Si          -6.649802       -4.134714        2.549077
  Si          -6.645034       -3.636651        2.505373
  Si          -6.640265       -3.138587        2.461669
  Si          -6.635496       -2.640524        2.417965
  Si          -6.630727       -2.142460        2.374261
  Si          -6.625958       -1.644397        2.330557
  Si          -6.621190       -1.146333        2.286853
  Si          -6.610698       -0.050594        2.190704
  Si          -6.605930        0.447470        2.147000
  Si          -6.601161        0.945533        2.103296
  Si          -6.596392        1.443597        2.059592
  Si          -6.591623        1.941660        2.015888
  Si          -6.586854        2.439724        1.972184
  Si          -6.582086        2.937787        1.928480
  Si          -6.577317        3.435851        1.884776
  Si          -6.572548        3.933914        1.841072
  Si          -6.567779        4.431978        1.797368
  Si          -6.563010        4.930041        1.753664
  Si          -6.727057      -12.203342        3.257082
  Si          -6.722288      -11.705279        3.213378
  Si          -6.717519      -11.207215        3.169674
  Si          -6.712751      -10.709152        3.125970
  Si          -6.707982      -10.211088        3.082266
  Si          -6.703213       -9.713025        3.038562
  Si          -6.698444       -9.214961        2.994858
  Si          -6.693675       -8.716898        2.951154
  Si          -6.688907       -8.218834        2.907450
  Si          -6.684138       -7.720771        2.863746
  Si          -6.679369       -7.222708        2.820042
  Si          -6.619237       -6.223495        1.629260
  Si          -6.614469       -5.725431        1.585556
  Si          -6.609700       -5.227368        1.541852
  Si          -6.604931       -4.729304        1.498148
  Si          -6.600162       -4.231241        1.454444
  Si          -6.595394       -3.733178        1.410740
  Si          -6.590625       -3.235114        1.367036
  Si          -6.585856       -2.737051        1.323332
  Si          -6.581087       -2.238987        1.279628
  Si          -6.576318       -1.740924        1.235924
  Si          -6.571550       -1.242860        1.192220
  Si          -6.561058       -0.147121        1.096071
  Si          -6.556289        0.350943        1.052367
  Si          -6.551521        0.849006        1.008663
  Si          -6.546752        1.347070        0.964959
  Si          -6.541983        1.845133        0.921255
  Si          -6.537214        2.343197        0.877551
  Si          -6.532445        2.841260        0.833847
  Si          -6.527677        3.339324        0.790143
  Si          -6.522908        3.837387        0.746439
  Si          -6.518139        4.335451        0.702735
  Si          -6.513370        4.833514        0.659031
  Si          -6.677417      -12.299869        2.162449
  Si          -6.672648      -11.801806        2.118745
  Si          -6.667879      -11.303742        2.075041
  Si          -6.663110      -10.805679        2.031337
  Si          -6.658342      -10.307615        1.987633
  Si          -6.653573       -9.809552        1.943929
  Si          -6.648804       -9.311488        1.900225
  Si          -6.644035       -8.813425        1.856521
  Si          -6.639266       -8.315361        1.812817
  Si          -6.634498       -7.817298        1.769113
  Si          -6.629729       -7.319234        1.725409
  Si          -6.569597       -6.320022        0.534628
  Si          -6.564829       -5.821958        0.490924
  Si          -6.560060       -5.323895        0.447219
  Si          -6.555291       -4.825831        0.403515
  Si          -6.550522       -4.327768        0.359811
  Si          -6.545753       -3.829704        0.316107
  Si          -6.540985       -3.331641        0.272403
  Si          -6.536216       -2.833578        0.228699
  Si          -6.531447       -2.335514        0.184995
  Si          -6.526678       -1.837451        0.141291
  Si          -6.521909       -1.339387        0.097587
  Si          -6.511418       -0.243648        0.001439
  Si          -6.506649        0.254416       -0.042265
  Si          -6.501880        0.752479       -0.085969
  Si          -6.497112        1.250543       -0.129673
  Si          -6.492343        1.748606       -0.173377
  Si          -6.487574        2.246670       -0.217081
  Si          -6.482805        2.744733       -0.260785
  Si          -6.478037        3.242797       -0.304489
  Si          -6.473268        3.740860       -0.348194
  Si          -6.468499        4.238924       -0.391898
  Si          -6.463730        4.736987       -0.435602
  Si          -6.627777      -12.396396        1.067816
  Si          -6.623008      -11.898333        1.024112
  Si          -6.618239      -11.400269        0.980408
  Si          -6.613470      -10.902206        0.936704
  Si          -6.608701      -10.404142        0.893000
  Si          -6.603933       -9.906079        0.849296
  Si          -6.599164       -9.408015        0.805592
  Si          -6.594395       -8.909952        0.761888
  Si          -6.589626       -8.411888        0.718184
  Si          -6.584857       -7.913825        0.674480
  Si          -6.580089       -7.415761        0.630776
  Si          -6.519957       -6.416549       -0.560005
  Si          -6.515188       -5.918485       -0.603709
  Si          -6.510420       -5.420422       -0.647413
  Si          -6.505651       -4.922358       -0.691117
  Si          -6.500882       -4.424295       -0.734821
  Si          -6.496113       -3.926231       -0.778525
  Si          -6.491344       -3.428168       -0.822229
  Si          -6.486576       -2.930105       -0.865933
  Si          -6.481807       -2.432041       -0.909637
  Si          -6.477038       -1.933978       -0.953341
  Si          -6.472269       -1.435914       -0.997045
  Si          -6.461778       -0.340175       -1.093194
  Si          -6.457009        0.157889       -1.136898
  Si          -6.452240        0.655952       -1.180602
  Si          -6.447472        1.154016       -1.224306
  Si          -6.442703        1.652079       -1.268010
  Si          -6.437934        2.150143       -1.311714
  Si          -6.433165        2.648206       -1.355418
  Si          -6.428396        3.146270       -1.399122
  Si          -6.423628        3.644333       -1.442826
  Si          -6.418859        4.142397       -1.486530
  Si          -6.414090        4.640460       -1.530234
  Si          -6.578136      -12.492923       -0.026816
  Si          -6.573368      -11.994860       -0.070520
  Si          -6.568599      -11.496796       -0.114224
  Si          -6.563830      -10.998733       -0.157928
  Si          -6.559061      -10.500669       -0.201632
  Si          -6.554292      -10.002606       -0.245336
  Si          -6.549524       -9.504542       -0.289040
  Si          -6.544755       -9.006479       -0.332744
  Si          -6.539986       -8.508415       -0.376448
  Si          -6.535217       -8.010352       -0.420152
  Si          -6.530449       -7.512288       -0.463856
  Si          -6.470317       -6.513076       -1.654638
  Si          -6.465548       -6.015012       -1.698342
  Si          -6.460779       -5.516949       -1.742046
  Si          -6.456011       -5.018885       -1.785750
  Si          -6.451242       -4.520822       -1.829454
  Si          -6.446473       -4.022758       -1.873158
  Si          -6.441704       -3.524695       -1.916862
  Si          -6.436936       -3.026632       -1.960566
  Si          -6.432167       -2.528568       -2.004270
  Si          -6.427398       -2.030505       -2.047974
  Si          -6.422629       -1.532441       -2.091678
  Si          -6.412138       -0.436701       -2.187827
  Si          -6.407369        0.061362       -2.231531
  Si          -6.402600        0.559425       -2.275235
  Si          -6.397831        1.057489       -2.318939
  Si          -6.393063        1.555552       -2.362643
  Si          -6.388294        2.053616       -2.406347
  Si          -6.383525        2.551679       -2.450051
  Si          -6.378756        3.049743       -2.493755
  Si          -6.373987        3.547806       -2.537459
  Si          -6.369219        4.045870       -2.581163
  Si          -6.364450        4.543933       -2.624867
  Si          -6.528496      -12.589450       -1.121449
  Si          -6.523728      -12.091387       -1.165153
  Si          -6.518959      -11.593323       -1.208857
  Si          -6.514190      -11.095260       -1.252561
  Si          -6.509421      -10.597196       -1.296265
  Si          -6.504652      -10.099133       -1.339969
  Si          -6.499884       -9.601069       -1.383673
  Si          -6.495115       -9.103006       -1.427377
  Si          -6.490346       -8.604942       -1.471081
  Si          -6.485577       -8.106879       -1.514785
  Si          -6.480808       -7.608815       -1.558489
  Si          -5.321847       -6.615704       -2.698902
  Si          -5.317078       -6.117641       -2.742606
  Si          -5.312309       -5.619577       -2.786310
  Si          -5.307540       -5.121514       -2.830014
  Si          -5.302771       -4.623450       -2.873718
  Si          -5.298003       -4.125387       -2.917422
  Si          -5.293234       -3.627323       -2.961126
  Si          -5.288465       -3.129260       -3.004830
  Si          -5.283696       -2.631196       -3.048534
  Si          -5.278927       -2.133133       -3.092238
  Si          -5.274159       -1.635069       -3.135942
  Si          -5.263667       -0.539330       -3.232091
  Si          -5.258899       -0.041266       -3.275795
  Si          -5.254130        0.456797       -3.319499
  Si          -5.249361        0.954861       -3.363203
  Si          -5.244592        1.452924       -3.406907
  Si          -5.239823        1.950988       -3.450611
  Si          -5.235055        2.449051       -3.494315
  Si          -5.230286        2.947115       -3.538019
  Si          -5.225517        3.445178       -3.581723
  Si          -5.220748        3.943242       -3.625427
  Si          -5.215979        4.441305       -3.669131
  Si          -5.380026      -12.692078       -2.165713
  Si          -5.375257      -12.194015       -2.209417
  Si          -5.370488      -11.695951       -2.253121
  Si          -5.365720      -11.197888       -2.296825
  Si          -5.360951      -10.699824       -2.340529
  Si          -5.356182      -10.201761       -2.384233
  Si          -5.351413       -9.703697       -2.427937
  Si          -5.346644       -9.205634       -2.471641
  Si          -5.341876       -8.707571       -2.515345
  Si          -5.337107       -8.209507       -2.559049
  Si          -5.332338       -7.711444       -2.602753
  Si          -5.272206       -6.712231       -3.793534
  Si          -5.267438       -6.214167       -3.837239
  Si          -5.262669       -5.716104       -3.880943
  Si          -5.257900       -5.218041       -3.924647
  Si          -5.253131       -4.719977       -3.968351
  Si          -5.248363       -4.221914       -4.012055
  Si          -5.243594       -3.723850       -4.055759
  Si          -5.238825       -3.225787       -4.099463
  Si          -5.234056       -2.727723       -4.143167
  Si          -5.229287       -2.229660       -4.186871
  Si          -5.224519       -1.731596       -4.230575
  Si          -5.214027       -0.635857       -4.326723
  Si          -5.209258       -0.137793       -4.370427
  Si          -5.204490        0.360270       -4.414131
  Si          -5.199721        0.858334       -4.457835
  Si          -5.194952        1.356397       -4.501539
  Si          -5.190183        1.854461       -4.545243
  Si          -5.185414        2.352524       -4.588947
  Si          -5.180646        2.850588       -4.632652
  Si          -5.175877        3.348651       -4.676356
  Si          -5.171108        3.846715       -4.720060
  Si          -5.166339        4.344778       -4.763764
  Si          -5.330386      -12.788605       -3.260346
  Si          -5.325617      -12.290542       -3.304050
  Si          -5.320848      -11.792478       -3.347754
  Si          -5.316079      -11.294415       -3.391458
  Si          -5.311311      -10.796351       -3.435162
  Si          -5.306542      -10.298288       -3.478866
  Si          -5.301773       -9.800224       -3.522570
  Si          -5.297004       -9.302161       -3.566274
  Si          -5.292235       -8.804098       -3.609978
  Si          -5.287467       -8.306034       -3.653682
  Si          -5.282698       -7.807971       -3.697386
  Si          -5.222566       -6.808758       -4.888167
  Si          -5.217798       -6.310694       -4.931871
  Si          -5.213029       -5.812631       -4.975575
  Si          -5.208260       -5.314568       -5.019279
  Si          -5.203491       -4.816504       -5.062983
  Si          -5.198722       -4.318441       -5.106687
  Si          -5.193954       -3.820377       -5.150391
  Si          -5.189185       -3.322314       -5.194095
  Si          -5.184416       -2.824250       -5.237799
  Si          -5.179647       -2.326187       -5.281503
  Si          -5.174878       -1.828123       -5.325207
  Si          -5.164387       -0.732384       -5.421356
  Si          -5.159618       -0.234320       -5.465060
  Si          -5.154849        0.263743       -5.508764
  Si          -5.150081        0.761807       -5.552468
  Si          -5.145312        1.259870       -5.596172
  Si          -5.140543        1.757934       -5.639876
  Si          -5.135774        2.255997       -5.683580
  Si          -5.131006        2.754061       -5.727284
  Si          -5.126237        3.252124       -5.770988
  Si          -5.121468        3.750188       -5.814692
  Si          -5.116699        4.248251       -5.858396
  Si          -5.280746      -12.885132       -4.354978
  Si          -5.275977      -12.387069       -4.398682
  Si          -5.271208      -11.889005       -4.442386
  Si          -5.266439      -11.390942       -4.486090
  Si          -5.261670      -10.892878       -4.529794
  Si          -5.256902      -10.394815       -4.573498
  Si          -5.252133       -9.896751       -4.617202
  Si          -5.247364       -9.398688       -4.660906
  Si          -5.242595       -8.900624       -4.704610
  Si          -5.237826       -8.402561       -4.748314
  Si          -5.233058       -7.904498       -4.792018
  Si          -5.172926       -6.905285       -5.982800
  Si          -5.168157       -6.407221       -6.026504
  Si          -5.163389       -5.909158       -6.070208
  Si          -5.158620       -5.411094       -6.113912
  Si          -5.153851       -4.913031       -6.157616
  Si          -5.149082       -4.414968       -6.201320
  Si          -5.144313       -3.916904       -6.245024
  Si          -5.139545       -3.418841       -6.288728
  Si          -5.134776       -2.920777       -6.332432
  Si          -5.130007       -2.422714       -6.376136
  Si          -5.125238       -1.924650       -6.419840
  Si          -5.114747       -0.828911       -6.515989
  Si          -5.109978       -0.330847       -6.559693
  Si          -5.105209        0.167216       -6.603397
  Si          -5.100441        0.665280       -6.647101
  Si          -5.095672        1.163343       -6.690805
  Si          -5.090903        1.661407       -6.734509
  Si          -5.086134        2.159470       -6.778213
  Si          -5.081365        2.657534       -6.821917
  Si          -5.076597        3.155597       -6.865621
  Si          -5.071828        3.653661       -6.909325
  Si          -5.067059        4.151724       -6.953029
  Si          -5.231105      -12.981659       -5.449611
  Si          -5.226337      -12.483596       -5.493315
  Si          -5.221568      -11.985532       -5.537019
  Si          -5.216799      -11.487469       -5.580723
  Si          -5.212030      -10.989405       -5.624427
  Si          -5.207261      -10.491342       -5.668131
  Si          -5.202493       -9.993278       -5.711835
  Si          -5.197724       -9.495215       -5.755539
  Si          -5.192955       -8.997151       -5.799243
  Si          -5.188186       -8.499088       -5.842947
  Si          -5.183418       -8.001025       -5.886651
  Si          -5.123286       -7.001812       -7.077432
  Si          -5.118517       -6.503748       -7.121136
  Si          -5.113748       -6.005685       -7.164840
  Si          -5.108980       -5.507621       -7.208544
  Si          -5.104211       -5.009558       -7.252248
  Si          -5.099442       -4.511495       -7.295952
  Si          -5.094673       -4.013431       -7.339656
  Si          -5.089905       -3.515368       -7.383360
  Si          -5.085136       -3.017304       -7.427064
  Si          -5.080367       -2.519241       -7.470768
  Si          -5.075598       -2.021177       -7.514473
  Si          -5.065107       -0.925438       -7.610621
  Si          -5.060338       -0.427374       -7.654325
  Si          -5.055569        0.070689       -7.698029
  Si          -5.050800        0.568753       -7.741733
  Si          -5.046032        1.066816       -7.785437
  Si          -5.041263        1.564880       -7.829141
  Si          -5.036494        2.062943       -7.872845
  Si          -5.031725        2.561007       -7.916549
  Si          -5.026956        3.059070       -7.960253
  Si          -5.022188        3.557134       -8.003957
  Si          -5.017419        4.055197       -8.047661
  Si          -5.181465      -13.078186       -6.544243
  Si          -5.176697      -12.580123       -6.587947
  Si          -5.171928      -12.082059       -6.631651
  Si          -5.167159      -11.583996       -6.675355
  Si          -5.162390      -11.085932       -6.719060
  Si          -5.157621      -10.587869       -6.762764
  Si          -5.152853      -10.089805       -6.806468
  Si          -5.148084       -9.591742       -6.850172
  Si          -5.143315       -9.093678       -6.893876
  Si          -5.138546       -8.595615       -6.937580
  Si          -5.133777       -8.097552       -6.981284
  Si          -5.073646       -7.098339       -8.172065
  Si          -5.068877       -6.600275       -8.215769
  Si          -5.064108       -6.102212       -8.259473
  Si          -5.059340       -5.604148       -8.303177
  Si          -5.054571       -5.106085       -8.346881
  Si          -5.049802       -4.608022       -8.390585
  Si          -5.045033       -4.109958       -8.434289
  Si          -5.040264       -3.611895       -8.477993
  Si          -5.035496       -3.113831       -8.521697
  Si          -5.030727       -2.615768       -8.565401
  Si          -5.025958       -2.117704       -8.609105
  Si          -5.015467       -1.021965       -8.705254
  Si          -5.010698       -0.523901       -8.748958
  Si          -5.005929       -0.025838       -8.792662
  Si          -5.001160        0.472226       -8.836366
  Si          -4.996391        0.970289       -8.880070
  Si          -4.991623        1.468353       -8.923774
  Si          -4.986854        1.966416       -8.967478
  Si          -4.982085        2.464480       -9.011182
  Si          -4.977316        2.962543       -9.054886
  Si          -4.972548        3.460607       -9.098590
  Si          -4.967779        3.958670       -9.142294
  Si          -5.131825      -13.174713       -7.638876
  Si          -5.127056      -12.676650       -7.682580
  Si          -5.122288      -12.178586       -7.726284
  Si          -5.117519      -11.680523       -7.769988
  Si          -5.112750      -11.182459       -7.813692
  Si          -5.107981      -10.684396       -7.857396
  Si          -5.103212      -10.186332       -7.901100
  Si          -5.098444       -9.688269       -7.944804
  Si          -5.093675       -9.190205       -7.988508
  Si          -5.088906       -8.692142       -8.032212
  Si          -5.084137       -8.194078       -8.075916
  Si          -5.024006       -7.194866       -9.266698
  Si          -5.019237       -6.696802       -9.310402
  Si          -5.014468       -6.198739       -9.354106
  Si          -5.009699       -5.700675       -9.397810
  Si          -5.004931       -5.202612       -9.441514
  Si          -5.000162       -4.704548       -9.485218
  Si          -4.995393       -4.206485       -9.528922
  Si          -4.990624       -3.708422       -9.572626
  Si          -4.985855       -3.210358       -9.616330
  Si          -4.981087       -2.712295       -9.660034
  Si          -4.976318       -2.214231       -9.703738
  Si          -4.965826       -1.118492       -9.799887
  Si          -4.961058       -0.620428       -9.843591
  Si          -4.956289       -0.122365       -9.887295
  Si          -4.951520        0.375699       -9.930999
  Si          -4.946751        0.873762       -9.974703
  Si          -4.941983        1.371826      -10.018407
  Si          -4.937214        1.869889      -10.062111
  Si          -4.932445        2.367953      -10.105815
  Si          -4.927676        2.866016      -10.149519
  Si          -4.922907        3.364080      -10.193223
  Si          -4.918139        3.862143      -10.236927
  Si          -5.082185      -13.271240       -8.733509
  Si          -5.077416      -12.773177       -8.777213
  Si          -5.072647      -12.275113       -8.820917
  Si          -5.067879      -11.777050       -8.864621
  Si          -5.063110      -11.278986       -8.908325
  Si          -5.058341      -10.780923       -8.952029
  Si          -5.053572      -10.282859       -8.995733
  Si          -5.048803       -9.784796       -9.039437
  Si          -5.044035       -9.286732       -9.083141
  Si          -5.039266       -8.788669       -9.126845
  Si          -5.034497       -8.290605       -9.170549
  Si          -4.974366       -7.291393      -10.361330
  Si          -4.969597       -6.793329      -10.405034
  Si          -4.964828       -6.295266      -10.448738
  Si          -4.960059       -5.797202      -10.492442
  Si          -4.955290       -5.299139      -10.536146
  Si          -4.950522       -4.801075      -10.579850
  Si          -4.945753       -4.303012      -10.623554
  Si          -4.940984       -3.804949      -10.667258
  Si          -4.936215       -3.306885      -10.710962
  Si          -4.931446       -2.808822      -10.754666
  Si          -4.926678       -2.310758      -10.798370
  Si          -4.916186       -1.215018      -10.894519
  Si          -4.911418       -0.716955      -10.938223
  Si          -4.906649       -0.218892      -10.981927
  Si          -4.901880        0.279172      -11.025631
  Si          -4.897111        0.777235      -11.069335
  Si          -4.892342        1.275299      -11.113039
  Si          -4.887574        1.773362      -11.156743
  Si          -4.882805        2.271426      -11.200447
  Si          -4.878036        2.769489      -11.244151
  Si          -4.873267        3.267553      -11.287855
  Si          -4.868498        3.765616      -11.331559
  Si          -5.032545      -13.367767       -9.828141
  Si          -5.027776      -12.869704       -9.871845
  Si          -5.023007      -12.371640       -9.915549
  Si          -5.018239      -11.873577       -9.959253
  Si          -5.013470      -11.375513      -10.002957
  Si          -5.008701      -10.877450      -10.046661
  Si          -5.003932      -10.379386      -10.090365
  Si          -4.999163       -9.881323      -10.134069
  Si          -4.994395       -9.383259      -10.177773
  Si          -4.989626       -8.885196      -10.221477
  Si          -4.984857       -8.387132      -10.265181
  Si          -4.924725       -7.387920      -11.455963
  Si          -4.919957       -6.889856      -11.499667
  Si          -4.915188       -6.391793      -11.543371
  Si          -4.910419       -5.893729      -11.587075
  Si          -4.905650       -5.395666      -11.630779
  Si          -4.900882       -4.897602      -11.674483
  Si          -4.896113       -4.399539      -11.718187
  Si          -4.891344       -3.901475      -11.761891
  Si          -4.886575       -3.403412      -11.805595
  Si          -4.881806       -2.905349      -11.849299
  Si          -4.877038       -2.407285      -11.893003
  Si          -4.866546       -1.311545      -11.989152
  Si          -4.861777       -0.813482      -12.032856
  Si          -4.857009       -0.315419      -12.076560
  Si          -4.852240        0.182645      -12.120264
  Si          -4.847471        0.680708      -12.163968
  Si          -4.842702        1.178772      -12.207672
  Si          -4.837933        1.676835      -12.251376
  Si          -4.833165        2.174899      -12.295080
  Si          -4.828396        2.672962      -12.338784
  Si          -4.823627        3.171026      -12.382488
  Si          -4.818858        3.669089      -12.426192
  Si          -4.982905      -13.464294      -10.922774
  Si          -4.978136      -12.966231      -10.966478
  Si          -4.973367      -12.468167      -11.010182
  Si          -4.968598      -11.970104      -11.053886
  Si          -4.963830      -11.472040      -11.097590
  Si          -4.959061      -10.973977      -11.141294
  Si          -4.954292      -10.475913      -11.184998
  Si          -4.949523       -9.977850      -11.228702
  Si          -4.944754       -9.479786      -11.272406
  Si          -4.939986       -8.981723      -11.316110
  Si          -4.935217       -8.483659      -11.359814
  Si          -5.718968       -5.843488        6.058159
  Si          -5.714199       -5.345425        6.014455
  Si          -5.709430       -4.847361        5.970751
  Si          -5.704661       -4.349298        5.927047
  Si          -5.699893       -3.851234        5.883343
  Si          -5.695124       -3.353171        5.839639
  Si          -5.690355       -2.855107        5.795935
  Si          -5.685586       -2.357044        5.752231
  Si          -5.680817       -1.858980        5.708527
  Si          -5.676049       -1.360917        5.664823
  Si          -5.671280       -0.862853        5.621119
  Si          -5.660789        0.232886        5.524970
  Si          -5.656020        0.730950        5.481266
  Si          -5.651251        1.229013        5.437562
  Si          -5.646482        1.727077        5.393858
  Si          -5.641713        2.225140        5.350154
  Si          -5.636945        2.723203        5.306450
  Si          -5.632176        3.221267        5.262746
  Si          -5.627407        3.719330        5.219042
  Si          -5.622638        4.217394        5.175338
  Si          -5.617869        4.715457        5.131634
  Si          -5.613101        5.213521        5.087930
  Si          -5.777147      -11.919862        6.591348
  Si          -5.772378      -11.421799        6.547644
  Si          -5.767609      -10.923736        6.503940
  Si          -5.762841      -10.425672        6.460236
  Si          -5.758072       -9.927609        6.416532
  Si          -5.753303       -9.429545        6.372828
  Si          -5.748534       -8.931482        6.329124
  Si          -5.743765       -8.433418        6.285420
  Si          -5.738997       -7.935355        6.241716
  Si          -5.734228       -7.437291        6.198012
  Si          -5.729459       -6.939228        6.154308
  Si          -5.669328       -5.940015        4.963527
  Si          -5.664559       -5.441952        4.919823
  Si          -5.659790       -4.943888        4.876119
  Si          -5.655021       -4.445825        4.832415
  Si          -5.650252       -3.947761        4.788711
  Si          -5.645484       -3.449698        4.745007
  Si          -5.640715       -2.951634        4.701302
  Si          -5.635946       -2.453571        4.657598
  Si          -5.631177       -1.955507        4.613894
  Si          -5.626408       -1.457444        4.570190
  Si          -5.621640       -0.959380        4.526486
  Si          -5.611148        0.136359        4.430338
  Si          -5.606380        0.634423        4.386634
  Si          -5.601611        1.132486        4.342930
  Si          -5.596842        1.630550        4.299226
  Si          -5.592073        2.128613        4.255522
  Si          -5.587304        2.626677        4.211818
  Si          -5.582536        3.124740        4.168114
  Si          -5.577767        3.622803        4.124410
  Si          -5.572998        4.120867        4.080706
  Si          -5.568229        4.618930        4.037002
  Si          -5.563460        5.116994        3.993298
  Si          -5.727507      -12.016389        5.496715
  Si          -5.722738      -11.518326        5.453011
  Si          -5.717969      -11.020263        5.409307
  Si          -5.713201      -10.522199        5.365603
  Si          -5.708432      -10.024136        5.321899
  Si          -5.703663       -9.526072        5.278195
  Si          -5.698894       -9.028009        5.234491
  Si          -5.694125       -8.529945        5.190787
  Si          -5.689357       -8.031882        5.147083
  Si          -5.684588       -7.533818        5.103379
  Si          -5.679819       -7.035755        5.059675
  Si          -5.619687       -6.036542        3.868894
  Si          -5.614919       -5.538479        3.825190
  Si          -5.610150       -5.040415        3.781486
  Si          -5.605381       -4.542352        3.737782
  Si          -5.600612       -4.044288        3.694078
  Si          -5.595844       -3.546225        3.650374
  Si          -5.591075       -3.048161        3.606670
  Si          -5.586306       -2.550098        3.562966
  Si          -5.581537       -2.052034        3.519262
  Si          -5.576768       -1.553971        3.475558
  Si          -5.572000       -1.055907        3.431854
  Si          -5.561508        0.039832        3.335705
  Si          -5.556739        0.537896        3.292001
  Si          -5.551971        1.035959        3.248297
  Si          -5.547202        1.534023        3.204593
  Si          -5.542433        2.032086        3.160889
  Si          -5.537664        2.530150        3.117185
  Si          -5.532895        3.028213        3.073481
  Si          -5.528127        3.526276        3.029777
  Si          -5.523358        4.024340        2.986073
  Si          -5.518589        4.522403        2.942369
  Si          -5.513820        5.020467        2.898665
  Si          -5.677867      -12.112916        4.402083
  Si          -5.673098      -11.614853        4.358379
  Si          -5.668329      -11.116789        4.314675
  Si          -5.663560      -10.618726        4.270971
  Si          -5.658792      -10.120663        4.227267
  Si          -5.654023       -9.622599        4.183563
  Si          -5.649254       -9.124536        4.139859
  Si          -5.644485       -8.626472        4.096155
  Si          -5.639716       -8.128409        4.052451
  Si          -5.634948       -7.630345        4.008747
  Si          -5.630179       -7.132282        3.965043
  Si          -5.570047       -6.133069        2.774261
  Si          -5.565279       -5.635006        2.730557
  Si          -5.560510       -5.136942        2.686853
  Si          -5.555741       -4.638879        2.643149
  Si          -5.550972       -4.140815        2.599445
  Si          -5.546203       -3.642752        2.555741
  Si          -5.541435       -3.144688        2.512037
  Si          -5.536666       -2.646625        2.468333
  Si          -5.531897       -2.148561        2.424629
  Si          -5.527128       -1.650498        2.380925
  Si          -5.522359       -1.152434        2.337221
  Si          -5.511868       -0.056695        2.241072
  Si          -5.507099        0.441369        2.197368
  Si          -5.502330        0.939432        2.153664
  Si          -5.497562        1.437496        2.109960
  Si          -5.492793        1.935559        2.066256
  Si          -5.488024        2.433623        2.022552
  Si          -5.483255        2.931686        1.978848
  Si          -5.478487        3.429749        1.935144
  Si          -5.473718        3.927813        1.891440
  Si          -5.468949        4.425876        1.847736
  Si          -5.464180        4.923940        1.804032
  Si          -5.628227      -12.209443        3.307450
  Si          -5.623458      -11.711380        3.263746
  Si          -5.618689      -11.213316        3.220042
  Si          -5.613920      -10.715253        3.176338
  Si          -5.609151      -10.217190        3.132634
  Si          -5.604383       -9.719126        3.088930
  Si          -5.599614       -9.221063        3.045226
  Si          -5.594845       -8.722999        3.001522
  Si          -5.590076       -8.224936        2.957818
  Si          -5.585307       -7.726872        2.914114
  Si          -5.580539       -7.228809        2.870410
  Si          -5.520407       -6.229596        1.679629
  Si          -5.515638       -5.731533        1.635925
  Si          -5.510870       -5.233469        1.592221
  Si          -5.506101       -4.735406        1.548517
  Si          -5.501332       -4.237342        1.504813
  Si          -5.496563       -3.739279        1.461109
  Si          -5.491794       -3.241215        1.417405
  Si          -5.487026       -2.743152        1.373701
  Si          -5.482257       -2.245088        1.329997
  Si          -5.477488       -1.747025        1.286293
  Si          -5.472719       -1.248961        1.242589
  Si          -5.462228       -0.153222        1.146440
  Si          -5.457459        0.344842        1.102736
  Si          -5.452690        0.842905        1.059032
  Si          -5.447922        1.340969        1.015328
  Si          -5.443153        1.839032        0.971624
  Si          -5.438384        2.337096        0.927920
  Si          -5.433615        2.835159        0.884216
  Si          -5.428846        3.333223        0.840512
  Si          -5.424078        3.831286        0.796808
  Si          -5.419309        4.329349        0.753104
  Si          -5.414540        4.827413        0.709400
  Si          -5.578586      -12.305970        2.212818
  Si          -5.573818      -11.807907        2.169114
  Si          -5.569049      -11.309843        2.125410
  Si          -5.564280      -10.811780        2.081706
  Si          -5.559511      -10.313717        2.038002
  Si          -5.554742       -9.815653        1.994298
  Si          -5.549974       -9.317590        1.950594
  Si          -5.545205       -8.819526        1.906890
  Si          -5.540436       -8.321463        1.863186
  Si          -5.535667       -7.823399        1.819481
  Si          -5.530899       -7.325336        1.775777
  Si          -5.470767       -6.326123        0.584996
  Si          -5.465998       -5.828060        0.541292
  Si          -5.461229       -5.329996        0.497588
  Si          -5.456461       -4.831933        0.453884
  Si          -5.451692       -4.333869        0.410180
  Si          -5.446923       -3.835806        0.366476
  Si          -5.442154       -3.337742        0.322772
  Si          -5.437386       -2.839679        0.279068
  Si          -5.432617       -2.341615        0.235364
  Si          -5.427848       -1.843552        0.191660
  Si          -5.423079       -1.345488        0.147956
  Si          -5.412588       -0.249749        0.051807
  Si          -5.407819        0.248315        0.008103
  Si          -5.403050        0.746378       -0.035601
  Si          -5.398281        1.244442       -0.079305
  Si          -5.393513        1.742505       -0.123009
  Si          -5.388744        2.240569       -0.166713
  Si          -5.383975        2.738632       -0.210417
  Si          -5.379206        3.236696       -0.254121
  Si          -5.374437        3.734759       -0.297825
  Si          -5.369669        4.232822       -0.341529
  Si          -5.364900        4.730886       -0.385233
  Si          -5.528946      -12.402497        1.118185
  Si          -5.524178      -11.904434        1.074481
  Si          -5.519409      -11.406370        1.030777
  Si          -5.514640      -10.908307        0.987073
  Si          -5.509871      -10.410243        0.943369
  Si          -5.505102       -9.912180        0.899665
  Si          -5.500334       -9.414117        0.855961
  Si          -5.495565       -8.916053        0.812257
  Si          -5.490796       -8.417990        0.768553
  Si          -5.486027       -7.919926        0.724849
  Si          -5.481258       -7.421863        0.681145
  Si          -5.421127       -6.422650       -0.509637
  Si          -5.416358       -5.924587       -0.553341
  Si          -5.411589       -5.426523       -0.597045
  Si          -5.406821       -4.928460       -0.640749
  Si          -5.402052       -4.430396       -0.684453
  Si          -5.397283       -3.932333       -0.728157
  Si          -5.392514       -3.434269       -0.771861
  Si          -5.387745       -2.936206       -0.815565
  Si          -5.382977       -2.438142       -0.859269
  Si          -5.378208       -1.940079       -0.902973
  Si          -5.373439       -1.442015       -0.946677
  Si          -5.362948       -0.346276       -1.042826
  Si          -5.358179        0.151788       -1.086530
  Si          -5.353410        0.649851       -1.130234
  Si          -5.348641        1.147915       -1.173938
  Si          -5.343872        1.645978       -1.217642
  Si          -5.339104        2.144042       -1.261346
  Si          -5.334335        2.642105       -1.305050
  Si          -5.329566        3.140169       -1.348754
  Si          -5.324797        3.638232       -1.392458
  Si          -5.320029        4.136296       -1.436162
  Si          -5.315260        4.634359       -1.479866
  Si          -5.479306      -12.499024        0.023552
  Si          -5.474537      -12.000961       -0.020152
  Si          -5.469769      -11.502897       -0.063856
  Si          -5.465000      -11.004834       -0.107560
  Si          -5.460231      -10.506770       -0.151264
  Si          -5.455462      -10.008707       -0.194968
  Si          -5.450693       -9.510644       -0.238672
  Si          -5.445925       -9.012580       -0.282376
  Si          -5.441156       -8.514517       -0.326080
  Si          -5.436387       -8.016453       -0.369784
  Si          -5.431618       -7.518390       -0.413488
  Si          -5.371487       -6.519177       -1.604269
  Si          -5.366718       -6.021114       -1.647973
  Si          -5.361949       -5.523050       -1.691677
  Si          -5.357180       -5.024987       -1.735381
  Si          -5.352412       -4.526923       -1.779085
  Si          -5.347643       -4.028860       -1.822789
  Si          -5.342874       -3.530796       -1.866493
  Si          -5.338105       -3.032733       -1.910197
  Si          -5.333336       -2.534669       -1.953901
  Si          -5.328568       -2.036606       -1.997605
  Si          -5.323799       -1.538542       -2.041309
  Si          -5.313308       -0.442803       -2.137458
  Si          -5.308539        0.055261       -2.181162
  Si          -5.303770        0.553324       -2.224866
  Si          -5.299001        1.051388       -2.268570
  Si          -5.294232        1.549451       -2.312274
  Si          -5.289464        2.047515       -2.355978
  Si          -5.284695        2.545578       -2.399682
  Si          -5.279926        3.043642       -2.443386
  Si          -5.275157        3.541705       -2.487090
  Si          -5.270388        4.039769       -2.530794
  Si          -5.265620        4.537832       -2.574498
  Si          -5.429666      -12.595551       -1.071080
  Si          -5.424897      -12.097488       -1.114784
  Si          -5.420128      -11.599424       -1.158488
  Si          -5.415360      -11.101361       -1.202192
  Si          -5.410591      -10.603297       -1.245896
  Si          -5.405822      -10.105234       -1.289600
  Si          -5.401053       -9.607170       -1.333304
  Si          -5.396284       -9.109107       -1.377008
  Si          -5.391516       -8.611044       -1.420712
  Si          -5.386747       -8.112980       -1.464416
  Si          -5.381978       -7.614917       -1.508120
  Si          -4.223016       -6.621805       -2.648533
  Si          -4.218248       -6.123742       -2.692237
  Si          -4.213479       -5.625678       -2.735941
  Si          -4.208710       -5.127615       -2.779645
  Si          -4.203941       -4.629551       -2.823349
  Si          -4.199172       -4.131488       -2.867053
  Si          -4.194404       -3.633424       -2.910757
  Si          -4.189635       -3.135361       -2.954461
  Si          -4.184866       -2.637297       -2.998165
  Si          -4.180097       -2.139234       -3.041869
  Si          -4.175328       -1.641170       -3.085573
  Si          -4.164837       -0.545431       -3.181722
  Si          -4.160068       -0.047367       -3.225426
  Si          -4.155299        0.450696       -3.269130
  Si          -4.150531        0.948760       -3.312834
  Si          -4.145762        1.446823       -3.356538
  Si          -4.140993        1.944886       -3.400242
  Si          -4.136224        2.442950       -3.443946
  Si          -4.131456        2.941013       -3.487650
  Si          -4.126687        3.439077       -3.531354
  Si          -4.121918        3.937140       -3.575058
  Si          -4.117149        4.435204       -3.618762
  Si          -4.281196      -12.698179       -2.115344
  Si          -4.276427      -12.200116       -2.159048
  Si          -4.271658      -11.702053       -2.202752
  Si          -4.266889      -11.203989       -2.246456
  Si          -4.262120      -10.705926       -2.290160
  Si          -4.257352      -10.207862       -2.333864
  Si          -4.252583       -9.709799       -2.377568
  Si          -4.247814       -9.211735       -2.421272
  Si          -4.243045       -8.713672       -2.464977
  Si          -4.238276       -8.215608       -2.508681
  Si          -4.233508       -7.717545       -2.552385
  Si          -4.173376       -6.718332       -3.743166
  Si          -4.168607       -6.220269       -3.786870
  Si          -4.163839       -5.722205       -3.830574
  Si          -4.159070       -5.224142       -3.874278
  Si          -4.154301       -4.726078       -3.917982
  Si          -4.149532       -4.228015       -3.961686
  Si          -4.144763       -3.729951       -4.005390
  Si          -4.139995       -3.231888       -4.049094
  Si          -4.135226       -2.733824       -4.092798
  Si          -4.130457       -2.235761       -4.136502
  Si          -4.125688       -1.737697       -4.180206
  Si          -4.115197       -0.641958       -4.276355
  Si          -4.110428       -0.143894       -4.320059
  Si          -4.105659        0.354169       -4.363763
  Si          -4.100891        0.852233       -4.407467
  Si          -4.096122        1.350296       -4.451171
  Si          -4.091353        1.848359       -4.494875
  Si          -4.086584        2.346423       -4.538579
  Si          -4.081815        2.844486       -4.582283
  Si          -4.077047        3.342550       -4.625987
  Si          -4.072278        3.840613       -4.669691
  Si          -4.067509        4.338677       -4.713395
  Si          -4.231555      -12.794706       -3.209977
  Si          -4.226787      -12.296643       -3.253681
  Si          -4.222018      -11.798580       -3.297385
  Si          -4.217249      -11.300516       -3.341089
  Si          -4.212480      -10.802453       -3.384793
  Si          -4.207711      -10.304389       -3.428497
  Si          -4.202943       -9.806326       -3.472201
  Si          -4.198174       -9.308262       -3.515905
  Si          -4.193405       -8.810199       -3.559609
  Si          -4.188636       -8.312135       -3.603313
  Si          -4.183868       -7.814072       -3.647017
  Si          -4.123736       -6.814859       -4.837799
  Si          -4.118967       -6.316796       -4.881503
  Si          -4.114198       -5.818732       -4.925207
  Si          -4.109430       -5.320669       -4.968911
  Si          -4.104661       -4.822605       -5.012615
  Si          -4.099892       -4.324542       -5.056319
  Si          -4.095123       -3.826478       -5.100023
  Si          -4.090355       -3.328415       -5.143727
  Si          -4.085586       -2.830351       -5.187431
  Si          -4.080817       -2.332288       -5.231135
  Si          -4.076048       -1.834224       -5.274839
  Si          -4.065557       -0.738485       -5.370988
  Si          -4.060788       -0.240421       -5.414692
  Si          -4.056019        0.257642       -5.458396
  Si          -4.051250        0.755706       -5.502100
  Si          -4.046482        1.253769       -5.545804
  Si          -4.041713        1.751833       -5.589508
  Si          -4.036944        2.249896       -5.633212
  Si          -4.032175        2.747959       -5.676916
  Si          -4.027406        3.246023       -5.720620
  Si          -4.022638        3.744086       -5.764324
  Si          -4.017869        4.242150       -5.808028
  Si          -4.181915      -12.891233       -4.304610
  Si          -4.177147      -12.393170       -4.348314
  Si          -4.172378      -11.895106       -4.392018
  Si          -4.167609      -11.397043       -4.435722
  Si          -4.162840      -10.898980       -4.479426
  Si          -4.158071      -10.400916       -4.523130
  Si          -4.153303       -9.902853       -4.566834
  Si          -4.148534       -9.404789       -4.610538
  Si          -4.143765       -8.906726       -4.654242
  Si          -4.138996       -8.408662       -4.697946
  Si          -4.134227       -7.910599       -4.741650
  Si          -4.074096       -6.911386       -5.932431
  Si          -4.069327       -6.413323       -5.976135
  Si          -4.064558       -5.915259       -6.019839
  Si          -4.059790       -5.417196       -6.063543
  Si          -4.055021       -4.919132       -6.107247
  Si          -4.050252       -4.421069       -6.150951
  Si          -4.045483       -3.923005       -6.194655
  Si          -4.040714       -3.424942       -6.238359
  Si          -4.035946       -2.926878       -6.282063
  Si          -4.031177       -2.428815       -6.325767
  Si          -4.026408       -1.930751       -6.369471
  Si          -4.015917       -0.835012       -6.465620
  Si          -4.011148       -0.336948       -6.509324
  Si          -4.006379        0.161115       -6.553028
  Si          -4.001610        0.659179       -6.596732
  Si          -3.996841        1.157242       -6.640436
  Si          -3.992073        1.655306       -6.684140
  Si          -3.987304        2.153369       -6.727844
  Si          -3.982535        2.651432       -6.771548
  Si          -3.977766        3.149496       -6.815252
  Si          -3.972998        3.647559       -6.858956
  Si          -3.968229        4.145623       -6.902660
  Si          -4.132275      -12.987760       -5.399242
  Si          -4.127506      -12.489697       -5.442946
  Si          -4.122738      -11.991633       -5.486650
  Si          -4.117969      -11.493570       -5.530354
  Si          -4.113200      -10.995507       -5.574058
  Si          -4.108431      -10.497443       -5.617762
  Si          -4.103662       -9.999380       -5.661466
  Si          -4.098894       -9.501316       -5.705170
  Si          -4.094125       -9.003253       -5.748874
  Si          -4.089356       -8.505189       -5.792578
  Si          -4.084587       -8.007126       -5.836282
  Si          -4.024456       -7.007913       -7.027064
  Si          -4.019687       -6.509850       -7.070768
  Si          -4.014918       -6.011786       -7.114472
  Si          -4.010149       -5.513723       -7.158176
  Si          -4.005381       -5.015659       -7.201880
  Si          -4.000612       -4.517596       -7.245584
  Si          -3.995843       -4.019532       -7.289288
  Si          -3.991074       -3.521469       -7.332992
  Si          -3.986305       -3.023405       -7.376696
  Si          -3.981537       -2.525342       -7.420400
  Si          -3.976768       -2.027278       -7.464104
  Si          -3.966277       -0.931539       -7.560253
  Si          -3.961508       -0.433475       -7.603957
  Si          -3.956739        0.064588       -7.647661
  Si          -3.951970        0.562652       -7.691365
  Si          -3.947201        1.060715       -7.735069
  Si          -3.942433        1.558779       -7.778773
  Si          -3.937664        2.056842       -7.822477
  Si          -3.932895        2.554906       -7.866181
  Si          -3.928126        3.052969       -7.909885
  Si          -3.923357        3.551032       -7.953589
  Si          -3.918589        4.049096       -7.997293
  Si          -4.082635      -13.084287       -6.493875
  Si          -4.077866      -12.586224       -6.537579
  Si          -4.073097      -12.088160       -6.581283
  Si          -4.068329      -11.590097       -6.624987
  Si          -4.063560      -11.092034       -6.668691
  Si          -4.058791      -10.593970       -6.712395
  Si          -4.054022      -10.095907       -6.756099
  Si          -4.049253       -9.597843       -6.799803
  Si          -4.044485       -9.099780       -6.843507
  Si          -4.039716       -8.601716       -6.887211
  Si          -4.034947       -8.103653       -6.930915
  Si          -3.974816       -7.104440       -8.121697
  Si          -3.970047       -6.606377       -8.165401
  Si          -3.965278       -6.108313       -8.209105
  Si          -3.960509       -5.610250       -8.252809
  Si          -3.955740       -5.112186       -8.296513
  Si          -3.950972       -4.614123       -8.340217
  Si          -3.946203       -4.116059       -8.383921
  Si          -3.941434       -3.617996       -8.427625
  Si          -3.936665       -3.119932       -8.471329
  Si          -3.931896       -2.621869       -8.515033
  Si          -3.927128       -2.123805       -8.558737
  Si          -3.916636       -1.028066       -8.654885
  Si          -3.911868       -0.530002       -8.698589
  Si          -3.907099       -0.031939       -8.742293
  Si          -3.902330        0.466125       -8.785997
  Si          -3.897561        0.964188       -8.829701
  Si          -3.892792        1.462252       -8.873405
  Si          -3.888024        1.960315       -8.917110
  Si          -3.883255        2.458379       -8.960814
  Si          -3.878486        2.956442       -9.004518
  Si          -3.873717        3.454505       -9.048222
  Si          -3.868948        3.952569       -9.091926
  Si          -4.032995      -13.180814       -7.588508
  Si          -4.028226      -12.682751       -7.632212
  Si          -4.023457      -12.184687       -7.675916
  Si          -4.018689      -11.686624       -7.719620
  Si          -4.013920      -11.188560       -7.763324
  Si          -4.009151      -10.690497       -7.807028
  Si          -4.004382      -10.192434       -7.850732
  Si          -3.999613       -9.694370       -7.894436
  Si          -3.994845       -9.196307       -7.938140
  Si          -3.990076       -8.698243       -7.981844
  Si          -3.985307       -8.200180       -8.025548
  Si          -3.925175       -7.200967       -9.216329
  Si          -3.920407       -6.702904       -9.260033
  Si          -3.915638       -6.204840       -9.303737
  Si          -3.910869       -5.706777       -9.347441
  Si          -3.906100       -5.208713       -9.391145
  Si          -3.901332       -4.710650       -9.434849
  Si          -3.896563       -4.212586       -9.478553
  Si          -3.891794       -3.714523       -9.522257
  Si          -3.887025       -3.216459       -9.565961
  Si          -3.882256       -2.718396       -9.609665
  Si          -3.877488       -2.220332       -9.653369
  Si          -3.866996       -1.124593       -9.749518
  Si          -3.862227       -0.626529       -9.793222
  Si          -3.857459       -0.128466       -9.836926
  Si          -3.852690        0.369598       -9.880630
  Si          -3.847921        0.867661       -9.924334
  Si          -3.843152        1.365725       -9.968038
  Si          -3.838383        1.863788      -10.011742
  Si          -3.833615        2.361852      -10.055446
  Si          -3.828846        2.859915      -10.099150
  Si          -3.824077        3.357978      -10.142854
  Si          -3.819308        3.856042      -10.186558
  Si          -3.983355      -13.277341       -8.683140
  Si          -3.978586      -12.779278       -8.726844
  Si          -3.973817      -12.281214       -8.770548
  Si          -3.969048      -11.783151       -8.814252
  Si          -3.964280      -11.285087       -8.857956
  Si          -3.959511      -10.787024       -8.901660
  Si          -3.954742      -10.288961       -8.945364
  Si          -3.949973       -9.790897       -8.989068
  Si          -3.945204       -9.292834       -9.032772
  Si          -3.940436       -8.794770       -9.076476
  Si          -3.935667       -8.296707       -9.120180
  Si          -3.875535       -7.297494      -10.310962
  Si          -3.870767       -6.799431      -10.354666
  Si          -3.865998       -6.301367      -10.398370
  Si          -3.861229       -5.803304      -10.442074
  Si          -3.856460       -5.305240      -10.485778
  Si          -3.851691       -4.807177      -10.529482
  Si          -3.846923       -4.309113      -10.573186
  Si          -3.842154       -3.811050      -10.616890
  Si          -3.837385       -3.312986      -10.660594
  Si          -3.832616       -2.814923      -10.704298
  Si          -3.827847       -2.316859      -10.748002
  Si          -3.817356       -1.221120      -10.844151
  Si          -3.812587       -0.723056      -10.887855
  Si          -3.807818       -0.224993      -10.931559
  Si          -3.803050        0.273071      -10.975263
  Si          -3.798281        0.771134      -11.018967
  Si          -3.793512        1.269198      -11.062671
  Si          -3.788743        1.767261      -11.106375
  Si          -3.783975        2.265325      -11.150079
  Si          -3.779206        2.763388      -11.193783
  Si          -3.774437        3.261452      -11.237487
  Si          -3.769668        3.759515      -11.281191
  Si          -3.933715      -13.373868       -9.777773
  Si          -3.928946      -12.875805       -9.821477
  Si          -3.924177      -12.377741       -9.865181
  Si          -3.919408      -11.879678       -9.908885
  Si          -3.914639      -11.381614       -9.952589
  Si          -3.909871      -10.883551       -9.996293
  Si          -3.905102      -10.385488      -10.039997
  Si          -3.900333       -9.887424      -10.083701
  Si          -3.895564       -9.389361      -10.127405
  Si          -3.890795       -8.891297      -10.171109
  Si          -3.886027       -8.393234      -10.214813
  Si          -3.825895       -7.394021      -11.405594
  Si          -3.821126       -6.895958      -11.449298
  Si          -3.816358       -6.397894      -11.493002
  Si          -3.811589       -5.899831      -11.536706
  Si          -3.806820       -5.401767      -11.580410
  Si          -3.802051       -4.903704      -11.624114
  Si          -3.797282       -4.405640      -11.667818
  Si          -3.792514       -3.907577      -11.711522
  Si          -3.787745       -3.409513      -11.755226
  Si          -3.782976       -2.911450      -11.798931
  Si          -3.778207       -2.413386      -11.842635
  Si          -3.767716       -1.317647      -11.938783
  Si          -3.762947       -0.819583      -11.982487
  Si          -3.758178       -0.321520      -12.026191
  Si          -3.753410        0.176544      -12.069895
  Si          -3.748641        0.674607      -12.113599
  Si          -3.743872        1.172671      -12.157303
  Si          -3.739103        1.670734      -12.201007
  Si          -3.734334        2.168798      -12.244711
  Si          -3.729566        2.666861      -12.288415
  Si          -3.724797        3.164925      -12.332119
  Si          -3.720028        3.662988      -12.375823
  Si          -3.884074      -13.470395      -10.872405
  Si          -3.879306      -12.972332      -10.916109
  Si          -3.874537      -12.474268      -10.959813
  Si          -3.869768      -11.976205      -11.003518
  Si          -3.864999      -11.478141      -11.047222
  Si          -3.860230      -10.980078      -11.090926
  Si          -3.855462      -10.482014      -11.134630
  Si          -3.850693       -9.983951      -11.178334
  Si          -3.845924       -9.485888      -11.222038
  Si          -3.841155       -8.987824      -11.265742
  Si          -3.836387       -8.489761      -11.309446
  Si          -4.620137       -5.849589        6.108528
  Si          -4.615369       -5.351526        6.064824
  Si          -4.610600       -4.853462        6.021120
  Si          -4.605831       -4.355399        5.977416
  Si          -4.601062       -3.857335        5.933712
  Si          -4.596294       -3.359272        5.890008
  Si          -4.591525       -2.861209        5.846304
  Si          -4.586756       -2.363145        5.802600
  Si          -4.581987       -1.865082        5.758896
  Si          -4.577218       -1.367018        5.715192
  Si          -4.572450       -0.868955        5.671488
  Si          -4.561958        0.226785        5.575339
  Si          -4.557189        0.724848        5.531635
  Si          -4.552421        1.222912        5.487931
  Si          -4.547652        1.720975        5.444227
  Si          -4.542883        2.219039        5.400523
  Si          -4.538114        2.717102        5.356819
  Si          -4.533345        3.215166        5.313115
  Si          -4.528577        3.713229        5.269411
  Si          -4.523808        4.211293        5.225707
  Si          -4.519039        4.709356        5.182003
  Si          -4.514270        5.207420        5.138299
  Si          -4.678317      -11.925964        6.641717
  Si          -4.673548      -11.427900        6.598013
  Si          -4.668779      -10.929837        6.554309
  Si          -4.664010      -10.431773        6.510605
  Si          -4.659242       -9.933710        6.466901
  Si          -4.654473       -9.435646        6.423197
  Si          -4.649704       -8.937583        6.379493
  Si          -4.644935       -8.439519        6.335789
  Si          -4.640166       -7.941456        6.292085
  Si          -4.635398       -7.443392        6.248381
  Si          -4.630629       -6.945329        6.204677
  Si          -4.570497       -5.946116        5.013895
  Si          -4.565729       -5.448053        4.970191
  Si          -4.560960       -4.949989        4.926487
  Si          -4.556191       -4.451926        4.882783
  Si          -4.551422       -3.953862        4.839079
  Si          -4.546653       -3.455799        4.795375
  Si          -4.541885       -2.957736        4.751671
  Si          -4.537116       -2.459672        4.707967
  Si          -4.532347       -1.961609        4.664263
  Si          -4.527578       -1.463545        4.620559
  Si          -4.522809       -0.965482        4.576855
  Si          -4.512318        0.130258        4.480706
  Si          -4.507549        0.628321        4.437002
  Si          -4.502780        1.126385        4.393298
  Si          -4.498012        1.624448        4.349594
  Si          -4.493243        2.122512        4.305890
  Si          -4.488474        2.620575        4.262186
  Si          -4.483705        3.118639        4.218482
  Si          -4.478937        3.616702        4.174778
  Si          -4.474168        4.114766        4.131074
  Si          -4.469399        4.612829        4.087370
  Si          -4.464630        5.110893        4.043666
  Si          -4.628677      -12.022491        5.547084
  Si          -4.623908      -11.524427        5.503380
  Si          -4.619139      -11.026364        5.459676
  Si          -4.614370      -10.528300        5.415972
  Si          -4.609601      -10.030237        5.372268
  Si          -4.604833       -9.532173        5.328564
  Si          -4.600064       -9.034110        5.284860
  Si          -4.595295       -8.536046        5.241156
  Si          -4.590526       -8.037983        5.197452
  Si          -4.585757       -7.539919        5.153748
  Si          -4.580989       -7.041856        5.110044
  Si          -4.520857       -6.042643        3.919262
  Si          -4.516088       -5.544580        3.875558
  Si          -4.511320       -5.046516        3.831854
  Si          -4.506551       -4.548453        3.788150
  Si          -4.501782       -4.050389        3.744446
  Si          -4.497013       -3.552326        3.700742
  Si          -4.492244       -3.054263        3.657038
  Si          -4.487476       -2.556199        3.613334
  Si          -4.482707       -2.058136        3.569630
  Si          -4.477938       -1.560072        3.525926
  Si          -4.473169       -1.062009        3.482222
  Si          -4.462678        0.033731        3.386074
  Si          -4.457909        0.531794        3.342369
  Si          -4.453140        1.029858        3.298665
  Si          -4.448372        1.527921        3.254961
  Si          -4.443603        2.025985        3.211257
  Si          -4.438834        2.524048        3.167553
  Si          -4.434065        3.022112        3.123849
  Si          -4.429296        3.520175        3.080145
  Si          -4.424528        4.018239        3.036441
  Si          -4.419759        4.516302        2.992737
  Si          -4.414990        5.014366        2.949033
  Si          -4.579036      -12.119018        4.452451
  Si          -4.574268      -11.620954        4.408747
  Si          -4.569499      -11.122891        4.365043
  Si          -4.564730      -10.624827        4.321339
  Si          -4.559961      -10.126764        4.277635
  Si          -4.555193       -9.628700        4.233931
  Si          -4.550424       -9.130637        4.190227
  Si          -4.545655       -8.632573        4.146523
  Si          -4.540886       -8.134510        4.102819
  Si          -4.536117       -7.636446        4.059115
  Si          -4.531349       -7.138383        4.015411
  Si          -4.471217       -6.139170        2.824630
  Si          -4.466448       -5.641107        2.780926
  Si          -4.461679       -5.143043        2.737222
  Si          -4.456911       -4.644980        2.693518
  Si          -4.452142       -4.146916        2.649814
  Si          -4.447373       -3.648853        2.606110
  Si          -4.442604       -3.150789        2.562406
  Si          -4.437836       -2.652726        2.518702
  Si          -4.433067       -2.154663        2.474998
  Si          -4.428298       -1.656599        2.431294
  Si          -4.423529       -1.158536        2.387590
  Si          -4.413038       -0.062796        2.291441
  Si          -4.408269        0.435267        2.247737
  Si          -4.403500        0.933331        2.204033
  Si          -4.398731        1.431394        2.160329
  Si          -4.393963        1.929458        2.116625
  Si          -4.389194        2.427521        2.072921
  Si          -4.384425        2.925585        2.029217
  Si          -4.379656        3.423648        1.985513
  Si          -4.374887        3.921712        1.941809
  Si          -4.370119        4.419775        1.898105
  Si          -4.365350        4.917839        1.854401
  Si          -4.529396      -12.215545        3.357819
  Si          -4.524628      -11.717481        3.314115
  Si          -4.519859      -11.219418        3.270411
  Si          -4.515090      -10.721354        3.226707
  Si          -4.510321      -10.223291        3.183003
  Si          -4.505552       -9.725227        3.139299
  Si          -4.500784       -9.227164        3.095595
  Si          -4.496015       -8.729100        3.051891
  Si          -4.491246       -8.231037        3.008187
  Si          -4.486477       -7.732973        2.964483
  Si          -4.481708       -7.234910        2.920779
  Si          -4.421577       -6.235697        1.729997
  Si          -4.416808       -5.737634        1.686293
  Si          -4.412039       -5.239570        1.642589
  Si          -4.407271       -4.741507        1.598885
  Si          -4.402502       -4.243443        1.555181
  Si          -4.397733       -3.745380        1.511477
  Si          -4.392964       -3.247316        1.467773
  Si          -4.388195       -2.749253        1.424069
  Si          -4.383427       -2.251190        1.380365
  Si          -4.378658       -1.753126        1.336661
  Si          -4.373889       -1.255063        1.292957
  Si          -4.363398       -0.159323        1.196808
  Si          -4.358629        0.338741        1.153104
  Si          -4.353860        0.836804        1.109400
  Si          -4.349091        1.334867        1.065696
  Si          -4.344322        1.832931        1.021992
  Si          -4.339554        2.330994        0.978288
  Si          -4.334785        2.829058        0.934584
  Si          -4.330016        3.327121        0.890880
  Si          -4.325247        3.825185        0.847176
  Si          -4.320479        4.323248        0.803472
  Si          -4.315710        4.821312        0.759768
  Si          -4.479756      -12.312072        2.263186
  Si          -4.474987      -11.814008        2.219482
  Si          -4.470219      -11.315945        2.175778
  Si          -4.465450      -10.817881        2.132074
  Si          -4.460681      -10.319818        2.088370
  Si          -4.455912       -9.821754        2.044666
  Si          -4.451143       -9.323691        2.000962
  Si          -4.446375       -8.825627        1.957258
  Si          -4.441606       -8.327564        1.913554
  Si          -4.436837       -7.829500        1.869850
  Si          -4.432068       -7.331437        1.826146
  Si          -4.371937       -6.332224        0.635365
  Si          -4.367168       -5.834161        0.591661
  Si          -4.362399       -5.336097        0.547957
  Si          -4.357630       -4.838034        0.504253
  Si          -4.352862       -4.339970        0.460549
  Si          -4.348093       -3.841907        0.416844
  Si          -4.343324       -3.343843        0.373140
  Si          -4.338555       -2.845780        0.329436
  Si          -4.333786       -2.347717        0.285732
  Si          -4.329018       -1.849653        0.242028
  Si          -4.324249       -1.351590        0.198324
  Si          -4.313758       -0.255850        0.102176
  Si          -4.308989        0.242214        0.058472
  Si          -4.304220        0.740277        0.014768
  Si          -4.299451        1.238340       -0.028936
  Si          -4.294682        1.736404       -0.072640
  Si          -4.289914        2.234467       -0.116344
  Si          -4.285145        2.732531       -0.160048
  Si          -4.280376        3.230594       -0.203752
  Si          -4.275607        3.728658       -0.247456
  Si          -4.270838        4.226721       -0.291160
  Si          -4.266070        4.724785       -0.334864
  Si          -4.430116      -12.408599        1.168553
  Si          -4.425347      -11.910535        1.124849
  Si          -4.420578      -11.412472        1.081145
  Si          -4.415810      -10.914408        1.037441
  Si          -4.411041      -10.416345        0.993737
  Si          -4.406272       -9.918281        0.950033
  Si          -4.401503       -9.420218        0.906329
  Si          -4.396734       -8.922154        0.862625
  Si          -4.391966       -8.424091        0.818921
  Si          -4.387197       -7.926027        0.775217
  Si          -4.382428       -7.427964        0.731513
  Si          -4.322297       -6.428751       -0.459268
  Si          -4.317528       -5.930688       -0.502972
  Si          -4.312759       -5.432624       -0.546676
  Si          -4.307990       -4.934561       -0.590380
  Si          -4.303221       -4.436497       -0.634084
  Si          -4.298453       -3.938434       -0.677788
  Si          -4.293684       -3.440370       -0.721492
  Si          -4.288915       -2.942307       -0.765196
  Si          -4.284146       -2.444243       -0.808900
  Si          -4.279377       -1.946180       -0.852604
  Si          -4.274609       -1.448117       -0.896308
  Si          -4.264117       -0.352377       -0.992457
  Si          -4.259349        0.145687       -1.036161
  Si          -4.254580        0.643750       -1.079865
  Si          -4.249811        1.141813       -1.123569
  Si          -4.245042        1.639877       -1.167273
  Si          -4.240273        2.137940       -1.210977
  Si          -4.235505        2.636004       -1.254681
  Si          -4.230736        3.134067       -1.298385
  Si          -4.225967        3.632131       -1.342089
  Si          -4.221198        4.130194       -1.385793
  Si          -4.216429        4.628258       -1.429497
  Si          -4.380476      -12.505126        0.073921
  Si          -4.375707      -12.007062        0.030217
  Si          -4.370938      -11.508999       -0.013487
  Si          -4.366170      -11.010935       -0.057191
  Si          -4.361401      -10.512872       -0.100895
  Si          -4.356632      -10.014808       -0.144599
  Si          -4.351863       -9.516745       -0.188303
  Si          -4.347094       -9.018681       -0.232007
  Si          -4.342326       -8.520618       -0.275711
  Si          -4.337557       -8.022554       -0.319415
  Si          -4.332788       -7.524491       -0.363119
  Si          -4.272656       -6.525278       -1.553901
  Si          -4.267888       -6.027215       -1.597605
  Si          -4.263119       -5.529151       -1.641309
  Si          -4.258350       -5.031088       -1.685013
  Si          -4.253581       -4.533024       -1.728717
  Si          -4.248813       -4.034961       -1.772421
  Si          -4.244044       -3.536897       -1.816125
  Si          -4.239275       -3.038834       -1.859829
  Si          -4.234506       -2.540770       -1.903533
  Si          -4.229737       -2.042707       -1.947237
  Si          -4.224969       -1.544644       -1.990941
  Si          -4.214477       -0.448904       -2.087090
  Si          -4.209708        0.049160       -2.130794
  Si          -4.204940        0.547223       -2.174498
  Si          -4.200171        1.045287       -2.218202
  Si          -4.195402        1.543350       -2.261906
  Si          -4.190633        2.041413       -2.305610
  Si          -4.185864        2.539477       -2.349314
  Si          -4.181096        3.037540       -2.393018
  Si          -4.176327        3.535604       -2.436722
  Si          -4.171558        4.033667       -2.480426
  Si          -4.166789        4.531731       -2.524130
  Si          -4.330836      -12.601653       -1.020712
  Si          -4.326067      -12.103589       -1.064416
  Si          -4.321298      -11.605526       -1.108120
  Si          -4.316529      -11.107462       -1.151824
  Si          -4.311761      -10.609399       -1.195528
  Si          -4.306992      -10.111335       -1.239232
  Si          -4.302223       -9.613272       -1.282936
  Si          -4.297454       -9.115208       -1.326640
  Si          -4.292685       -8.617145       -1.370344
  Si          -4.287917       -8.119081       -1.414048
  Si          -4.283148       -7.621018       -1.457752
  Si          -3.124186       -6.627906       -2.598165
  Si          -3.119417       -6.129843       -2.641869
  Si          -3.114648       -5.631779       -2.685573
  Si          -3.109880       -5.133716       -2.729277
  Si          -3.105111       -4.635653       -2.772981
  Si          -3.100342       -4.137589       -2.816685
  Si          -3.095573       -3.639526       -2.860389
  Si          -3.090805       -3.141462       -2.904093
  Si          -3.086036       -2.643399       -2.947797
  Si          -3.081267       -2.145335       -2.991501
  Si          -3.076498       -1.647272       -3.035205
  Si          -3.066007       -0.551532       -3.131354
  Si          -3.061238       -0.053469       -3.175058
  Si          -3.056469        0.444595       -3.218762
  Si          -3.051700        0.942658       -3.262466
  Si          -3.046932        1.440722       -3.306170
  Si          -3.042163        1.938785       -3.349874
  Si          -3.037394        2.436849       -3.393578
  Si          -3.032625        2.934912       -3.437282
  Si          -3.027856        3.432976       -3.480986
  Si          -3.023088        3.931039       -3.524690
  Si          -3.018319        4.429103       -3.568394
  Si          -3.182365      -12.704281       -2.064976
  Si          -3.177597      -12.206217       -2.108680
  Si          -3.172828      -11.708154       -2.152384
  Si          -3.168059      -11.210090       -2.196088
  Si          -3.163290      -10.712027       -2.239792
  Si          -3.158521      -10.213963       -2.283496
  Si          -3.153753       -9.715900       -2.327200
  Si          -3.148984       -9.217836       -2.370904
  Si          -3.144215       -8.719773       -2.414608
  Si          -3.139446       -8.221709       -2.458312
  Si          -3.134677       -7.723646       -2.502016
  Si          -3.074546       -6.724433       -3.692797
  Si          -3.069777       -6.226370       -3.736501
  Si          -3.065008       -5.728306       -3.780205
  Si          -3.060240       -5.230243       -3.823909
  Si          -3.055471       -4.732179       -3.867614
  Si          -3.050702       -4.234116       -3.911318
  Si          -3.045933       -3.736053       -3.955022
  Si          -3.041164       -3.237989       -3.998726
  Si          -3.036396       -2.739926       -4.042430
  Si          -3.031627       -2.241862       -4.086134
  Si          -3.026858       -1.743799       -4.129838
  Si          -3.016367       -0.648059       -4.225986
  Si          -3.011598       -0.149996       -4.269690
  Si          -3.006829        0.348068       -4.313394
  Si          -3.002060        0.846131       -4.357098
  Si          -2.997291        1.344195       -4.400802
  Si          -2.992523        1.842258       -4.444506
  Si          -2.987754        2.340322       -4.488210
  Si          -2.982985        2.838385       -4.531914
  Si          -2.978216        3.336449       -4.575618
  Si          -2.973448        3.834512       -4.619322
  Si          -2.968679        4.332576       -4.663027
  Si          -3.132725      -12.800808       -3.159609
  Si          -3.127956      -12.302744       -3.203313
  Si          -3.123188      -11.804681       -3.247017
  Si          -3.118419      -11.306617       -3.290721
  Si          -3.113650      -10.808554       -3.334425
  Si          -3.108881      -10.310490       -3.378129
  Si          -3.104112       -9.812427       -3.421833
  Si          -3.099344       -9.314363       -3.465537
  Si          -3.094575       -8.816300       -3.509241
  Si          -3.089806       -8.318236       -3.552945
  Si          -3.085037       -7.820173       -3.596649
  Si          -3.024906       -6.820960       -4.787430
  Si          -3.020137       -6.322897       -4.831134
  Si          -3.015368       -5.824833       -4.874838
  Si          -3.010599       -5.326770       -4.918542
  Si          -3.005831       -4.828706       -4.962246
  Si          -3.001062       -4.330643       -5.005950
  Si          -2.996293       -3.832580       -5.049654
  Si          -2.991524       -3.334516       -5.093358
  Si          -2.986755       -2.836453       -5.137062
  Si          -2.981987       -2.338389       -5.180766
  Si          -2.977218       -1.840326       -5.224470
  Si          -2.966727       -0.744586       -5.320619
  Si          -2.961958       -0.246523       -5.364323
  Si          -2.957189        0.251541       -5.408027
  Si          -2.952420        0.749604       -5.451731
  Si          -2.947651        1.247668       -5.495435
  Si          -2.942883        1.745731       -5.539139
  Si          -2.938114        2.243795       -5.582843
  Si          -2.933345        2.741858       -5.626547
  Si          -2.928576        3.239922       -5.670251
  Si          -2.923807        3.737985       -5.713955
  Si          -2.919039        4.236049       -5.757659
  Si          -3.083085      -12.897335       -4.254241
  Si          -3.078316      -12.399271       -4.297945
  Si          -3.073547      -11.901208       -4.341649
  Si          -3.068779      -11.403144       -4.385353
  Si          -3.064010      -10.905081       -4.429057
  Si          -3.059241      -10.407017       -4.472761
  Si          -3.054472       -9.908954       -4.516465
  Si          -3.049703       -9.410890       -4.560169
  Si          -3.044935       -8.912827       -4.603873
  Si          -3.040166       -8.414763       -4.647577
  Si          -3.035397       -7.916700       -4.691281
  Si          -2.975266       -6.917487       -5.882063
  Si          -2.970497       -6.419424       -5.925767
  Si          -2.965728       -5.921360       -5.969471
  Si          -2.960959       -5.423297       -6.013175
  Si          -2.956190       -4.925233       -6.056879
  Si          -2.951422       -4.427170       -6.100583
  Si          -2.946653       -3.929106       -6.144287
  Si          -2.941884       -3.431043       -6.187991
  Si          -2.937115       -2.932980       -6.231695
  Si          -2.932347       -2.434916       -6.275399
  Si          -2.927578       -1.936853       -6.319103
  Si          -2.917086       -0.841113       -6.415252
  Si          -2.912318       -0.343050       -6.458956
  Si          -2.907549        0.155014       -6.502660
  Si          -2.902780        0.653077       -6.546364
  Si          -2.898011        1.151141       -6.590068
  Si          -2.893242        1.649204       -6.633772
  Si          -2.888474        2.147268       -6.677476
  Si          -2.883705        2.645331       -6.721180
  Si          -2.878936        3.143395       -6.764884
  Si          -2.874167        3.641458       -6.808588
  Si          -2.869398        4.139522       -6.852292
  Si          -3.033445      -12.993862       -5.348874
  Si          -3.028676      -12.495798       -5.392578
  Si          -3.023907      -11.997735       -5.436282
  Si          -3.019139      -11.499671       -5.479986
  Si          -3.014370      -11.001608       -5.523690
  Si          -3.009601      -10.503544       -5.567394
  Si          -3.004832      -10.005481       -5.611098
  Si          -3.000063       -9.507417       -5.654802
  Si          -2.995295       -9.009354       -5.698506
  Si          -2.990526       -8.511290       -5.742210
  Si          -2.985757       -8.013227       -5.785914
  Si          -2.925625       -7.014014       -6.976695
  Si          -2.920857       -6.515951       -7.020399
  Si          -2.916088       -6.017887       -7.064103
  Si          -2.911319       -5.519824       -7.107807
  Si          -2.906550       -5.021760       -7.151511
  Si          -2.901782       -4.523697       -7.195215
  Si          -2.897013       -4.025633       -7.238919
  Si          -2.892244       -3.527570       -7.282623
  Si          -2.887475       -3.029507       -7.326327
  Si          -2.882706       -2.531443       -7.370031
  Si          -2.877938       -2.033380       -7.413735
  Si          -2.867446       -0.937640       -7.509884
  Si          -2.862677       -0.439577       -7.553588
  Si          -2.857909        0.058487       -7.597292
  Si          -2.853140        0.556550       -7.640996
  Si          -2.848371        1.054614       -7.684700
  Si          -2.843602        1.552677       -7.728404
  Si          -2.838833        2.050741       -7.772108
  Si          -2.834065        2.548804       -7.815812
  Si          -2.829296        3.046868       -7.859516
  Si          -2.824527        3.544931       -7.903220
  Si          -2.819758        4.042995       -7.946924
  Si          -2.983805      -13.090389       -6.443506
  Si          -2.979036      -12.592325       -6.487210
  Si          -2.974267      -12.094262       -6.530914
  Si          -2.969498      -11.596198       -6.574618
  Si          -2.964730      -11.098135       -6.618322
  Si          -2.959961      -10.600071       -6.662026
  Si          -2.955192      -10.102008       -6.705730
  Si          -2.950423       -9.603944       -6.749435
  Si          -2.945654       -9.105881       -6.793139
  Si          -2.940886       -8.607817       -6.836843
  Si          -2.936117       -8.109754       -6.880547
  Si          -2.875985       -7.110541       -8.071328
  Si          -2.871217       -6.612478       -8.115032
  Si          -2.866448       -6.114414       -8.158736
  Si          -2.861679       -5.616351       -8.202440
  Si          -2.856910       -5.118287       -8.246144
  Si          -2.852141       -4.620224       -8.289848
  Si          -2.847373       -4.122160       -8.333552
  Si          -2.842604       -3.624097       -8.377256
  Si          -2.837835       -3.126034       -8.420960
  Si          -2.833066       -2.627970       -8.464664
  Si          -2.828297       -2.129907       -8.508368
  Si          -2.817806       -1.034167       -8.604517
  Si          -2.813037       -0.536103       -8.648221
  Si          -2.808268       -0.038040       -8.691925
  Si          -2.803500        0.460023       -8.735629
  Si          -2.798731        0.958087       -8.779333
  Si          -2.793962        1.456150       -8.823037
  Si          -2.789193        1.954214       -8.866741
  Si          -2.784425        2.452277       -8.910445
  Si          -2.779656        2.950341       -8.954149
  Si          -2.774887        3.448404       -8.997853
  Si          -2.770118        3.946468       -9.041557
  Si          -2.934165      -13.186916       -7.538139
  Si          -2.929396      -12.688852       -7.581843
  Si          -2.924627      -12.190789       -7.625547
  Si          -2.919858      -11.692725       -7.669251
  Si          -2.915089      -11.194662       -7.712955
  Si          -2.910321      -10.696598       -7.756659
  Si          -2.905552      -10.198535       -7.800363
  Si          -2.900783       -9.700471       -7.844067
  Si          -2.896014       -9.202408       -7.887771
  Si          -2.891245       -8.704344       -7.931475
  Si          -2.886477       -8.206281       -7.975179
  Si          -2.826345       -7.207068       -9.165961
  Si          -2.821576       -6.709005       -9.209665
  Si          -2.816808       -6.210941       -9.253369
  Si          -2.812039       -5.712878       -9.297073
  Si          -2.807270       -5.214814       -9.340777
  Si          -2.802501       -4.716751       -9.384481
  Si          -2.797732       -4.218687       -9.428185
  Si          -2.792964       -3.720624       -9.471889
  Si          -2.788195       -3.222560       -9.515593
  Si          -2.783426       -2.724497       -9.559297
  Si          -2.778657       -2.226434       -9.603001
  Si          -2.768166       -1.130694       -9.699150
  Si          -2.763397       -0.632630       -9.742854
  Si          -2.758628       -0.134567       -9.786558
  Si          -2.753860        0.363496       -9.830262
  Si          -2.749091        0.861560       -9.873966
  Si          -2.744322        1.359623       -9.917670
  Si          -2.739553        1.857687       -9.961374
  Si          -2.734784        2.355750      -10.005078
  Si          -2.730016        2.853814      -10.048782
  Si          -2.725247        3.351877      -10.092486
  Si          -2.720478        3.849941      -10.136190
  Si          -2.884524      -13.283443       -8.632772
  Si          -2.879756      -12.785379       -8.676476
  Si          -2.874987      -12.287316       -8.720180
  Si          -2.870218      -11.789252       -8.763884
  Si          -2.865449      -11.291189       -8.807588
  Si          -2.860680      -10.793125       -8.851292
  Si          -2.855912      -10.295062       -8.894996
  Si          -2.851143       -9.796998       -8.938700
  Si          -2.846374       -9.298935       -8.982404
  Si          -2.841605       -8.800871       -9.026108
  Si          -2.836837       -8.302808       -9.069812
  Si          -2.776705       -7.303595      -10.260593
  Si          -2.771936       -6.805532      -10.304297
  Si          -2.767167       -6.307468      -10.348001
  Si          -2.762399       -5.809405      -10.391705
  Si          -2.757630       -5.311341      -10.435409
  Si          -2.752861       -4.813278      -10.479113
  Si          -2.748092       -4.315214      -10.522817
  Si          -2.743324       -3.817151      -10.566521
  Si          -2.738555       -3.319087      -10.610225
  Si          -2.733786       -2.821024      -10.653929
  Si          -2.729017       -2.322961      -10.697633
  Si          -2.718526       -1.227221      -10.793782
  Si          -2.713757       -0.729157      -10.837486
  Si          -2.708988       -0.231094      -10.881190
  Si          -2.704219        0.266970      -10.924894
  Si          -2.699451        0.765033      -10.968598
  Si          -2.694682        1.263096      -11.012302
  Si          -2.689913        1.761160      -11.056006
  Si          -2.685144        2.259223      -11.099710
  Si          -2.680375        2.757287      -11.143414
  Si          -2.675607        3.255350      -11.187118
  Si          -2.670838        3.753414      -11.230822
  Si          -2.834884      -13.379970       -9.727404
  Si          -2.830116      -12.881906       -9.771108
  Si          -2.825347      -12.383843       -9.814812
  Si          -2.820578      -11.885779       -9.858516
  Si          -2.815809      -11.387716       -9.902220
  Si          -2.811040      -10.889652       -9.945924
  Si          -2.806272      -10.391589       -9.989628
  Si          -2.801503       -9.893525      -10.033332
  Si          -2.796734       -9.395462      -10.077036
  Si          -2.791965       -8.897398      -10.120740
  Si          -2.787196       -8.399335      -10.164444
  Si          -2.727065       -7.400122      -11.355226
  Si          -2.722296       -6.902059      -11.398930
  Si          -2.717527       -6.403995      -11.442634
  Si          -2.712759       -5.905932      -11.486338
  Si          -2.707990       -5.407868      -11.530042
  Si          -2.703221       -4.909805      -11.573746
  Si          -2.698452       -4.411741      -11.617450
  Si          -2.693683       -3.913678      -11.661154
  Si          -2.688915       -3.415614      -11.704858
  Si          -2.684146       -2.917551      -11.748562
  Si          -2.679377       -2.419488      -11.792266
  Si          -2.668886       -1.323748      -11.888415
  Si          -2.664117       -0.825684      -11.932119
  Si          -2.659348       -0.327621      -11.975823
  Si          -2.654579        0.170443      -12.019527
  Si          -2.649810        0.668506      -12.063231
  Si          -2.645042        1.166569      -12.106935
  Si          -2.640273        1.664633      -12.150639
  Si          -2.635504        2.162696      -12.194343
  Si          -2.630735        2.660760      -12.238047
  Si          -2.625967        3.158823      -12.281751
  Si          -2.621198        3.656887      -12.325455
  Si          -2.785244      -13.476496      -10.822037
  Si          -2.780475      -12.978433      -10.865741
  Si          -2.775707      -12.480370      -10.909445
  Si          -2.770938      -11.982306      -10.953149
  Si          -2.766169      -11.484243      -10.996853
  Si          -2.761400      -10.986179      -11.040557
  Si          -2.756631      -10.488116      -11.084261
  Si          -2.751863       -9.990052      -11.127965
  Si          -2.747094       -9.491989      -11.171669
  Si          -2.742325       -8.993925      -11.215373
  Si          -2.737556       -8.495862      -11.259077
  Si          -3.521307       -5.855691        6.158896
  Si          -3.516538       -5.357627        6.115192
  Si          -3.511770       -4.859564        6.071488
  Si          -3.507001       -4.361500        6.027784
  Si          -3.502232       -3.863437        5.984080
  Si          -3.497463       -3.365373        5.940376
  Si          -3.492694       -2.867310        5.896672
  Si          -3.487926       -2.369246        5.852968
  Si          -3.483157       -1.871183        5.809264
  Si          -3.478388       -1.373119        5.765560
  Si          -3.473619       -0.875056        5.721856
  Si          -3.463128        0.220684        5.625707
  Si          -3.458359        0.718747        5.582003
  Si          -3.453590        1.216811        5.538299
  Si          -3.448822        1.714874        5.494595
  Si          -3.444053        2.212938        5.450891
  Si          -3.439284        2.711001        5.407187
  Si          -3.434515        3.209065        5.363483
  Si          -3.429746        3.707128        5.319779
  Si          -3.424978        4.205191        5.276075
  Si          -3.420209        4.703255        5.232371
  Si          -3.415440        5.201318        5.188667
  Si          -3.579486      -11.932065        6.692085
  Si          -3.574718      -11.434001        6.648381
  Si          -3.569949      -10.935938        6.604677
  Si          -3.565180      -10.437874        6.560973
  Si          -3.560411       -9.939811        6.517269
  Si          -3.555643       -9.441748        6.473565
  Si          -3.550874       -8.943684        6.429861
  Si          -3.546105       -8.445621        6.386157
  Si          -3.541336       -7.947557        6.342453
  Si          -3.536567       -7.449494        6.298749
  Si          -3.531799       -6.951430        6.255045
  Si          -3.471667       -5.952218        5.064264
  Si          -3.466898       -5.454154        5.020560
  Si          -3.462129       -4.956091        4.976856
  Si          -3.457361       -4.458027        4.933152
  Si          -3.452592       -3.959964        4.889448
  Si          -3.447823       -3.461900        4.845744
  Si          -3.443054       -2.963837        4.802040
  Si          -3.438286       -2.465773        4.758336
  Si          -3.433517       -1.967710        4.714632
  Si          -3.428748       -1.469646        4.670927
  Si          -3.423979       -0.971583        4.627223
  Si          -3.413488        0.124157        4.531075
  Si          -3.408719        0.622220        4.487371
  Si          -3.403950        1.120284        4.443667
  Si          -3.399181        1.618347        4.399963
  Si          -3.394413        2.116411        4.356259
  Si          -3.389644        2.614474        4.312555
  Si          -3.384875        3.112538        4.268851
  Si          -3.380106        3.610601        4.225147
  Si          -3.375337        4.108665        4.181443
  Si          -3.370569        4.606728        4.137739
  Si          -3.365800        5.104791        4.094035
  Si          -3.529846      -12.028592        5.597453
  Si          -3.525078      -11.530528        5.553749
  Si          -3.520309      -11.032465        5.510045
  Si          -3.515540      -10.534401        5.466340
  Si          -3.510771      -10.036338        5.422636
  Si          -3.506002       -9.538275        5.378932
  Si          -3.501234       -9.040211        5.335228
  Si          -3.496465       -8.542148        5.291524
  Si          -3.491696       -8.044084        5.247820
  Si          -3.486927       -7.546021        5.204116
  Si          -3.482158       -7.047957        5.160412
  Si          -3.422027       -6.048745        3.969631
  Si          -3.417258       -5.550681        3.925927
  Si          -3.412489       -5.052618        3.882223
  Si          -3.407721       -4.554554        3.838519
  Si          -3.402952       -4.056491        3.794815
  Si          -3.398183       -3.558427        3.751111
  Si          -3.393414       -3.060364        3.707407
  Si          -3.388645       -2.562300        3.663703
  Si          -3.383877       -2.064237        3.619999
  Si          -3.379108       -1.566173        3.576295
  Si          -3.374339       -1.068110        3.532591
  Si          -3.363848        0.027630        3.436442
  Si          -3.359079        0.525693        3.392738
  Si          -3.354310        1.023757        3.349034
  Si          -3.349541        1.521820        3.305330
  Si          -3.344772        2.019884        3.261626
  Si          -3.340004        2.517947        3.217922
  Si          -3.335235        3.016011        3.174218
  Si          -3.330466        3.514074        3.130514
  Si          -3.325697        4.012138        3.086810
  Si          -3.320929        4.510201        3.043106
  Si          -3.316160        5.008264        2.999402
  Si          -3.480206      -12.125119        4.502820
  Si          -3.475437      -11.627055        4.459116
  Si          -3.470669      -11.128992        4.415412
  Si          -3.465900      -10.630928        4.371708
  Si          -3.461131      -10.132865        4.328004
  Si          -3.456362       -9.634801        4.284300
  Si          -3.451593       -9.136738        4.240596
  Si          -3.446825       -8.638675        4.196892
  Si          -3.442056       -8.140611        4.153188
  Si          -3.437287       -7.642548        4.109484
  Si          -3.432518       -7.144484        4.065780
  Si          -3.372387       -6.145271        2.874998
  Si          -3.367618       -5.647208        2.831294
  Si          -3.362849       -5.149145        2.787590
  Si          -3.358080       -4.651081        2.743886
  Si          -3.353312       -4.153018        2.700182
  Si          -3.348543       -3.654954        2.656478
  Si          -3.343774       -3.156891        2.612774
  Si          -3.339005       -2.658827        2.569070
  Si          -3.334236       -2.160764        2.525366
  Si          -3.329468       -1.662700        2.481662
  Si          -3.324699       -1.164637        2.437958
  Si          -3.314208       -0.068897        2.341809
  Si          -3.309439        0.429166        2.298105
  Si          -3.304670        0.927230        2.254401
  Si          -3.299901        1.425293        2.210697
  Si          -3.295132        1.923357        2.166993
  Si          -3.290364        2.421420        2.123289
  Si          -3.285595        2.919484        2.079585
  Si          -3.280826        3.417547        2.035881
  Si          -3.276057        3.915611        1.992177
  Si          -3.271288        4.413674        1.948473
  Si          -3.266520        4.911737        1.904769
  Si          -3.430566      -12.221646        3.408187
  Si          -3.425797      -11.723582        3.364483
  Si          -3.421028      -11.225519        3.320779
  Si          -3.416260      -10.727455        3.277075
  Si          -3.411491      -10.229392        3.233371
  Si          -3.406722       -9.731328        3.189667
  Si          -3.401953       -9.233265        3.145963
  Si          -3.397184       -8.735202        3.102259
  Si          -3.392416       -8.237138        3.058555
  Si          -3.387647       -7.739075        3.014851
  Si          -3.382878       -7.241011        2.971147
  Si          -3.322747       -6.241798        1.780366
  Si          -3.317978       -5.743735        1.736662
  Si          -3.313209       -5.245672        1.692958
  Si          -3.308440       -4.747608        1.649254
  Si          -3.303671       -4.249545        1.605550
  Si          -3.298903       -3.751481        1.561846
  Si          -3.294134       -3.253418        1.518142
  Si          -3.289365       -2.755354        1.474438
  Si          -3.284596       -2.257291        1.430734
  Si          -3.279828       -1.759227        1.387030
  Si          -3.275059       -1.261164        1.343326
  Si          -3.264567       -0.165424        1.247177
  Si          -3.259799        0.332639        1.203473
  Si          -3.255030        0.830703        1.159769
  Si          -3.250261        1.328766        1.116065
  Si          -3.245492        1.826830        1.072361
  Si          -3.240723        2.324893        1.028657
  Si          -3.235955        2.822957        0.984953
  Si          -3.231186        3.321020        0.941249
  Si          -3.226417        3.819084        0.897545
  Si          -3.221648        4.317147        0.853841
  Si          -3.216879        4.815211        0.810137
  Si          -3.380926      -12.318173        2.313555
  Si          -3.376157      -11.820109        2.269851
  Si          -3.371388      -11.322046        2.226147
  Si          -3.366620      -10.823982        2.182443
  Si          -3.361851      -10.325919        2.138739
  Si          -3.357082       -9.827855        2.095035
  Si          -3.352313       -9.329792        2.051331
  Si          -3.347544       -8.831729        2.007627
  Si          -3.342776       -8.333665        1.963923
  Si          -3.338007       -7.835602        1.920219
  Si          -3.333238       -7.337538        1.876515
  Si          -3.273106       -6.338325        0.685733
  Si          -3.268338       -5.840262        0.642029
  Si          -3.263569       -5.342199        0.598325
  Si          -3.258800       -4.844135        0.554621
  Si          -3.254031       -4.346072        0.510917
  Si          -3.249263       -3.848008        0.467213
  Si          -3.244494       -3.349945        0.423509
  Si          -3.239725       -2.851881        0.379805
  Si          -3.234956       -2.353818        0.336101
  Si          -3.230187       -1.855754        0.292397
  Si          -3.225419       -1.357691        0.248693
  Si          -3.214927       -0.261951        0.152544
  Si          -3.210158        0.236112        0.108840
  Si          -3.205390        0.734176        0.065136
  Si          -3.200621        1.232239        0.021432
  Si          -3.195852        1.730303       -0.022272
  Si          -3.191083        2.228366       -0.065976
  Si          -3.186314        2.726430       -0.109680
  Si          -3.181546        3.224493       -0.153384
  Si          -3.176777        3.722557       -0.197088
  Si          -3.172008        4.220620       -0.240792
  Si          -3.167239        4.718684       -0.284496
  Si          -3.331286      -12.414700        1.218922
  Si          -3.326517      -11.916636        1.175218
  Si          -3.321748      -11.418573        1.131514
  Si          -3.316979      -10.920509        1.087810
  Si          -3.312211      -10.422446        1.044106
  Si          -3.307442       -9.924382        1.000402
  Si          -3.302673       -9.426319        0.956698
  Si          -3.297904       -8.928255        0.912994
  Si          -3.293135       -8.430192        0.869290
  Si          -3.288367       -7.932129        0.825586
  Si          -3.283598       -7.434065        0.781882
  Si          -3.223466       -6.434852       -0.408900
  Si          -3.218698       -5.936789       -0.452604
  Si          -3.213929       -5.438725       -0.496308
  Si          -3.209160       -4.940662       -0.540012
  Si          -3.204391       -4.442599       -0.583716
  Si          -3.199622       -3.944535       -0.627420
  Si          -3.194854       -3.446472       -0.671124
  Si          -3.190085       -2.948408       -0.714828
  Si          -3.185316       -2.450345       -0.758532
  Si          -3.180547       -1.952281       -0.802236
  Si          -3.175778       -1.454218       -0.845940
  Si          -3.165287       -0.358478       -0.942089
  Si          -3.160518        0.139585       -0.985793
  Si          -3.155749        0.637649       -1.029497
  Si          -3.150981        1.135712       -1.073201
  Si          -3.146212        1.633776       -1.116905
  Si          -3.141443        2.131839       -1.160609
  Si          -3.136674        2.629903       -1.204313
  Si          -3.131906        3.127966       -1.248017
  Si          -3.127137        3.626030       -1.291721
  Si          -3.122368        4.124093       -1.335425
  Si          -3.117599        4.622157       -1.379129
  Si          -3.281646      -12.511227        0.124289
  Si          -3.276877      -12.013163        0.080585
  Si          -3.272108      -11.515100        0.036881
  Si          -3.267339      -11.017036       -0.006823
  Si          -3.262570      -10.518973       -0.050527
  Si          -3.257802      -10.020909       -0.094231
  Si          -3.253033       -9.522846       -0.137935
  Si          -3.248264       -9.024782       -0.181639
  Si          -3.243495       -8.526719       -0.225343
  Si          -3.238726       -8.028656       -0.269047
  Si          -3.233958       -7.530592       -0.312751
  Si          -3.173826       -6.531379       -1.503532
  Si          -3.169057       -6.033316       -1.547236
  Si          -3.164289       -5.535252       -1.590940
  Si          -3.159520       -5.037189       -1.634644
  Si          -3.154751       -4.539126       -1.678348
  Si          -3.149982       -4.041062       -1.722052
  Si          -3.145213       -3.542999       -1.765756
  Si          -3.140445       -3.044935       -1.809460
  Si          -3.135676       -2.546872       -1.853164
  Si          -3.130907       -2.048808       -1.896868
  Si          -3.126138       -1.550745       -1.940572
  Si          -3.115647       -0.455005       -2.036721
  Si          -3.110878        0.043058       -2.080425
  Si          -3.106109        0.541122       -2.124129
  Si          -3.101341        1.039185       -2.167833
  Si          -3.096572        1.537249       -2.211537
  Si          -3.091803        2.035312       -2.255241
  Si          -3.087034        2.533376       -2.298945
  Si          -3.082265        3.031439       -2.342649
  Si          -3.077497        3.529503       -2.386353
  Si          -3.072728        4.027566       -2.430057
  Si          -3.067959        4.525630       -2.473761
  Si          -3.232005      -12.607754       -0.970343
  Si          -3.227237      -12.109690       -1.014047
  Si          -3.222468      -11.611627       -1.057751
  Si          -3.217699      -11.113563       -1.101455
  Si          -3.212930      -10.615500       -1.145159
  Si          -3.208162      -10.117436       -1.188863
  Si          -3.203393       -9.619373       -1.232567
  Si          -3.198624       -9.121309       -1.276271
  Si          -3.193855       -8.623246       -1.319975
  Si          -3.189086       -8.125182       -1.363679
  Si          -3.184318       -7.627119       -1.407383
  Si          -2.025356       -6.634008       -2.547796
  Si          -2.020587       -6.135944       -2.591500
  Si          -2.015818       -5.637881       -2.635204
  Si          -2.011049       -5.139817       -2.678908
  Si          -2.006281       -4.641754       -2.722612
  Si          -2.001512       -4.143690       -2.766316
  Si          -1.996743       -3.645627       -2.810020
  Si          -1.991974       -3.147563       -2.853724
  Si          -1.987205       -2.649500       -2.897428
  Si          -1.982437       -2.151436       -2.941132
  Si          -1.977668       -1.653373       -2.984836
  Si          -1.967177       -0.557633       -3.080985
  Si          -1.962408       -0.059570       -3.124689
  Si          -1.957639        0.438494       -3.168393
  Si          -1.952870        0.936557       -3.212097
  Si          -1.948101        1.434621       -3.255801
  Si          -1.943333        1.932684       -3.299505
  Si          -1.938564        2.430748       -3.343209
  Si          -1.933795        2.928811       -3.386913
  Si          -1.929026        3.426874       -3.430617
  Si          -1.924257        3.924938       -3.474321
  Si          -1.919489        4.423001       -3.518025
  Si          -2.083535      -12.710382       -2.014607
  Si          -2.078766      -12.212318       -2.058311
  Si          -2.073997      -11.714255       -2.102015
  Si          -2.069229      -11.216191       -2.145719
  Si          -2.064460      -10.718128       -2.189423
  Si          -2.059691      -10.220065       -2.233127
  Si          -2.054922       -9.722001       -2.276831
  Si          -2.050153       -9.223938       -2.320535
  Si          -2.045385       -8.725874       -2.364239
  Si          -2.040616       -8.227811       -2.407943
  Si          -2.035847       -7.729747       -2.451647
  Si          -1.975716       -6.730535       -3.642429
  Si          -1.970947       -6.232471       -3.686133
  Si          -1.966178       -5.734408       -3.729837
  Si          -1.961409       -5.236344       -3.773541
  Si          -1.956640       -4.738281       -3.817245
  Si          -1.951872       -4.240217       -3.860949
  Si          -1.947103       -3.742154       -3.904653
  Si          -1.942334       -3.244090       -3.948357
  Si          -1.937565       -2.746027       -3.992061
  Si          -1.932797       -2.247963       -4.035765
  Si          -1.928028       -1.749900       -4.079469
  Si          -1.917536       -0.654160       -4.175618
  Si          -1.912768       -0.156097       -4.219322
  Si          -1.907999        0.341967       -4.263026
  Si          -1.903230        0.840030       -4.306730
  Si          -1.898461        1.338094       -4.350434
  Si          -1.893692        1.836157       -4.394138
  Si          -1.888924        2.334221       -4.437842
  Si          -1.884155        2.832284       -4.481546
  Si          -1.879386        3.330347       -4.525250
  Si          -1.874617        3.828411       -4.568954
  Si          -1.869848        4.326474       -4.612658
  Si          -2.033895      -12.806909       -3.109240
  Si          -2.029126      -12.308845       -3.152944
  Si          -2.024357      -11.810782       -3.196648
  Si          -2.019589      -11.312718       -3.240352
  Si          -2.014820      -10.814655       -3.284056
  Si          -2.010051      -10.316592       -3.327760
  Si          -2.005282       -9.818528       -3.371464
  Si          -2.000513       -9.320465       -3.415168
  Si          -1.995745       -8.822401       -3.458872
  Si          -1.990976       -8.324338       -3.502576
  Si          -1.986207       -7.826274       -3.546280
  Si          -1.926075       -6.827062       -4.737062
  Si          -1.921307       -6.328998       -4.780766
  Si          -1.916538       -5.830935       -4.824470
  Si          -1.911769       -5.332871       -4.868174
  Si          -1.907000       -4.834808       -4.911878
  Si          -1.902232       -4.336744       -4.955582
  Si          -1.897463       -3.838681       -4.999286
  Si          -1.892694       -3.340617       -5.042990
  Si          -1.887925       -2.842554       -5.086694
  Si          -1.883156       -2.344490       -5.130398
  Si          -1.878388       -1.846427       -5.174102
  Si          -1.867896       -0.750687       -5.270251
  Si          -1.863127       -0.252624       -5.313955
  Si          -1.858359        0.245440       -5.357659
  Si          -1.853590        0.743503       -5.401363
  Si          -1.848821        1.241567       -5.445067
  Si          -1.844052        1.739630       -5.488771
  Si          -1.839283        2.237694       -5.532475
  Si          -1.834515        2.735757       -5.576179
  Si          -1.829746        3.233821       -5.619883
  Si          -1.824977        3.731884       -5.663587
  Si          -1.820208        4.229947       -5.707291
  Si          -1.984255      -12.903436       -4.203873
  Si          -1.979486      -12.405372       -4.247577
  Si          -1.974717      -11.907309       -4.291281
  Si          -1.969948      -11.409245       -4.334985
  Si          -1.965180      -10.911182       -4.378689
  Si          -1.960411      -10.413119       -4.422393
  Si          -1.955642       -9.915055       -4.466097
  Si          -1.950873       -9.416992       -4.509801
  Si          -1.946104       -8.918928       -4.553505
  Si          -1.941336       -8.420865       -4.597209
  Si          -1.936567       -7.922801       -4.640913
  Si          -1.876435       -6.923589       -5.831694
  Si          -1.871667       -6.425525       -5.875398
  Si          -1.866898       -5.927462       -5.919102
  Si          -1.862129       -5.429398       -5.962806
  Si          -1.857360       -4.931335       -6.006510
  Si          -1.852591       -4.433271       -6.050214
  Si          -1.847823       -3.935208       -6.093918
  Si          -1.843054       -3.437144       -6.137622
  Si          -1.838285       -2.939081       -6.181326
  Si          -1.833516       -2.441017       -6.225030
  Si          -1.828747       -1.942954       -6.268734
  Si          -1.818256       -0.847214       -6.364883
  Si          -1.813487       -0.349151       -6.408587
  Si          -1.808719        0.148913       -6.452291
  Si          -1.803950        0.646976       -6.495995
  Si          -1.799181        1.145040       -6.539699
  Si          -1.794412        1.643103       -6.583403
  Si          -1.789643        2.141167       -6.627107
  Si          -1.784875        2.639230       -6.670811
  Si          -1.780106        3.137294       -6.714515
  Si          -1.775337        3.635357       -6.758219
  Si          -1.770568        4.133420       -6.801923
  Si          -1.934615      -12.999963       -5.298505
  Si          -1.929846      -12.501899       -5.342209
  Si          -1.925077      -12.003836       -5.385913
  Si          -1.920308      -11.505772       -5.429617
  Si          -1.915539      -11.007709       -5.473321
  Si          -1.910771      -10.509645       -5.517025
  Si          -1.906002      -10.011582       -5.560729
  Si          -1.901233       -9.513519       -5.604433
  Si          -1.896464       -9.015455       -5.648137
  Si          -1.891695       -8.517392       -5.691841
  Si          -1.886927       -8.019328       -5.735545
  Si          -1.826795       -7.020115       -6.926327
  Si          -1.822026       -6.522052       -6.970031
  Si          -1.817258       -6.023989       -7.013735
  Si          -1.812489       -5.525925       -7.057439
  Si          -1.807720       -5.027862       -7.101143
  Si          -1.802951       -4.529798       -7.144847
  Si          -1.798182       -4.031735       -7.188551
  Si          -1.793414       -3.533671       -7.232255
  Si          -1.788645       -3.035608       -7.275959
  Si          -1.783876       -2.537544       -7.319663
  Si          -1.779107       -2.039481       -7.363367
  Si          -1.768616       -0.943741       -7.459516
  Si          -1.763847       -0.445678       -7.503220
  Si          -1.759078        0.052386       -7.546924
  Si          -1.754310        0.550449       -7.590628
  Si          -1.749541        1.048513       -7.634332
  Si          -1.744772        1.546576       -7.678036
  Si          -1.740003        2.044640       -7.721740
  Si          -1.735234        2.542703       -7.765444
  Si          -1.730466        3.040767       -7.809148
  Si          -1.725697        3.538830       -7.852852
  Si          -1.720928        4.036894       -7.896556
  Si          -1.884974      -13.096490       -6.393138
  Si          -1.880206      -12.598426       -6.436842
  Si          -1.875437      -12.100363       -6.480546
  Si          -1.870668      -11.602299       -6.524250
  Si          -1.865899      -11.104236       -6.567954
  Si          -1.861131      -10.606172       -6.611658
  Si          -1.856362      -10.108109       -6.655362
  Si          -1.851593       -9.610046       -6.699066
  Si          -1.846824       -9.111982       -6.742770
  Si          -1.842055       -8.613919       -6.786474
  Si          -1.837287       -8.115855       -6.830178
  Si          -1.777155       -7.116642       -8.020959
  Si          -1.772386       -6.618579       -8.064663
  Si          -1.767617       -6.120516       -8.108367
  Si          -1.762849       -5.622452       -8.152072
  Si          -1.758080       -5.124389       -8.195776
  Si          -1.753311       -4.626325       -8.239480
  Si          -1.748542       -4.128262       -8.283184
  Si          -1.743774       -3.630198       -8.326888
  Si          -1.739005       -3.132135       -8.370592
  Si          -1.734236       -2.634071       -8.414296
  Si          -1.729467       -2.136008       -8.458000
  Si          -1.718976       -1.040268       -8.554148
  Si          -1.714207       -0.542205       -8.597852
  Si          -1.709438       -0.044141       -8.641556
  Si          -1.704669        0.453922       -8.685260
  Si          -1.699901        0.951986       -8.728964
  Si          -1.695132        1.450049       -8.772668
  Si          -1.690363        1.948113       -8.816372
  Si          -1.685594        2.446176       -8.860076
  Si          -1.680825        2.944240       -8.903780
  Si          -1.676057        3.442303       -8.947485
  Si          -1.671288        3.940367       -8.991189
  Si          -1.835334      -13.193017       -7.487771
  Si          -1.830566      -12.694953       -7.531475
  Si          -1.825797      -12.196890       -7.575179
  Si          -1.821028      -11.698826       -7.618883
  Si          -1.816259      -11.200763       -7.662587
  Si          -1.811490      -10.702699       -7.706291
  Si          -1.806722      -10.204636       -7.749995
  Si          -1.801953       -9.706572       -7.793699
  Si          -1.797184       -9.208509       -7.837403
  Si          -1.792415       -8.710446       -7.881107
  Si          -1.787646       -8.212382       -7.924811
  Si          -1.727515       -7.213169       -9.115592
  Si          -1.722746       -6.715106       -9.159296
  Si          -1.717977       -6.217042       -9.203000
  Si          -1.713209       -5.718979       -9.246704
  Si          -1.708440       -5.220916       -9.290408
  Si          -1.703671       -4.722852       -9.334112
  Si          -1.698902       -4.224789       -9.377816
  Si          -1.694133       -3.726725       -9.421520
  Si          -1.689365       -3.228662       -9.465224
  Si          -1.684596       -2.730598       -9.508928
  Si          -1.679827       -2.232535       -9.552632
  Si          -1.669336       -1.136795       -9.648781
  Si          -1.664567       -0.638732       -9.692485
  Si          -1.659798       -0.140668       -9.736189
  Si          -1.655029        0.357395       -9.779893
  Si          -1.650260        0.855459       -9.823597
  Si          -1.645492        1.353522       -9.867301
  Si          -1.640723        1.851586       -9.911005
  Si          -1.635954        2.349649       -9.954709
  Si          -1.631185        2.847713       -9.998413
  Si          -1.626417        3.345776      -10.042117
  Si          -1.621648        3.843840      -10.085821
  Si          -1.785694      -13.289544       -8.582403
  Si          -1.780925      -12.791480       -8.626107
  Si          -1.776157      -12.293417       -8.669811
  Si          -1.771388      -11.795353       -8.713515
  Si          -1.766619      -11.297290       -8.757219
  Si          -1.761850      -10.799226       -8.800923
  Si          -1.757081      -10.301163       -8.844627
  Si          -1.752313       -9.803099       -8.888331
  Si          -1.747544       -9.305036       -8.932035
  Si          -1.742775       -8.806973       -8.975739
  Si          -1.738006       -8.308909       -9.019443
  Si          -1.677875       -7.309696      -10.210225
  Si          -1.673106       -6.811633      -10.253929
  Si          -1.668337       -6.313569      -10.297633
  Si          -1.663568       -5.815506      -10.341337
  Si          -1.658800       -5.317443      -10.385041
  Si          -1.654031       -4.819379      -10.428745
  Si          -1.649262       -4.321316      -10.472449
  Si          -1.644493       -3.823252      -10.516153
  Si          -1.639724       -3.325189      -10.559857
  Si          -1.634956       -2.827125      -10.603561
  Si          -1.630187       -2.329062      -10.647265
  Si          -1.619696       -1.233322      -10.743414
  Si          -1.614927       -0.735259      -10.787118
  Si          -1.610158       -0.237195      -10.830822
  Si          -1.605389        0.260868      -10.874526
  Si          -1.600620        0.758932      -10.918230
  Si          -1.595852        1.256995      -10.961934
  Si          -1.591083        1.755059      -11.005638
  Si          -1.586314        2.253122      -11.049342
  Si          -1.581545        2.751186      -11.093046
  Si          -1.576776        3.249249      -11.136750
  Si          -1.572008        3.747313      -11.180454
  Si          -1.736054      -13.386071       -9.677036
  Si          -1.731285      -12.888007       -9.720740
  Si          -1.726516      -12.389944       -9.764444
  Si          -1.721748      -11.891880       -9.808148
  Si          -1.716979      -11.393817       -9.851852
  Si          -1.712210      -10.895753       -9.895556
  Si          -1.707441      -10.397690       -9.939260
  Si          -1.702672       -9.899626       -9.982964
  Si          -1.697904       -9.401563      -10.026668
  Si          -1.693135       -8.903500      -10.070372
  Si          -1.688366       -8.405436      -10.114076
  Si          -1.628235       -7.406223      -11.304857
  Si          -1.623466       -6.908160      -11.348561
  Si          -1.618697       -6.410096      -11.392265
  Si          -1.613928       -5.912033      -11.435969
  Si          -1.609159       -5.413970      -11.479673
  Si          -1.604391       -4.915906      -11.523377
  Si          -1.599622       -4.417843      -11.567081
  Si          -1.594853       -3.919779      -11.610785
  Si          -1.590084       -3.421716      -11.654489
  Si          -1.585316       -2.923652      -11.698193
  Si          -1.580547       -2.425589      -11.741897
  Si          -1.570055       -1.329849      -11.838046
  Si          -1.565287       -0.831786      -11.881750
  Si          -1.560518       -0.333722      -11.925454
  Si          -1.555749        0.164341      -11.969158
  Si          -1.550980        0.662405      -12.012862
  Si          -1.546211        1.160468      -12.056566
  Si          -1.541443        1.658532      -12.100270
  Si          -1.536674        2.156595      -12.143974
  Si          -1.531905        2.654659      -12.187678
  Si          -1.527136        3.152722      -12.231382
  Si          -1.522367        3.650786      -12.275086
  Si          -1.686414      -13.482598      -10.771668
  Si          -1.681645      -12.984534      -10.815372
  Si          -1.676876      -12.486471      -10.859076
  Si          -1.672108      -11.988407      -10.902780
  Si          -1.667339      -11.490344      -10.946484
  Si          -1.662570      -10.992280      -10.990188
  Si          -1.657801      -10.494217      -11.033892
  Si          -1.653032       -9.996153      -11.077597
  Si          -1.648264       -9.498090      -11.121301
  Si          -1.643495       -9.000026      -11.165005
  Si          -1.638726       -8.501963      -11.208709
  Si          -2.422477       -5.861792        6.209265
  Si          -2.417708       -5.363728        6.165561
  Si          -2.412939       -4.865665        6.121857
  Si          -2.408171       -4.367601        6.078153
  Si          -2.403402       -3.869538        6.034449
  Si          -2.398633       -3.371474        5.990745
  Si          -2.393864       -2.873411        5.947041
  Si          -2.389095       -2.375348        5.903337
  Si          -2.384327       -1.877284        5.859633
  Si          -2.379558       -1.379221        5.815929
  Si          -2.374789       -0.881157        5.772225
  Si          -2.364298        0.214583        5.676076
  Si          -2.359529        0.712646        5.632372
  Si          -2.354760        1.210709        5.588668
  Si          -2.349991        1.708773        5.544964
  Si          -2.345222        2.206836        5.501260
  Si          -2.340454        2.704900        5.457556
  Si          -2.335685        3.202963        5.413852
  Si          -2.330916        3.701027        5.370148
  Si          -2.326147        4.199090        5.326444
  Si          -2.321379        4.697154        5.282740
  Si          -2.316610        5.195217        5.239036
  Si          -2.480656      -11.938166        6.742454
  Si          -2.475887      -11.440103        6.698750
  Si          -2.471119      -10.942039        6.655046
  Si          -2.466350      -10.443976        6.611342
  Si          -2.461581       -9.945912        6.567638
  Si          -2.456812       -9.447849        6.523934
  Si          -2.452043       -8.949785        6.480230
  Si          -2.447275       -8.451722        6.436526
  Si          -2.442506       -7.953658        6.392822
  Si          -2.437737       -7.455595        6.349118
  Si          -2.432968       -6.957531        6.305414
  Si          -2.372837       -5.958319        5.114632
  Si          -2.368068       -5.460255        5.070928
  Si          -2.363299       -4.962192        5.027224
  Si          -2.358530       -4.464128        4.983520
  Si          -2.353762       -3.966065        4.939816
  Si          -2.348993       -3.468001        4.896112
  Si          -2.344224       -2.969938        4.852408
  Si          -2.339455       -2.471874        4.808704
  Si          -2.334686       -1.973811        4.765000
  Si          -2.329918       -1.475748        4.721296
  Si          -2.325149       -0.977684        4.677592
  Si          -2.314658        0.118056        4.581443
  Si          -2.309889        0.616119        4.537739
  Si          -2.305120        1.114182        4.494035
  Si          -2.300351        1.612246        4.450331
  Si          -2.295582        2.110309        4.406627
  Si          -2.290814        2.608373        4.362923
  Si          -2.286045        3.106436        4.319219
  Si          -2.281276        3.604500        4.275515
  Si          -2.276507        4.102563        4.231811
  Si          -2.271738        4.600627        4.188107
  Si          -2.266970        5.098690        4.144403
  Si          -2.431016      -12.034693        5.647821
  Si          -2.426247      -11.536630        5.604117
  Si          -2.421478      -11.038566        5.560413
  Si          -2.416710      -10.540503        5.516709
  Si          -2.411941      -10.042439        5.473005
  Si          -2.407172       -9.544376        5.429301
  Si          -2.402403       -9.046312        5.385597
  Si          -2.397634       -8.548249        5.341893
  Si          -2.392866       -8.050185        5.298189
  Si          -2.388097       -7.552122        5.254485
  Si          -2.383328       -7.054058        5.210781
  Si          -2.323197       -6.054846        4.019999
  Si          -2.318428       -5.556782        3.976295
  Si          -2.313659       -5.058719        3.932591
  Si          -2.308890       -4.560655        3.888887
  Si          -2.304121       -4.062592        3.845183
  Si          -2.299353       -3.564528        3.801479
  Si          -2.294584       -3.066465        3.757775
  Si          -2.289815       -2.568401        3.714071
  Si          -2.285046       -2.070338        3.670367
  Si          -2.280278       -1.572275        3.626663
  Si          -2.275509       -1.074211        3.582959
  Si          -2.265017        0.021529        3.486811
  Si          -2.260249        0.519592        3.443107
  Si          -2.255480        1.017656        3.399403
  Si          -2.250711        1.515719        3.355699
  Si          -2.245942        2.013782        3.311995
  Si          -2.241173        2.511846        3.268290
  Si          -2.236405        3.009909        3.224586
  Si          -2.231636        3.507973        3.180882
  Si          -2.226867        4.006036        3.137178
  Si          -2.222098        4.504100        3.093474
  Si          -2.217329        5.002163        3.049770
  Si          -2.381376      -12.131220        4.553188
  Si          -2.376607      -11.633157        4.509484
  Si          -2.371838      -11.135093        4.465780
  Si          -2.367070      -10.637030        4.422076
  Si          -2.362301      -10.138966        4.378372
  Si          -2.357532       -9.640903        4.334668
  Si          -2.352763       -9.142839        4.290964
  Si          -2.347994       -8.644776        4.247260
  Si          -2.343226       -8.146712        4.203556
  Si          -2.338457       -7.648649        4.159852
  Si          -2.333688       -7.150585        4.116148
  Si          -2.273556       -6.151373        2.925367
  Si          -2.268788       -5.653309        2.881663
  Si          -2.264019       -5.155246        2.837959
  Si          -2.259250       -4.657182        2.794255
  Si          -2.254481       -4.159119        2.750551
  Si          -2.249713       -3.661055        2.706847
  Si          -2.244944       -3.162992        2.663143
  Si          -2.240175       -2.664928        2.619439
  Si          -2.235406       -2.166865        2.575735
  Si          -2.230637       -1.668801        2.532031
  Si          -2.225869       -1.170738        2.488327
  Si          -2.215377       -0.074998        2.392178
  Si          -2.210608        0.423065        2.348474
  Si          -2.205840        0.921129        2.304770
  Si          -2.201071        1.419192        2.261066
  Si          -2.196302        1.917255        2.217362
  Si          -2.191533        2.415319        2.173658
  Si          -2.186764        2.913382        2.129954
  Si          -2.181996        3.411446        2.086250
  Si          -2.177227        3.909509        2.042546
  Si          -2.172458        4.407573        1.998842
  Si          -2.167689        4.905636        1.955138
  Si          -2.331736      -12.227747        3.458556
  Si          -2.326967      -11.729684        3.414852
  Si          -2.322198      -11.231620        3.371148
  Si          -2.317429      -10.733557        3.327444
  Si          -2.312661      -10.235493        3.283740
  Si          -2.307892       -9.737430        3.240036
  Si          -2.303123       -9.239366        3.196332
  Si          -2.298354       -8.741303        3.152628
  Si          -2.293585       -8.243239        3.108924
  Si          -2.288817       -7.745176        3.065220
  Si          -2.284048       -7.247112        3.021516
  Si          -2.223916       -6.247900        1.830734
  Si          -2.219148       -5.749836        1.787030
  Si          -2.214379       -5.251773        1.743326
  Si          -2.209610       -4.753709        1.699622
  Si          -2.204841       -4.255646        1.655918
  Si          -2.200072       -3.757582        1.612214
  Si          -2.195304       -3.259519        1.568510
  Si          -2.190535       -2.761455        1.524806
  Si          -2.185766       -2.263392        1.481102
  Si          -2.180997       -1.765328        1.437398
  Si          -2.176228       -1.267265        1.393694
  Si          -2.165737       -0.171525        1.297545
  Si          -2.160968        0.326538        1.253841
  Si          -2.156200        0.824602        1.210137
  Si          -2.151431        1.322665        1.166433
  Si          -2.146662        1.820729        1.122729
  Si          -2.141893        2.318792        1.079025
  Si          -2.137124        2.816855        1.035321
  Si          -2.132356        3.314919        0.991617
  Si          -2.127587        3.812982        0.947913
  Si          -2.122818        4.311046        0.904209
  Si          -2.118049        4.809109        0.860505
  Si          -2.282096      -12.324274        2.363923
  Si          -2.277327      -11.826211        2.320219
  Si          -2.272558      -11.328147        2.276515
  Si          -2.267789      -10.830084        2.232811
  Si          -2.263020      -10.332020        2.189107
  Si          -2.258252       -9.833957        2.145403
  Si          -2.253483       -9.335893        2.101699
  Si          -2.248714       -8.837830        2.057995
  Si          -2.243945       -8.339766        2.014291
  Si          -2.239176       -7.841703        1.970587
  Si          -2.234408       -7.343639        1.926883
  Si          -2.174276       -6.344427        0.736102
  Si          -2.169507       -5.846363        0.692398
  Si          -2.164739       -5.348300        0.648694
  Si          -2.159970       -4.850236        0.604990
  Si          -2.155201       -4.352173        0.561286
  Si          -2.150432       -3.854109        0.517582
  Si          -2.145663       -3.356046        0.473878
  Si          -2.140895       -2.857982        0.430174
  Si          -2.136126       -2.359919        0.386469
  Si          -2.131357       -1.861855        0.342765
  Si          -2.126588       -1.363792        0.299061
  Si          -2.116097       -0.268052        0.202913
  Si          -2.111328        0.230011        0.159209
  Si          -2.106559        0.728075        0.115505
  Si          -2.101791        1.226138        0.071801
  Si          -2.097022        1.724202        0.028097
  Si          -2.092253        2.222265       -0.015607
  Si          -2.087484        2.720328       -0.059311
  Si          -2.082715        3.218392       -0.103015
  Si          -2.077947        3.716455       -0.146719
  Si          -2.073178        4.214519       -0.190423
  Si          -2.068409        4.712582       -0.234127
  Si          -2.232455      -12.420801        1.269291
  Si          -2.227687      -11.922737        1.225587
  Si          -2.222918      -11.424674        1.181882
  Si          -2.218149      -10.926611        1.138178
  Si          -2.213380      -10.428547        1.094474
  Si          -2.208612       -9.930484        1.050770
  Si          -2.203843       -9.432420        1.007066
  Si          -2.199074       -8.934357        0.963362
  Si          -2.194305       -8.436293        0.919658
  Si          -2.189536       -7.938230        0.875954
  Si          -2.184768       -7.440166        0.832250
  Si          -2.124636       -6.440954       -0.358531
  Si          -2.119867       -5.942890       -0.402235
  Si          -2.115098       -5.444827       -0.445939
  Si          -2.110330       -4.946763       -0.489643
  Si          -2.105561       -4.448700       -0.533347
  Si          -2.100792       -3.950636       -0.577051
  Si          -2.096023       -3.452573       -0.620755
  Si          -2.091255       -2.954509       -0.664459
  Si          -2.086486       -2.456446       -0.708163
  Si          -2.081717       -1.958382       -0.751867
  Si          -2.076948       -1.460319       -0.795571
  Si          -2.066457       -0.364579       -0.891720
  Si          -2.061688        0.133484       -0.935424
  Si          -2.056919        0.631548       -0.979128
  Si          -2.052150        1.129611       -1.022832
  Si          -2.047382        1.627675       -1.066536
  Si          -2.042613        2.125738       -1.110240
  Si          -2.037844        2.623801       -1.153944
  Si          -2.033075        3.121865       -1.197648
  Si          -2.028306        3.619928       -1.241352
  Si          -2.023538        4.117992       -1.285056
  Si          -2.018769        4.616055       -1.328760
  Si          -2.182815      -12.517328        0.174658
  Si          -2.178047      -12.019264        0.130954
  Si          -2.173278      -11.521201        0.087250
  Si          -2.168509      -11.023138        0.043546
  Si          -2.163740      -10.525074       -0.000158
  Si          -2.158971      -10.027011       -0.043862
  Si          -2.154203       -9.528947       -0.087566
  Si          -2.149434       -9.030884       -0.131270
  Si          -2.144665       -8.532820       -0.174974
  Si          -2.139896       -8.034757       -0.218678
  Si          -2.135127       -7.536693       -0.262382
  Si          -2.074996       -6.537481       -1.453164
  Si          -2.070227       -6.039417       -1.496868
  Si          -2.065458       -5.541354       -1.540572
  Si          -2.060690       -5.043290       -1.584276
  Si          -2.055921       -4.545227       -1.627980
  Si          -2.051152       -4.047163       -1.671684
  Si          -2.046383       -3.549100       -1.715388
  Si          -2.041614       -3.051036       -1.759092
  Si          -2.036846       -2.552973       -1.802796
  Si          -2.032077       -2.054909       -1.846500
  Si          -2.027308       -1.556846       -1.890204
  Si          -2.016817       -0.461106       -1.986353
  Si          -2.012048        0.036957       -2.030057
  Si          -2.007279        0.535021       -2.073761
  Si          -2.002510        1.033084       -2.117465
  Si          -1.997741        1.531148       -2.161169
  Si          -1.992973        2.029211       -2.204873
  Si          -1.988204        2.527275       -2.248577
  Si          -1.983435        3.025338       -2.292281
  Si          -1.978666        3.523401       -2.335985
  Si          -1.973898        4.021465       -2.379689
  Si          -1.969129        4.519528       -2.423393
  Si          -2.133175      -12.613855       -0.919975
  Si          -2.128406      -12.115791       -0.963679
  Si          -2.123638      -11.617728       -1.007383
  Si          -2.118869      -11.119665       -1.051087
  Si          -2.114100      -10.621601       -1.094791
  Si          -2.109331      -10.123538       -1.138495
  Si          -2.104562       -9.625474       -1.182199
  Si          -2.099794       -9.127411       -1.225903
  Si          -2.095025       -8.629347       -1.269607
  Si          -2.090256       -8.131284       -1.313311
  Si          -2.085487       -7.633220       -1.357015
  Si          -0.926525       -6.640109       -2.497428
  Si          -0.921757       -6.142045       -2.541132
  Si          -0.916988       -5.643982       -2.584836
  Si          -0.912219       -5.145918       -2.628540
  Si          -0.907450       -4.647855       -2.672244
  Si          -0.902682       -4.149791       -2.715948
  Si          -0.897913       -3.651728       -2.759652
  Si          -0.893144       -3.153665       -2.803356
  Si          -0.888375       -2.655601       -2.847060
  Si          -0.883606       -2.157538       -2.890764
  Si          -0.878838       -1.659474       -2.934468
  Si          -0.868346       -0.563734       -3.030617
  Si          -0.863577       -0.065671       -3.074321
  Si          -0.858809        0.432392       -3.118025
  Si          -0.854040        0.930456       -3.161729
  Si          -0.849271        1.428519       -3.205433
  Si          -0.844502        1.926583       -3.249137
  Si          -0.839733        2.424646       -3.292841
  Si          -0.834965        2.922710       -3.336545
  Si          -0.830196        3.420773       -3.380249
  Si          -0.825427        3.918837       -3.423953
  Si          -0.820658        4.416900       -3.467657
  Si          -0.984705      -12.716483       -1.964239
  Si          -0.979936      -12.218420       -2.007943
  Si          -0.975167      -11.720356       -2.051647
  Si          -0.970398      -11.222293       -2.095351
  Si          -0.965630      -10.724229       -2.139055
  Si          -0.960861      -10.226166       -2.182759
  Si          -0.956092       -9.728102       -2.226463
  Si          -0.951323       -9.230039       -2.270167
  Si          -0.946554       -8.731975       -2.313871
  Si          -0.941786       -8.233912       -2.357575
  Si          -0.937017       -7.735848       -2.401279
  Si          -0.876885       -6.736636       -3.592060
  Si          -0.872117       -6.238572       -3.635764
  Si          -0.867348       -5.740509       -3.679468
  Si          -0.862579       -5.242445       -3.723172
  Si          -0.857810       -4.744382       -3.766876
  Si          -0.853041       -4.246318       -3.810580
  Si          -0.848273       -3.748255       -3.854284
  Si          -0.843504       -3.250191       -3.897989
  Si          -0.838735       -2.752128       -3.941693
  Si          -0.833966       -2.254065       -3.985397
  Si          -0.829197       -1.756001       -4.029101
  Si          -0.818706       -0.660261       -4.125249
  Si          -0.813937       -0.162198       -4.168953
  Si          -0.809169        0.335865       -4.212657
  Si          -0.804400        0.833929       -4.256361
  Si          -0.799631        1.331992       -4.300065
  Si          -0.794862        1.830056       -4.343769
  Si          -0.790093        2.328119       -4.387473
  Si          -0.785325        2.826183       -4.431177
  Si          -0.780556        3.324246       -4.474881
  Si          -0.775787        3.822310       -4.518585
  Si          -0.771018        4.320373       -4.562289
  Si          -0.935065      -12.813010       -3.058871
  Si          -0.930296      -12.314947       -3.102576
  Si          -0.925527      -11.816883       -3.146280
  Si          -0.920758      -11.318820       -3.189984
  Si          -0.915989      -10.820756       -3.233688
  Si          -0.911221      -10.322693       -3.277392
  Si          -0.906452       -9.824629       -3.321096
  Si          -0.901683       -9.326566       -3.364800
  Si          -0.896914       -8.828502       -3.408504
  Si          -0.892145       -8.330439       -3.452208
  Si          -0.887377       -7.832375       -3.495912
  Si          -0.827245       -6.833163       -4.686693
  Si          -0.822476       -6.335099       -4.730397
  Si          -0.817708       -5.837036       -4.774101
  Si          -0.812939       -5.338972       -4.817805
  Si          -0.808170       -4.840909       -4.861509
  Si          -0.803401       -4.342845       -4.905213
  Si          -0.798632       -3.844782       -4.948917
  Si          -0.793864       -3.346718       -4.992621
  Si          -0.789095       -2.848655       -5.036325
  Si          -0.784326       -2.350592       -5.080029
  Si          -0.779557       -1.852528       -5.123733
  Si          -0.769066       -0.756788       -5.219882
  Si          -0.764297       -0.258725       -5.263586
  Si          -0.759528        0.239339       -5.307290
  Si          -0.754760        0.737402       -5.350994
  Si          -0.749991        1.235465       -5.394698
  Si          -0.745222        1.733529       -5.438402
  Si          -0.740453        2.231592       -5.482106
  Si          -0.735684        2.729656       -5.525810
  Si          -0.730916        3.227719       -5.569514
  Si          -0.726147        3.725783       -5.613218
  Si          -0.721378        4.223846       -5.656922
  Si          -0.885424      -12.909537       -4.153504
  Si          -0.880656      -12.411474       -4.197208
  Si          -0.875887      -11.913410       -4.240912
  Si          -0.871118      -11.415347       -4.284616
  Si          -0.866349      -10.917283       -4.328320
  Si          -0.861581      -10.419220       -4.372024
  Si          -0.856812       -9.921156       -4.415728
  Si          -0.852043       -9.423093       -4.459432
  Si          -0.847274       -8.925029       -4.503136
  Si          -0.842505       -8.426966       -4.546840
  Si          -0.837737       -7.928902       -4.590544
  Si          -0.777605       -6.929690       -5.781326
  Si          -0.772836       -6.431626       -5.825030
  Si          -0.768067       -5.933563       -5.868734
  Si          -0.763299       -5.435499       -5.912438
  Si          -0.758530       -4.937436       -5.956142
  Si          -0.753761       -4.439372       -5.999846
  Si          -0.748992       -3.941309       -6.043550
  Si          -0.744224       -3.443245       -6.087254
  Si          -0.739455       -2.945182       -6.130958
  Si          -0.734686       -2.447119       -6.174662
  Si          -0.729917       -1.949055       -6.218366
  Si          -0.719426       -0.853315       -6.314515
  Si          -0.714657       -0.355252       -6.358219
  Si          -0.709888        0.142812       -6.401923
  Si          -0.705119        0.640875       -6.445627
  Si          -0.700351        1.138938       -6.489331
  Si          -0.695582        1.637002       -6.533035
  Si          -0.690813        2.135065       -6.576739
  Si          -0.686044        2.633129       -6.620443
  Si          -0.681275        3.131192       -6.664147
  Si          -0.676507        3.629256       -6.707851
  Si          -0.671738        4.127319       -6.751555
  Si          -0.835784      -13.006064       -5.248137
  Si          -0.831016      -12.508001       -5.291841
  Si          -0.826247      -12.009937       -5.335545
  Si          -0.821478      -11.511874       -5.379249
  Si          -0.816709      -11.013810       -5.422953
  Si          -0.811940      -10.515747       -5.466657
  Si          -0.807172      -10.017683       -5.510361
  Si          -0.802403       -9.519620       -5.554065
  Si          -0.797634       -9.021556       -5.597769
  Si          -0.792865       -8.523493       -5.641473
  Si          -0.788096       -8.025429       -5.685177
  Si          -0.727965       -7.026217       -6.875958
  Si          -0.723196       -6.528153       -6.919662
  Si          -0.718427       -6.030090       -6.963366
  Si          -0.713659       -5.532026       -7.007070
  Si          -0.708890       -5.033963       -7.050774
  Si          -0.704121       -4.535899       -7.094478
  Si          -0.699352       -4.037836       -7.138182
  Si          -0.694583       -3.539772       -7.181886
  Si          -0.689815       -3.041709       -7.225590
  Si          -0.685046       -2.543645       -7.269294
  Si          -0.680277       -2.045582       -7.312998
  Si          -0.669786       -0.949842       -7.409147
  Si          -0.665017       -0.451779       -7.452851
  Si          -0.660248        0.046285       -7.496555
  Si          -0.655479        0.544348       -7.540259
  Si          -0.650710        1.042411       -7.583963
  Si          -0.645942        1.540475       -7.627667
  Si          -0.641173        2.038538       -7.671371
  Si          -0.636404        2.536602       -7.715075
  Si          -0.631635        3.034665       -7.758779
  Si          -0.626867        3.532729       -7.802483
  Si          -0.622098        4.030792       -7.846187
  Si          -0.786144      -13.102591       -6.342769
  Si          -0.781375      -12.604528       -6.386473
  Si          -0.776607      -12.106464       -6.430177
  Si          -0.771838      -11.608401       -6.473881
  Si          -0.767069      -11.110337       -6.517585
  Si          -0.762300      -10.612274       -6.561289
  Si          -0.757531      -10.114210       -6.604993
  Si          -0.752763       -9.616147       -6.648697
  Si          -0.747994       -9.118083       -6.692401
  Si          -0.743225       -8.620020       -6.736105
  Si          -0.738456       -8.121956       -6.779809
  Si          -0.678325       -7.122744       -7.970591
  Si          -0.673556       -6.624680       -8.014295
  Si          -0.668787       -6.126617       -8.057999
  Si          -0.664018       -5.628553       -8.101703
  Si          -0.659250       -5.130490       -8.145407
  Si          -0.654481       -4.632426       -8.189111
  Si          -0.649712       -4.134363       -8.232815
  Si          -0.644943       -3.636299       -8.276519
  Si          -0.640174       -3.138236       -8.320223
  Si          -0.635406       -2.640172       -8.363927
  Si          -0.630637       -2.142109       -8.407631
  Si          -0.620146       -1.046369       -8.503780
  Si          -0.615377       -0.548306       -8.547484
  Si          -0.610608       -0.050242       -8.591188
  Si          -0.605839        0.447821       -8.634892
  Si          -0.601070        0.945885       -8.678596
  Si          -0.596302        1.443948       -8.722300
  Si          -0.591533        1.942011       -8.766004
  Si          -0.586764        2.440075       -8.809708
  Si          -0.581995        2.938138       -8.853412
  Si          -0.577226        3.436202       -8.897116
  Si          -0.572458        3.934265       -8.940820
  Si          -0.736504      -13.199118       -7.437402
  Si          -0.731735      -12.701055       -7.481106
  Si          -0.726966      -12.202991       -7.524810
  Si          -0.722198      -11.704928       -7.568514
  Si          -0.717429      -11.206864       -7.612218
  Si          -0.712660      -10.708801       -7.655922
  Si          -0.707891      -10.210737       -7.699626
  Si          -0.703122       -9.712674       -7.743330
  Si          -0.698354       -9.214610       -7.787034
  Si          -0.693585       -8.716547       -7.830738
  Si          -0.688816       -8.218483       -7.874442
  Si          -0.628685       -7.219271       -9.065224
  Si          -0.623916       -6.721207       -9.108928
  Si          -0.619147       -6.223144       -9.152632
  Si          -0.614378       -5.725080       -9.196336
  Si          -0.609609       -5.227017       -9.240040
  Si          -0.604841       -4.728953       -9.283744
  Si          -0.600072       -4.230890       -9.327448
  Si          -0.595303       -3.732826       -9.371152
  Si          -0.590534       -3.234763       -9.414856
  Si          -0.585766       -2.736699       -9.458560
  Si          -0.580997       -2.238636       -9.502264
  Si          -0.570505       -1.142896       -9.598413
  Si          -0.565737       -0.644833       -9.642117
  Si          -0.560968       -0.146769       -9.685821
  Si          -0.556199        0.351294       -9.729525
  Si          -0.551430        0.849358       -9.773229
  Si          -0.546661        1.347421       -9.816933
  Si          -0.541893        1.845484       -9.860637
  Si          -0.537124        2.343548       -9.904341
  Si          -0.532355        2.841611       -9.948045
  Si          -0.527586        3.339675       -9.991749
  Si          -0.522817        3.837738      -10.035453
  Si          -0.686864      -13.295645       -8.532035
  Si          -0.682095      -12.797581       -8.575739
  Si          -0.677326      -12.299518       -8.619443
  Si          -0.672558      -11.801455       -8.663147
  Si          -0.667789      -11.303391       -8.706851
  Si          -0.663020      -10.805328       -8.750555
  Si          -0.658251      -10.307264       -8.794259
  Si          -0.653482       -9.809201       -8.837963
  Si          -0.648714       -9.311137       -8.881667
  Si          -0.643945       -8.813074       -8.925371
  Si          -0.639176       -8.315010       -8.969075
  Si          -0.579044       -7.315798      -10.159856
  Si          -0.574276       -6.817734      -10.203560
  Si          -0.569507       -6.319671      -10.247264
  Si          -0.564738       -5.821607      -10.290968
  Si          -0.559969       -5.323544      -10.334672
  Si          -0.555201       -4.825480      -10.378376
  Si          -0.550432       -4.327417      -10.422080
  Si          -0.545663       -3.829353      -10.465784
  Si          -0.540894       -3.331290      -10.509488
  Si          -0.536125       -2.833226      -10.553192
  Si          -0.531357       -2.335163      -10.596896
  Si          -0.520865       -1.239423      -10.693045
  Si          -0.516096       -0.741360      -10.736749
  Si          -0.511328       -0.243296      -10.780453
  Si          -0.506559        0.254767      -10.824157
  Si          -0.501790        0.752831      -10.867861
  Si          -0.497021        1.250894      -10.911565
  Si          -0.492252        1.748958      -10.955269
  Si          -0.487484        2.247021      -10.998973
  Si          -0.482715        2.745084      -11.042677
  Si          -0.477946        3.243148      -11.086381
  Si          -0.473177        3.741211      -11.130085
  Si          -0.637224      -13.392172       -9.626667
  Si          -0.632455      -12.894108       -9.670371
  Si          -0.627686      -12.396045       -9.714075
  Si          -0.622917      -11.897982       -9.757779
  Si          -0.618149      -11.399918       -9.801483
  Si          -0.613380      -10.901855       -9.845187
  Si          -0.608611      -10.403791       -9.888891
  Si          -0.603842       -9.905728       -9.932595
  Si          -0.599073       -9.407664       -9.976299
  Si          -0.594305       -8.909601      -10.020003
  Si          -0.589536       -8.411537      -10.063707
  Si          -0.529404       -7.412325      -11.254489
  Si          -0.524636       -6.914261      -11.298193
  Si          -0.519867       -6.416198      -11.341897
  Si          -0.515098       -5.918134      -11.385601
  Si          -0.510329       -5.420071      -11.429305
  Si          -0.505560       -4.922007      -11.473009
  Si          -0.500792       -4.423944      -11.516713
  Si          -0.496023       -3.925880      -11.560417
  Si          -0.491254       -3.427817      -11.604121
  Si          -0.486485       -2.929753      -11.647825
  Si          -0.481716       -2.431690      -11.691529
  Si          -0.471225       -1.335950      -11.787678
  Si          -0.466456       -0.837887      -11.831382
  Si          -0.461688       -0.339823      -11.875086
  Si          -0.456919        0.158240      -11.918790
  Si          -0.452150        0.656304      -11.962494
  Si          -0.447381        1.154367      -12.006198
  Si          -0.442612        1.652431      -12.049902
  Si          -0.437844        2.150494      -12.093606
  Si          -0.433075        2.648557      -12.137310
  Si          -0.428306        3.146621      -12.181014
  Si          -0.423537        3.644684      -12.224718
  Si          -0.587584      -13.488699      -10.721300
  Si          -0.582815      -12.990635      -10.765004
  Si          -0.578046      -12.492572      -10.808708
  Si          -0.573277      -11.994508      -10.852412
  Si          -0.568508      -11.496445      -10.896116
  Si          -0.563740      -10.998382      -10.939820
  Si          -0.558971      -10.500318      -10.983524
  Si          -0.554202      -10.002255      -11.027228
  Si          -0.549433       -9.504191      -11.070932
  Si          -0.544664       -9.006128      -11.114636
  Si          -0.539896       -8.508064      -11.158340
  Si          -1.323647       -5.867893        6.259633
  Si          -1.318878       -5.369830        6.215929
  Si          -1.314109       -4.871766        6.172225
  Si          -1.309340       -4.373703        6.128521
  Si          -1.304571       -3.875639        6.084817
  Si          -1.299803       -3.377576        6.041113
  Si          -1.295034       -2.879512        5.997409
  Si          -1.290265       -2.381449        5.953705
  Si          -1.285496       -1.883385        5.910001
  Si          -1.280728       -1.385322        5.866297
  Si          -1.275959       -0.887258        5.822593
  Si          -1.265467        0.208481        5.726444
  Si          -1.260699        0.706545        5.682740
  Si          -1.255930        1.204608        5.639036
  Si          -1.251161        1.702672        5.595332
  Si          -1.246392        2.200735        5.551628
  Si          -1.241623        2.698799        5.507924
  Si          -1.236855        3.196862        5.464220
  Si          -1.232086        3.694926        5.420516
  Si          -1.227317        4.192989        5.376812
  Si          -1.222548        4.691053        5.333108
  Si          -1.217779        5.189116        5.289404
  Si          -1.381826      -11.944267        6.792822
  Si          -1.377057      -11.446204        6.749118
  Si          -1.372288      -10.948140        6.705414
  Si          -1.367520      -10.450077        6.661710
  Si          -1.362751       -9.952013        6.618006
  Si          -1.357982       -9.453950        6.574302
  Si          -1.353213       -8.955886        6.530598
  Si          -1.348444       -8.457823        6.486894
  Si          -1.343676       -7.959760        6.443190
  Si          -1.338907       -7.461696        6.399486
  Si          -1.334138       -6.963633        6.355782
  Si          -1.274006       -5.964420        5.165001
  Si          -1.269238       -5.466356        5.121297
  Si          -1.264469       -4.968293        5.077593
  Si          -1.259700       -4.470230        5.033889
  Si          -1.254931       -3.972166        4.990185
  Si          -1.250163       -3.474103        4.946481
  Si          -1.245394       -2.976039        4.902777
  Si          -1.240625       -2.477976        4.859073
  Si          -1.235856       -1.979912        4.815369
  Si          -1.231087       -1.481849        4.771665
  Si          -1.226319       -0.983785        4.727961
  Si          -1.215827        0.111954        4.631812
  Si          -1.211058        0.610018        4.588108
  Si          -1.206290        1.108081        4.544404
  Si          -1.201521        1.606145        4.500700
  Si          -1.196752        2.104208        4.456996
  Si          -1.191983        2.602272        4.413292
  Si          -1.187214        3.100335        4.369588
  Si          -1.182446        3.598399        4.325884
  Si          -1.177677        4.096462        4.282180
  Si          -1.172908        4.594526        4.238476
  Si          -1.168139        5.092589        4.194772
  Si          -1.332186      -12.040794        5.698190
  Si          -1.327417      -11.542731        5.654486
  Si          -1.322648      -11.044667        5.610782
  Si          -1.317879      -10.546604        5.567078
  Si          -1.313111      -10.048540        5.523374
  Si          -1.308342       -9.550477        5.479670
  Si          -1.303573       -9.052413        5.435965
  Si          -1.298804       -8.554350        5.392261
  Si          -1.294035       -8.056287        5.348557
  Si          -1.289267       -7.558223        5.304853
  Si          -1.284498       -7.060160        5.261149
  Si          -1.224366       -6.060947        4.070368
  Si          -1.219598       -5.562883        4.026664
  Si          -1.214829       -5.064820        3.982960
  Si          -1.210060       -4.566757        3.939256
  Si          -1.205291       -4.068693        3.895552
  Si          -1.200522       -3.570630        3.851848
  Si          -1.195754       -3.072566        3.808144
  Si          -1.190985       -2.574503        3.764440
  Si          -1.186216       -2.076439        3.720736
  Si          -1.181447       -1.578376        3.677032
  Si          -1.176678       -1.080312        3.633328
  Si          -1.166187        0.015427        3.537179
  Si          -1.161418        0.513491        3.493475
  Si          -1.156650        1.011554        3.449771
  Si          -1.151881        1.509618        3.406067
  Si          -1.147112        2.007681        3.362363
  Si          -1.142343        2.505745        3.318659
  Si          -1.137574        3.003808        3.274955
  Si          -1.132806        3.501872        3.231251
  Si          -1.128037        3.999935        3.187547
  Si          -1.123268        4.497999        3.143843
  Si          -1.118499        4.996062        3.100139
  Si          -1.282546      -12.137321        4.603557
  Si          -1.277777      -11.639258        4.559853
  Si          -1.273008      -11.141194        4.516149
  Si          -1.268239      -10.643131        4.472445
  Si          -1.263470      -10.145067        4.428741
  Si          -1.258702       -9.647004        4.385037
  Si          -1.253933       -9.148940        4.341333
  Si          -1.249164       -8.650877        4.297629
  Si          -1.244395       -8.152813        4.253925
  Si          -1.239626       -7.654750        4.210221
  Si          -1.234858       -7.156687        4.166517
  Si          -1.174726       -6.157474        2.975735
  Si          -1.169957       -5.659410        2.932031
  Si          -1.165189       -5.161347        2.888327
  Si          -1.160420       -4.663284        2.844623
  Si          -1.155651       -4.165220        2.800919
  Si          -1.150882       -3.667157        2.757215
  Si          -1.146113       -3.169093        2.713511
  Si          -1.141345       -2.671030        2.669807
  Si          -1.136576       -2.172966        2.626103
  Si          -1.131807       -1.674903        2.582399
  Si          -1.127038       -1.176839        2.538695
  Si          -1.116547       -0.081100        2.442546
  Si          -1.111778        0.416964        2.398842
  Si          -1.107009        0.915027        2.355138
  Si          -1.102241        1.413091        2.311434
  Si          -1.097472        1.911154        2.267730
  Si          -1.092703        2.409218        2.224026
  Si          -1.087934        2.907281        2.180322
  Si          -1.083165        3.405345        2.136618
  Si          -1.078397        3.903408        2.092914
  Si          -1.073628        4.401472        2.049210
  Si          -1.068859        4.899535        2.005506
  Si          -1.232905      -12.233848        3.508924
  Si          -1.228137      -11.735785        3.465220
  Si          -1.223368      -11.237721        3.421516
  Si          -1.218599      -10.739658        3.377812
  Si          -1.213830      -10.241594        3.334108
  Si          -1.209062       -9.743531        3.290404
  Si          -1.204293       -9.245467        3.246700
  Si          -1.199524       -8.747404        3.202996
  Si          -1.194755       -8.249340        3.159292
  Si          -1.189986       -7.751277        3.115588
  Si          -1.185218       -7.253214        3.071884
  Si          -1.125086       -6.254001        1.881103
  Si          -1.120317       -5.755937        1.837399
  Si          -1.115548       -5.257874        1.793695
  Si          -1.110780       -4.759810        1.749991
  Si          -1.106011       -4.261747        1.706287
  Si          -1.101242       -3.763684        1.662583
  Si          -1.096473       -3.265620        1.618879
  Si          -1.091705       -2.767557        1.575175
  Si          -1.086936       -2.269493        1.531471
  Si          -1.082167       -1.771430        1.487767
  Si          -1.077398       -1.273366        1.444063
  Si          -1.066907       -0.177627        1.347914
  Si          -1.062138        0.320437        1.304210
  Si          -1.057369        0.818500        1.260506
  Si          -1.052600        1.316564        1.216802
  Si          -1.047832        1.814627        1.173098
  Si          -1.043063        2.312691        1.129394
  Si          -1.038294        2.810754        1.085690
  Si          -1.033525        3.308818        1.041986
  Si          -1.028756        3.806881        0.998282
  Si          -1.023988        4.304945        0.954578
  Si          -1.019219        4.803008        0.910874
  Si          -1.183265      -12.330375        2.414292
  Si          -1.178497      -11.832312        2.370588
  Si          -1.173728      -11.334248        2.326884
  Si          -1.168959      -10.836185        2.283180
  Si          -1.164190      -10.338121        2.239476
  Si          -1.159421       -9.840058        2.195772
  Si          -1.154653       -9.341994        2.152068
  Si          -1.149884       -8.843931        2.108364
  Si          -1.145115       -8.345867        2.064660
  Si          -1.140346       -7.847804        2.020956
  Si          -1.135577       -7.349741        1.977252
  Si          -1.075446       -6.350528        0.786470
  Si          -1.070677       -5.852464        0.742766
  Si          -1.065908       -5.354401        0.699062
  Si          -1.061140       -4.856337        0.655358
  Si          -1.056371       -4.358274        0.611654
  Si          -1.051602       -3.860211        0.567950
  Si          -1.046833       -3.362147        0.524246
  Si          -1.042064       -2.864084        0.480542
  Si          -1.037296       -2.366020        0.436838
  Si          -1.032527       -1.867957        0.393134
  Si          -1.027758       -1.369893        0.349430
  Si          -1.017267       -0.274154        0.253281
  Si          -1.012498        0.223910        0.209577
  Si          -1.007729        0.721973        0.165873
  Si          -1.002960        1.220037        0.122169
  Si          -0.998191        1.718100        0.078465
  Si          -0.993423        2.216164        0.034761
  Si          -0.988654        2.714227       -0.008943
  Si          -0.983885        3.212291       -0.052647
  Si          -0.979116        3.710354       -0.096351
  Si          -0.974348        4.208418       -0.140055
  Si          -0.969579        4.706481       -0.183759
  Si          -1.133625      -12.426902        1.319659
  Si          -1.128856      -11.928839        1.275955
  Si          -1.124088      -11.430775        1.232251
  Si          -1.119319      -10.932712        1.188547
  Si          -1.114550      -10.434648        1.144843
  Si          -1.109781       -9.936585        1.101139
  Si          -1.105012       -9.438521        1.057435
  Si          -1.100244       -8.940458        1.013731
  Si          -1.095475       -8.442394        0.970027
  Si          -1.090706       -7.944331        0.926323
  Si          -1.085937       -7.446267        0.882619
  Si          -1.025806       -6.447055       -0.308163
  Si          -1.021037       -5.948991       -0.351867
  Si          -1.016268       -5.450928       -0.395571
  Si          -1.011499       -4.952864       -0.439275
  Si          -1.006731       -4.454801       -0.482979
  Si          -1.001962       -3.956737       -0.526683
  Si          -0.997193       -3.458674       -0.570387
  Si          -0.992424       -2.960611       -0.614091
  Si          -0.987655       -2.462547       -0.657795
  Si          -0.982887       -1.964484       -0.701499
  Si          -0.978118       -1.466420       -0.745203
  Si          -0.967627       -0.370681       -0.841351
  Si          -0.962858        0.127383       -0.885055
  Si          -0.958089        0.625446       -0.928759
  Si          -0.953320        1.123510       -0.972463
  Si          -0.948551        1.621573       -1.016168
  Si          -0.943783        2.119637       -1.059872
  Si          -0.939014        2.617700       -1.103576
  Si          -0.934245        3.115764       -1.147280
  Si          -0.929476        3.613827       -1.190984
  Si          -0.924707        4.111891       -1.234688
  Si          -0.919939        4.609954       -1.278392
  Si          -1.083985      -12.523429        0.225026
  Si          -1.079216      -12.025366        0.181322
  Si          -1.074447      -11.527302        0.137618
  Si          -1.069679      -11.029239        0.093914
  Si          -1.064910      -10.531175        0.050210
  Si          -1.060141      -10.033112        0.006506
  Si          -1.055372       -9.535048       -0.037198
  Si          -1.050603       -9.036985       -0.080902
  Si          -1.045835       -8.538921       -0.124606
  Si          -1.041066       -8.040858       -0.168310
  Si          -1.036297       -7.542794       -0.212014
  Si          -0.976166       -6.543582       -1.402795
  Si          -0.971397       -6.045518       -1.446499
  Si          -0.966628       -5.547455       -1.490203
  Si          -0.961859       -5.049391       -1.533907
  Si          -0.957090       -4.551328       -1.577611
  Si          -0.952322       -4.053264       -1.621315
  Si          -0.947553       -3.555201       -1.665019
  Si          -0.942784       -3.057138       -1.708723
  Si          -0.938015       -2.559074       -1.752427
  Si          -0.933247       -2.061011       -1.796131
  Si          -0.928478       -1.562947       -1.839835
  Si          -0.917986       -0.467208       -1.935984
  Si          -0.913218        0.030856       -1.979688
  Si          -0.908449        0.528919       -2.023392
  Si          -0.903680        1.026983       -2.067096
  Si          -0.898911        1.525046       -2.110800
  Si          -0.894142        2.023110       -2.154504
  Si          -0.889374        2.521173       -2.198208
  Si          -0.884605        3.019237       -2.241912
  Si          -0.879836        3.517300       -2.285616
  Si          -0.875067        4.015364       -2.329320
  Si          -0.870298        4.513427       -2.373024
  Si          -1.034345      -12.619956       -0.869606
  Si          -1.029576      -12.121893       -0.913310
  Si          -1.024807      -11.623829       -0.957014
  Si          -1.020039      -11.125766       -1.000718
  Si          -1.015270      -10.627702       -1.044422
  Si          -1.010501      -10.129639       -1.088126
  Si          -1.005732       -9.631575       -1.131830
  Si          -1.000963       -9.133512       -1.175534
  Si          -0.996195       -8.635448       -1.219238
  Si          -0.991426       -8.137385       -1.262942
  Si          -0.986657       -7.639321       -1.306646
  Si           0.172305       -6.646210       -2.447059
  Si           0.177074       -6.148147       -2.490763
  Si           0.181842       -5.650083       -2.534467
  Si           0.186611       -5.152020       -2.578171
  Si           0.191380       -4.653956       -2.621875
  Si           0.196149       -4.155893       -2.665579
  Si           0.200918       -3.657829       -2.709283
  Si           0.205686       -3.159766       -2.752987
  Si           0.210455       -2.661702       -2.796691
  Si           0.215224       -2.163639       -2.840395
  Si           0.219993       -1.665575       -2.884099
  Si           0.230484       -0.569836       -2.980248
  Si           0.235253       -0.071772       -3.023952
  Si           0.240022        0.426291       -3.067656
  Si           0.244790        0.924355       -3.111360
  Si           0.249559        1.422418       -3.155064
  Si           0.254328        1.920482       -3.198768
  Si           0.259097        2.418545       -3.242472
  Si           0.263866        2.916609       -3.286176
  Si           0.268634        3.414672       -3.329880
  Si           0.273403        3.912736       -3.373584
  Si           0.278172        4.410799       -3.417288
  Si           0.114126      -12.722584       -1.913870
  Si           0.118894      -12.224521       -1.957574
  Si           0.123663      -11.726457       -2.001278
  Si           0.128432      -11.228394       -2.044982
  Si           0.133201      -10.730330       -2.088686
  Si           0.137969      -10.232267       -2.132390
  Si           0.142738       -9.734203       -2.176094
  Si           0.147507       -9.236140       -2.219798
  Si           0.152276       -8.738077       -2.263502
  Si           0.157045       -8.240013       -2.307206
  Si           0.161813       -7.741950       -2.350910
  Si           0.221945       -6.742737       -3.541692
  Si           0.226714       -6.244673       -3.585396
  Si           0.231483       -5.746610       -3.629100
  Si           0.236251       -5.248547       -3.672804
  Si           0.241020       -4.750483       -3.716508
  Si           0.245789       -4.252420       -3.760212
  Si           0.250558       -3.754356       -3.803916
  Si           0.255326       -3.256293       -3.847620
  Si           0.260095       -2.758229       -3.891324
  Si           0.264864       -2.260166       -3.935028
  Si           0.269633       -1.762102       -3.978732
  Si           0.280124       -0.666363       -4.074881
  Si           0.284893       -0.168299       -4.118585
  Si           0.289662        0.329764       -4.162289
  Si           0.294431        0.827828       -4.205993
  Si           0.299199        1.325891       -4.249697
  Si           0.303968        1.823955       -4.293401
  Si           0.308737        2.322018       -4.337105
  Si           0.313506        2.820082       -4.380809
  Si           0.318275        3.318145       -4.424513
  Si           0.323043        3.816209       -4.468217
  Si           0.327812        4.314272       -4.511921
  Si           0.163766      -12.819111       -3.008503
  Si           0.168534      -12.321048       -3.052207
  Si           0.173303      -11.822984       -3.095911
  Si           0.178072      -11.324921       -3.139615
  Si           0.182841      -10.826857       -3.183319
  Si           0.187610      -10.328794       -3.227023
  Si           0.192378       -9.830730       -3.270727
  Si           0.197147       -9.332667       -3.314431
  Si           0.201916       -8.834604       -3.358135
  Si           0.206685       -8.336540       -3.401839
  Si           0.211454       -7.838477       -3.445543
  Si           0.271585       -6.839264       -4.636325
  Si           0.276354       -6.341200       -4.680029
  Si           0.281123       -5.843137       -4.723733
  Si           0.285891       -5.345074       -4.767437
  Si           0.290660       -4.847010       -4.811141
  Si           0.295429       -4.348947       -4.854845
  Si           0.300198       -3.850883       -4.898549
  Si           0.304967       -3.352820       -4.942253
  Si           0.309735       -2.854756       -4.985957
  Si           0.314504       -2.356693       -5.029661
  Si           0.319273       -1.858629       -5.073365
  Si           0.329764       -0.762890       -5.169513
  Si           0.334533       -0.264826       -5.213217
  Si           0.339302        0.233237       -5.256921
  Si           0.344071        0.731301       -5.300626
  Si           0.348840        1.229364       -5.344330
  Si           0.353608        1.727428       -5.388034
  Si           0.358377        2.225491       -5.431738
  Si           0.363146        2.723555       -5.475442
  Si           0.367915        3.221618       -5.519146
  Si           0.372683        3.719682       -5.562850
  Si           0.377452        4.217745       -5.606554
  Si           0.213406      -12.915638       -4.103136
  Si           0.218175      -12.417575       -4.146840
  Si           0.222943      -11.919511       -4.190544
  Si           0.227712      -11.421448       -4.234248
  Si           0.232481      -10.923384       -4.277952
  Si           0.237250      -10.425321       -4.321656
  Si           0.242019       -9.927257       -4.365360
  Si           0.246787       -9.429194       -4.409064
  Si           0.251556       -8.931131       -4.452768
  Si           0.256325       -8.433067       -4.496472
  Si           0.261094       -7.935004       -4.540176
  Si           0.321225       -6.935791       -5.730957
  Si           0.325994       -6.437727       -5.774661
  Si           0.330763       -5.939664       -5.818365
  Si           0.335532       -5.441601       -5.862069
  Si           0.340300       -4.943537       -5.905773
  Si           0.345069       -4.445474       -5.949477
  Si           0.349838       -3.947410       -5.993181
  Si           0.354607       -3.449347       -6.036885
  Si           0.359376       -2.951283       -6.080589
  Si           0.364144       -2.453220       -6.124293
  Si           0.368913       -1.955156       -6.167997
  Si           0.379404       -0.859417       -6.264146
  Si           0.384173       -0.361353       -6.307850
  Si           0.388942        0.136710       -6.351554
  Si           0.393711        0.634774       -6.395258
  Si           0.398480        1.132837       -6.438962
  Si           0.403248        1.630901       -6.482666
  Si           0.408017        2.128964       -6.526370
  Si           0.412786        2.627028       -6.570074
  Si           0.417555        3.125091       -6.613778
  Si           0.422324        3.623155       -6.657482
  Si           0.427092        4.121218       -6.701186
  Si           0.263046      -13.012165       -5.197768
  Si           0.267815      -12.514102       -5.241472
  Si           0.272584      -12.016038       -5.285176
  Si           0.277352      -11.517975       -5.328880
  Si           0.282121      -11.019911       -5.372584
  Si           0.286890      -10.521848       -5.416288
  Si           0.291659      -10.023784       -5.459992
  Si           0.296427       -9.525721       -5.503696
  Si           0.301196       -9.027657       -5.547400
  Si           0.305965       -8.529594       -5.591104
  Si           0.310734       -8.031531       -5.634808
  Si           0.370865       -7.032318       -6.825590
  Si           0.375634       -6.534254       -6.869294
  Si           0.380403       -6.036191       -6.912998
  Si           0.385172       -5.538127       -6.956702
  Si           0.389941       -5.040064       -7.000406
  Si           0.394709       -4.542001       -7.044110
  Si           0.399478       -4.043937       -7.087814
  Si           0.404247       -3.545874       -7.131518
  Si           0.409016       -3.047810       -7.175222
  Si           0.413784       -2.549747       -7.218926
  Si           0.418553       -2.051683       -7.262630
  Si           0.429045       -0.955944       -7.358779
  Si           0.433813       -0.457880       -7.402483
  Si           0.438582        0.040183       -7.446187
  Si           0.443351        0.538247       -7.489891
  Si           0.448120        1.036310       -7.533595
  Si           0.452889        1.534374       -7.577299
  Si           0.457657        2.032437       -7.621003
  Si           0.462426        2.530501       -7.664707
  Si           0.467195        3.028564       -7.708411
  Si           0.471964        3.526628       -7.752115
  Si           0.476733        4.024691       -7.795819
  Si           0.312686      -13.108692       -6.292401
  Si           0.317455      -12.610629       -6.336105
  Si           0.322224      -12.112565       -6.379809
  Si           0.326992      -11.614502       -6.423513
  Si           0.331761      -11.116438       -6.467217
  Si           0.336530      -10.618375       -6.510921
  Si           0.341299      -10.120311       -6.554625
  Si           0.346068       -9.622248       -6.598329
  Si           0.350836       -9.124184       -6.642033
  Si           0.355605       -8.626121       -6.685737
  Si           0.360374       -8.128058       -6.729441
  Si           0.420506       -7.128845       -7.920222
  Si           0.425274       -6.630781       -7.963926
  Si           0.430043       -6.132718       -8.007630
  Si           0.434812       -5.634654       -8.051334
  Si           0.439581       -5.136591       -8.095038
  Si           0.444349       -4.638528       -8.138742
  Si           0.449118       -4.140464       -8.182447
  Si           0.453887       -3.642401       -8.226151
  Si           0.458656       -3.144337       -8.269855
  Si           0.463425       -2.646274       -8.313559
  Si           0.468193       -2.148210       -8.357263
  Si           0.478685       -1.052471       -8.453411
  Si           0.483454       -0.554407       -8.497115
  Si           0.488222       -0.056344       -8.540819
  Si           0.492991        0.441720       -8.584523
  Si           0.497760        0.939783       -8.628227
  Si           0.502529        1.437847       -8.671931
  Si           0.507298        1.935910       -8.715635
  Si           0.512066        2.433974       -8.759339
  Si           0.516835        2.932037       -8.803043
  Si           0.521604        3.430101       -8.846747
  Si           0.526373        3.928164       -8.890451
  Si           0.362326      -13.205219       -7.387034
  Si           0.367095      -12.707156       -7.430738
  Si           0.371864      -12.209092       -7.474442
  Si           0.376633      -11.711029       -7.518146
  Si           0.381401      -11.212965       -7.561850
  Si           0.386170      -10.714902       -7.605554
  Si           0.390939      -10.216838       -7.649258
  Si           0.395708       -9.718775       -7.692962
  Si           0.400477       -9.220711       -7.736666
  Si           0.405245       -8.722648       -7.780370
  Si           0.410014       -8.224584       -7.824074
  Si           0.470146       -7.225372       -9.014855
  Si           0.474914       -6.727308       -9.058559
  Si           0.479683       -6.229245       -9.102263
  Si           0.484452       -5.731181       -9.145967
  Si           0.489221       -5.233118       -9.189671
  Si           0.493990       -4.735055       -9.233375
  Si           0.498758       -4.236991       -9.277079
  Si           0.503527       -3.738928       -9.320783
  Si           0.508296       -3.240864       -9.364487
  Si           0.513065       -2.742801       -9.408191
  Si           0.517834       -2.244737       -9.451895
  Si           0.528325       -1.148998       -9.548044
  Si           0.533094       -0.650934       -9.591748
  Si           0.537862       -0.152871       -9.635452
  Si           0.542631        0.345193       -9.679156
  Si           0.547400        0.843256       -9.722860
  Si           0.552169        1.341320       -9.766564
  Si           0.556938        1.839383       -9.810268
  Si           0.561706        2.337447       -9.853972
  Si           0.566475        2.835510       -9.897676
  Si           0.571244        3.333574       -9.941380
  Si           0.576013        3.831637       -9.985084
  Si           0.411966      -13.301746       -8.481666
  Si           0.416735      -12.803683       -8.525370
  Si           0.421504      -12.305619       -8.569074
  Si           0.426273      -11.807556       -8.612778
  Si           0.431042      -11.309492       -8.656482
  Si           0.435810      -10.811429       -8.700186
  Si           0.440579      -10.313365       -8.743890
  Si           0.445348       -9.815302       -8.787594
  Si           0.450117       -9.317238       -8.831298
  Si           0.454886       -8.819175       -8.875002
  Si           0.459654       -8.321111       -8.918706
  Si           0.519786       -7.321899      -10.109488
  Si           0.524555       -6.823835      -10.153192
  Si           0.529323       -6.325772      -10.196896
  Si           0.534092       -5.827708      -10.240600
  Si           0.538861       -5.329645      -10.284304
  Si           0.543630       -4.831581      -10.328008
  Si           0.548399       -4.333518      -10.371712
  Si           0.553167       -3.835455      -10.415416
  Si           0.557936       -3.337391      -10.459120
  Si           0.562705       -2.839328      -10.502824
  Si           0.567474       -2.341264      -10.546528
  Si           0.577965       -1.245525      -10.642677
  Si           0.582734       -0.747461      -10.686381
  Si           0.587503       -0.249398      -10.730085
  Si           0.592271        0.248666      -10.773789
  Si           0.597040        0.746729      -10.817493
  Si           0.601809        1.244793      -10.861197
  Si           0.606578        1.742856      -10.904901
  Si           0.611347        2.240920      -10.948605
  Si           0.616115        2.738983      -10.992309
  Si           0.620884        3.237047      -11.036013
  Si           0.625653        3.735110      -11.079717
  Si           0.461607      -13.398273       -9.576299
  Si           0.466375      -12.900210       -9.620003
  Si           0.471144      -12.402146       -9.663707
  Si           0.475913      -11.904083       -9.707411
  Si           0.480682      -11.406019       -9.751115
  Si           0.485450      -10.907956       -9.794819
  Si           0.490219      -10.409892       -9.838523
  Si           0.494988       -9.911829       -9.882227
  Si           0.499757       -9.413765       -9.925931
  Si           0.504526       -8.915702       -9.969635
  Si           0.509294       -8.417638      -10.013339
  Si           0.569426       -7.418426      -11.204120
  Si           0.574195       -6.920362      -11.247824
  Si           0.578964       -6.422299      -11.291528
  Si           0.583732       -5.924235      -11.335232
  Si           0.588501       -5.426172      -11.378936
  Si           0.593270       -4.928108      -11.422640
  Si           0.598039       -4.430045      -11.466344
  Si           0.602807       -3.931982      -11.510048
  Si           0.607576       -3.433918      -11.553752
  Si           0.612345       -2.935855      -11.597456
  Si           0.617114       -2.437791      -11.641160
  Si           0.627605       -1.342051      -11.737309
  Si           0.632374       -0.843988      -11.781013
  Si           0.637143       -0.345925      -11.824717
  Si           0.641912        0.152139      -11.868421
  Si           0.646680        0.650202      -11.912125
  Si           0.651449        1.148266      -11.955829
  Si           0.656218        1.646329      -11.999533
  Si           0.660987        2.144393      -12.043237
  Si           0.665756        2.642456      -12.086941
  Si           0.670524        3.140520      -12.130645
  Si           0.675293        3.638583      -12.174349
  Si           0.511247      -13.494800      -10.670931
  Si           0.516015      -12.996737      -10.714635
  Si           0.520784      -12.498673      -10.758339
  Si           0.525553      -12.000610      -10.802043
  Si           0.530322      -11.502546      -10.845747
  Si           0.535091      -11.004483      -10.889451
  Si           0.539859      -10.506419      -10.933155
  Si           0.544628      -10.008356      -10.976859
  Si           0.549397       -9.510292      -11.020563
  Si           0.554166       -9.012229      -11.064267
  Si           0.558935       -8.514165      -11.107972
  Si          -0.224816       -5.873994        6.310002
  Si          -0.220048       -5.375931        6.266298
  Si          -0.215279       -4.877867        6.222594
  Si          -0.210510       -4.379804        6.178890
  Si          -0.205741       -3.881740        6.135186
  Si          -0.200972       -3.383677        6.091482
  Si          -0.196204       -2.885613        6.047778
  Si          -0.191435       -2.387550        6.004074
  Si          -0.186666       -1.889486        5.960370
  Si          -0.181897       -1.391423        5.916666
  Si          -0.177128       -0.893360        5.872962
  Si          -0.166637        0.202380        5.776813
  Si          -0.161868        0.700444        5.733109
  Si          -0.157100        1.198507        5.689405
  Si          -0.152331        1.696571        5.645701
  Si          -0.147562        2.194634        5.601997
  Si          -0.142793        2.692697        5.558293
  Si          -0.138024        3.190761        5.514589
  Si          -0.133256        3.688824        5.470885
  Si          -0.128487        4.186888        5.427181
  Si          -0.123718        4.684951        5.383477
  Si          -0.118949        5.183015        5.339773
  Si          -0.282996      -11.950368        6.843191
  Si          -0.278227      -11.452305        6.799487
  Si          -0.273458      -10.954242        6.755783
  Si          -0.268689      -10.456178        6.712079
  Si          -0.263920       -9.958115        6.668375
  Si          -0.259152       -9.460051        6.624671
  Si          -0.254383       -8.961988        6.580967
  Si          -0.249614       -8.463924        6.537263
  Si          -0.244845       -7.965861        6.493559
  Si          -0.240076       -7.467797        6.449855
  Si          -0.235308       -6.969734        6.406151
  Si          -0.175176       -5.970521        5.215369
  Si          -0.170407       -5.472458        5.171665
  Si          -0.165639       -4.974394        5.127961
  Si          -0.160870       -4.476331        5.084257
  Si          -0.156101       -3.978267        5.040553
  Si          -0.151332       -3.480204        4.996849
  Si          -0.146563       -2.982140        4.953145
  Si          -0.141795       -2.484077        4.909441
  Si          -0.137026       -1.986013        4.865737
  Si          -0.132257       -1.487950        4.822033
  Si          -0.127488       -0.989886        4.778329
  Si          -0.116997        0.105853        4.682180
  Si          -0.112228        0.603917        4.638476
  Si          -0.107459        1.101980        4.594772
  Si          -0.102691        1.600044        4.551068
  Si          -0.097922        2.098107        4.507364
  Si          -0.093153        2.596170        4.463660
  Si          -0.088384        3.094234        4.419956
  Si          -0.083615        3.592297        4.376252
  Si          -0.078847        4.090361        4.332548
  Si          -0.074078        4.588424        4.288844
  Si          -0.069309        5.086488        4.245140
  Si          -0.233355      -12.046895        5.748558
  Si          -0.228587      -11.548832        5.704854
  Si          -0.223818      -11.050769        5.661150
  Si          -0.219049      -10.552705        5.617446
  Si          -0.214280      -10.054642        5.573742
  Si          -0.209512       -9.556578        5.530038
  Si          -0.204743       -9.058515        5.486334
  Si          -0.199974       -8.560451        5.442630
  Si          -0.195205       -8.062388        5.398926
  Si          -0.190436       -7.564324        5.355222
  Si          -0.185668       -7.066261        5.311518
  Si          -0.125536       -6.067048        4.120737
  Si          -0.120767       -5.568985        4.077033
  Si          -0.115998       -5.070921        4.033328
  Si          -0.111230       -4.572858        3.989624
  Si          -0.106461       -4.074794        3.945920
  Si          -0.101692       -3.576731        3.902216
  Si          -0.096923       -3.078667        3.858512
  Si          -0.092155       -2.580604        3.814808
  Si          -0.087386       -2.082540        3.771104
  Si          -0.082617       -1.584477        3.727400
  Si          -0.077848       -1.086413        3.683696
  Si          -0.067357        0.009326        3.587548
  Si          -0.062588        0.507390        3.543844
  Si          -0.057819        1.005453        3.500140
  Si          -0.053050        1.503517        3.456436
  Si          -0.048282        2.001580        3.412732
  Si          -0.043513        2.499644        3.369028
  Si          -0.038744        2.997707        3.325324
  Si          -0.033975        3.495770        3.281620
  Si          -0.029206        3.993834        3.237915
  Si          -0.024438        4.491897        3.194211
  Si          -0.019669        4.989961        3.150507
  Si          -0.183715      -12.143422        4.653925
  Si          -0.178947      -11.645359        4.610221
  Si          -0.174178      -11.147296        4.566517
  Si          -0.169409      -10.649232        4.522813
  Si          -0.164640      -10.151169        4.479109
  Si          -0.159871       -9.653105        4.435405
  Si          -0.155103       -9.155042        4.391701
  Si          -0.150334       -8.656978        4.347997
  Si          -0.145565       -8.158915        4.304293
  Si          -0.140796       -7.660851        4.260589
  Si          -0.136027       -7.162788        4.216885
  Si          -0.075896       -6.163575        3.026104
  Si          -0.071127       -5.665512        2.982400
  Si          -0.066358       -5.167448        2.938696
  Si          -0.061590       -4.669385        2.894992
  Si          -0.056821       -4.171321        2.851288
  Si          -0.052052       -3.673258        2.807584
  Si          -0.047283       -3.175194        2.763880
  Si          -0.042514       -2.677131        2.720176
  Si          -0.037746       -2.179067        2.676472
  Si          -0.032977       -1.681004        2.632768
  Si          -0.028208       -1.182940        2.589064
  Si          -0.017717       -0.087201        2.492915
  Si          -0.012948        0.410863        2.449211
  Si          -0.008179        0.908926        2.405507
  Si          -0.003410        1.406990        2.361803
  Si           0.001358        1.905053        2.318099
  Si           0.006127        2.403117        2.274395
  Si           0.010896        2.901180        2.230691
  Si           0.015665        3.399243        2.186987
  Si           0.020434        3.897307        2.143283
  Si           0.025202        4.395370        2.099579
  Si           0.029971        4.893434        2.055875
  Si          -0.134075      -12.239949        3.559293
  Si          -0.129306      -11.741886        3.515589
  Si          -0.124538      -11.243822        3.471885
  Si          -0.119769      -10.745759        3.428181
  Si          -0.115000      -10.247696        3.384477
  Si          -0.110231       -9.749632        3.340773
  Si          -0.105462       -9.251569        3.297069
  Si          -0.100694       -8.753505        3.253365
  Si          -0.095925       -8.255442        3.209661
  Si          -0.091156       -7.757378        3.165957
  Si          -0.086387       -7.259315        3.122253
  Si          -0.026256       -6.260102        1.931471
  Si          -0.021487       -5.762039        1.887767
  Si          -0.016718       -5.263975        1.844063
  Si          -0.011949       -4.765912        1.800359
  Si          -0.007181       -4.267848        1.756655
  Si          -0.002412       -3.769785        1.712951
  Si           0.002357       -3.271721        1.669247
  Si           0.007126       -2.773658        1.625543
  Si           0.011895       -2.275594        1.581839
  Si           0.016663       -1.777531        1.538135
  Si           0.021432       -1.279467        1.494431
  Si           0.031923       -0.183728        1.398282
  Si           0.036692        0.314336        1.354578
  Si           0.041461        0.812399        1.310874
  Si           0.046230        1.310463        1.267170
  Si           0.050999        1.808526        1.223466
  Si           0.055767        2.306590        1.179762
  Si           0.060536        2.804653        1.136058
  Si           0.065305        3.302716        1.092354
  Si           0.070074        3.800780        1.048650
  Si           0.074843        4.298843        1.004946
  Si           0.079611        4.796907        0.961242
  Si          -0.084435      -12.336476        2.464660
  Si          -0.079666      -11.838413        2.420956
  Si          -0.074897      -11.340349        2.377252
  Si          -0.070129      -10.842286        2.333548
  Si          -0.065360      -10.344223        2.289844
  Si          -0.060591       -9.846159        2.246140
  Si          -0.055822       -9.348096        2.202436
  Si          -0.051054       -8.850032        2.158732
  Si          -0.046285       -8.351969        2.115028
  Si          -0.041516       -7.853905        2.071324
  Si          -0.036747       -7.355842        2.027620
  Si           0.023384       -6.356629        0.836839
  Si           0.028153       -5.858566        0.793135
  Si           0.032922       -5.360502        0.749431
  Si           0.037691       -4.862439        0.705727
  Si           0.042460       -4.364375        0.662023
  Si           0.047228       -3.866312        0.618319
  Si           0.051997       -3.368248        0.574615
  Si           0.056766       -2.870185        0.530911
  Si           0.061535       -2.372121        0.487207
  Si           0.066303       -1.874058        0.443503
  Si           0.071072       -1.375994        0.399799
  Si           0.081564       -0.280255        0.303650
  Si           0.086332        0.217809        0.259946
  Si           0.091101        0.715872        0.216242
  Si           0.095870        1.213936        0.172538
  Si           0.100639        1.711999        0.128834
  Si           0.105408        2.210063        0.085130
  Si           0.110176        2.708126        0.041426
  Si           0.114945        3.206190       -0.002278
  Si           0.119714        3.704253       -0.045982
  Si           0.124483        4.202316       -0.089686
  Si           0.129252        4.700380       -0.133390
  Si          -0.034795      -12.433003        1.370028
  Si          -0.030026      -11.934940        1.326324
  Si          -0.025257      -11.436876        1.282620
  Si          -0.020489      -10.938813        1.238916
  Si          -0.015720      -10.440749        1.195212
  Si          -0.010951       -9.942686        1.151508
  Si          -0.006182       -9.444623        1.107803
  Si          -0.001413       -8.946559        1.064099
  Si           0.003355       -8.448496        1.020395
  Si           0.008124       -7.950432        0.976691
  Si           0.012893       -7.452369        0.932987
  Si           0.073024       -6.453156       -0.257794
  Si           0.077793       -5.955093       -0.301498
  Si           0.082562       -5.457029       -0.345202
  Si           0.087331       -4.958966       -0.388906
  Si           0.092100       -4.460902       -0.432610
  Si           0.096868       -3.962839       -0.476314
  Si           0.101637       -3.464775       -0.520018
  Si           0.106406       -2.966712       -0.563722
  Si           0.111175       -2.468648       -0.607426
  Si           0.115944       -1.970585       -0.651130
  Si           0.120712       -1.472521       -0.694834
  Si           0.131204       -0.376782       -0.790983
  Si           0.135973        0.121282       -0.834687
  Si           0.140741        0.619345       -0.878391
  Si           0.145510        1.117409       -0.922095
  Si           0.150279        1.615472       -0.965799
  Si           0.155048        2.113536       -1.009503
  Si           0.159817        2.611599       -1.053207
  Si           0.164585        3.109663       -1.096911
  Si           0.169354        3.607726       -1.140615
  Si           0.174123        4.105789       -1.184319
  Si           0.178892        4.603853       -1.228023
  Si           0.014845      -12.529530        0.275395
  Si           0.019614      -12.031467        0.231691
  Si           0.024383      -11.533403        0.187987
  Si           0.029152      -11.035340        0.144283
  Si           0.033920      -10.537276        0.100579
  Si           0.038689      -10.039213        0.056875
  Si           0.043458       -9.541150        0.013171
  Si           0.048227       -9.043086       -0.030533
  Si           0.052996       -8.545023       -0.074237
  Si           0.057764       -8.046959       -0.117941
  Si           0.062533       -7.548896       -0.161645
  Si           0.122665       -6.549683       -1.352427
  Si           0.127433       -6.051620       -1.396131
  Si           0.132202       -5.553556       -1.439835
  Si           0.136971       -5.055493       -1.483539
  Si           0.141740       -4.557429       -1.527243
  Si           0.146509       -4.059366       -1.570947
  Si           0.151277       -3.561302       -1.614651
  Si           0.156046       -3.063239       -1.658355
  Si           0.160815       -2.565175       -1.702059
  Si           0.165584       -2.067112       -1.745763
  Si           0.170353       -1.569048       -1.789467
  Si           0.180844       -0.473309       -1.885616
  Si           0.185613        0.024755       -1.929320
  Si           0.190381        0.522818       -1.973024
  Si           0.195150        1.020882       -2.016728
  Si           0.199919        1.518945       -2.060432
  Si           0.204688        2.017009       -2.104136
  Si           0.209457        2.515072       -2.147840
  Si           0.214225        3.013136       -2.191544
  Si           0.218994        3.511199       -2.235248
  Si           0.223763        4.009263       -2.278952
  Si           0.228532        4.507326       -2.322656
  Si           0.064485      -12.626057       -0.819238
  Si           0.069254      -12.127994       -0.862942
  Si           0.074023      -11.629930       -0.906646
  Si           0.078792      -11.131867       -0.950350
  Si           0.083561      -10.633803       -0.994054
  Si           0.088329      -10.135740       -1.037758
  Si           0.093098       -9.637677       -1.081462
  Si           0.097867       -9.139613       -1.125166
  Si           0.102636       -8.641550       -1.168870
  Si           0.107405       -8.143486       -1.212574
  Si           0.112173       -7.645423       -1.256278
  Si           1.271135       -6.652311       -2.396691
  Si           1.275904       -6.154248       -2.440395
  Si           1.280673       -5.656184       -2.484099
  Si           1.285441       -5.158121       -2.527803
  Si           1.290210       -4.660057       -2.571507
  Si           1.294979       -4.161994       -2.615211
  Si           1.299748       -3.663930       -2.658915
  Si           1.304517       -3.165867       -2.702619
  Si           1.309285       -2.667803       -2.746323
  Si           1.314054       -2.169740       -2.790027
  Si           1.318823       -1.671677       -2.833731
  Si           1.329314       -0.575937       -2.929880
  Si           1.334083       -0.077873       -2.973584
  Si           1.338852        0.420190       -3.017288
  Si           1.343621        0.918254       -3.060992
  Si           1.348389        1.416317       -3.104696
  Si           1.353158        1.914380       -3.148400
  Si           1.357927        2.412444       -3.192104
  Si           1.362696        2.910507       -3.235808
  Si           1.367465        3.408571       -3.279512
  Si           1.372233        3.906634       -3.323216
  Si           1.377002        4.404698       -3.366920
  Si           1.212956      -12.728686       -1.863502
  Si           1.217725      -12.230622       -1.907206
  Si           1.222493      -11.732559       -1.950910
  Si           1.227262      -11.234495       -1.994614
  Si           1.232031      -10.736432       -2.038318
  Si           1.236800      -10.238368       -2.082022
  Si           1.241569       -9.740305       -2.125726
  Si           1.246337       -9.242241       -2.169430
  Si           1.251106       -8.744178       -2.213134
  Si           1.255875       -8.246114       -2.256838
  Si           1.260644       -7.748051       -2.300542
  Si           1.320775       -6.748838       -3.491323
  Si           1.325544       -6.250775       -3.535027
  Si           1.330313       -5.752711       -3.578731
  Si           1.335082       -5.254648       -3.622435
  Si           1.339850       -4.756584       -3.666139
  Si           1.344619       -4.258521       -3.709843
  Si           1.349388       -3.760457       -3.753547
  Si           1.354157       -3.262394       -3.797251
  Si           1.358926       -2.764330       -3.840955
  Si           1.363694       -2.266267       -3.884659
  Si           1.368463       -1.768203       -3.928363
  Si           1.378954       -0.672464       -4.024512
  Si           1.383723       -0.174400       -4.068216
  Si           1.388492        0.323663       -4.111920
  Si           1.393261        0.821727       -4.155624
  Si           1.398030        1.319790       -4.199328
  Si           1.402798        1.817853       -4.243032
  Si           1.407567        2.315917       -4.286736
  Si           1.412336        2.813980       -4.330440
  Si           1.417105        3.312044       -4.374144
  Si           1.421874        3.810107       -4.417848
  Si           1.426642        4.308171       -4.461552
  Si           1.262596      -12.825212       -2.958134
  Si           1.267365      -12.327149       -3.001838
  Si           1.272134      -11.829086       -3.045542
  Si           1.276902      -11.331022       -3.089246
  Si           1.281671      -10.832959       -3.132950
  Si           1.286440      -10.334895       -3.176655
  Si           1.291209       -9.836832       -3.220359
  Si           1.295977       -9.338768       -3.264063
  Si           1.300746       -8.840705       -3.307767
  Si           1.305515       -8.342641       -3.351471
  Si           1.310284       -7.844578       -3.395175
  Si           1.370415       -6.845365       -4.585956
  Si           1.375184       -6.347302       -4.629660
  Si           1.379953       -5.849238       -4.673364
  Si           1.384722       -5.351175       -4.717068
  Si           1.389491       -4.853111       -4.760772
  Si           1.394259       -4.355048       -4.804476
  Si           1.399028       -3.856984       -4.848180
  Si           1.403797       -3.358921       -4.891884
  Si           1.408566       -2.860857       -4.935588
  Si           1.413334       -2.362794       -4.979292
  Si           1.418103       -1.864730       -5.022996
  Si           1.428595       -0.768991       -5.119145
  Si           1.433363       -0.270927       -5.162849
  Si           1.438132        0.227136       -5.206553
  Si           1.442901        0.725200       -5.250257
  Si           1.447670        1.223263       -5.293961
  Si           1.452439        1.721327       -5.337665
  Si           1.457207        2.219390       -5.381369
  Si           1.461976        2.717453       -5.425073
  Si           1.466745        3.215517       -5.468777
  Si           1.471514        3.713580       -5.512481
  Si           1.476283        4.211644       -5.556185
  Si           1.312236      -12.921739       -4.052767
  Si           1.317005      -12.423676       -4.096471
  Si           1.321774      -11.925613       -4.140175
  Si           1.326542      -11.427549       -4.183879
  Si           1.331311      -10.929486       -4.227583
  Si           1.336080      -10.431422       -4.271287
  Si           1.340849       -9.933359       -4.314991
  Si           1.345618       -9.435295       -4.358695
  Si           1.350386       -8.937232       -4.402399
  Si           1.355155       -8.439168       -4.446103
  Si           1.359924       -7.941105       -4.489807
  Si           1.420055       -6.941892       -5.680589
  Si           1.424824       -6.443829       -5.724293
  Si           1.429593       -5.945765       -5.767997
  Si           1.434362       -5.447702       -5.811701
  Si           1.439131       -4.949638       -5.855405
  Si           1.443899       -4.451575       -5.899109
  Si           1.448668       -3.953511       -5.942813
  Si           1.453437       -3.455448       -5.986517
  Si           1.458206       -2.957384       -6.030221
  Si           1.462975       -2.459321       -6.073925
  Si           1.467743       -1.961257       -6.117629
  Si           1.478235       -0.865518       -6.213778
  Si           1.483004       -0.367454       -6.257482
  Si           1.487772        0.130609       -6.301186
  Si           1.492541        0.628673       -6.344890
  Si           1.497310        1.126736       -6.388594
  Si           1.502079        1.624800       -6.432298
  Si           1.506848        2.122863       -6.476002
  Si           1.511616        2.620926       -6.519706
  Si           1.516385        3.118990       -6.563410
  Si           1.521154        3.617053       -6.607114
  Si           1.525923        4.115117       -6.650818
  Si           1.361876      -13.018266       -5.147400
  Si           1.366645      -12.520203       -5.191104
  Si           1.371414      -12.022139       -5.234808
  Si           1.376183      -11.524076       -5.278512
  Si           1.380951      -11.026013       -5.322216
  Si           1.385720      -10.527949       -5.365920
  Si           1.390489      -10.029886       -5.409624
  Si           1.395258       -9.531822       -5.453328
  Si           1.400027       -9.033759       -5.497032
  Si           1.404795       -8.535695       -5.540736
  Si           1.409564       -8.037632       -5.584440
  Si           1.469696       -7.038419       -6.775221
  Si           1.474464       -6.540356       -6.818925
  Si           1.479233       -6.042292       -6.862629
  Si           1.484002       -5.544229       -6.906333
  Si           1.488771       -5.046165       -6.950037
  Si           1.493540       -4.548102       -6.993741
  Si           1.498308       -4.050038       -7.037445
  Si           1.503077       -3.551975       -7.081149
  Si           1.507846       -3.053911       -7.124853
  Si           1.512615       -2.555848       -7.168557
  Si           1.517384       -2.057784       -7.212261
  Si           1.527875       -0.962045       -7.308410
  Si           1.532644       -0.463981       -7.352114
  Si           1.537412        0.034082       -7.395818
  Si           1.542181        0.532146       -7.439522
  Si           1.546950        1.030209       -7.483226
  Si           1.551719        1.528273       -7.526930
  Si           1.556488        2.026336       -7.570634
  Si           1.561256        2.524399       -7.614338
  Si           1.566025        3.022463       -7.658042
  Si           1.570794        3.520526       -7.701746
  Si           1.575563        4.018590       -7.745450
  Si           1.411516      -13.114793       -6.242032
  Si           1.416285      -12.616730       -6.285736
  Si           1.421054      -12.118666       -6.329440
  Si           1.425823      -11.620603       -6.373144
  Si           1.430592      -11.122540       -6.416848
  Si           1.435360      -10.624476       -6.460552
  Si           1.440129      -10.126413       -6.504256
  Si           1.444898       -9.628349       -6.547960
  Si           1.449667       -9.130286       -6.591664
  Si           1.454436       -8.632222       -6.635368
  Si           1.459204       -8.134159       -6.679072
  Si           1.519336       -7.134946       -7.869854
  Si           1.524105       -6.636883       -7.913558
  Si           1.528873       -6.138819       -7.957262
  Si           1.533642       -5.640756       -8.000966
  Si           1.538411       -5.142692       -8.044670
  Si           1.543180       -4.644629       -8.088374
  Si           1.547949       -4.146565       -8.132078
  Si           1.552717       -3.648502       -8.175782
  Si           1.557486       -3.150438       -8.219486
  Si           1.562255       -2.652375       -8.263190
  Si           1.567024       -2.154311       -8.306894
  Si           1.577515       -1.058572       -8.403043
  Si           1.582284       -0.560508       -8.446747
  Si           1.587053       -0.062445       -8.490451
  Si           1.591821        0.435619       -8.534155
  Si           1.596590        0.933682       -8.577859
  Si           1.601359        1.431746       -8.621563
  Si           1.606128        1.929809       -8.665267
  Si           1.610897        2.427873       -8.708971
  Si           1.615665        2.925936       -8.752675
  Si           1.620434        3.423999       -8.796379
  Si           1.625203        3.922063       -8.840083
  Si           1.461157      -13.211320       -7.336665
  Si           1.465925      -12.713257       -7.380369
  Si           1.470694      -12.215193       -7.424073
  Si           1.475463      -11.717130       -7.467777
  Si           1.480232      -11.219067       -7.511481
  Si           1.485000      -10.721003       -7.555185
  Si           1.489769      -10.222940       -7.598889
  Si           1.494538       -9.724876       -7.642593
  Si           1.499307       -9.226813       -7.686297
  Si           1.504076       -8.728749       -7.730001
  Si           1.508844       -8.230686       -7.773705
  Si           1.568976       -7.231473       -8.964487
  Si           1.573745       -6.733410       -9.008191
  Si           1.578514       -6.235346       -9.051895
  Si           1.583282       -5.737283       -9.095599
  Si           1.588051       -5.239219       -9.139303
  Si           1.592820       -4.741156       -9.183007
  Si           1.597589       -4.243092       -9.226711
  Si           1.602357       -3.745029       -9.270415
  Si           1.607126       -3.246965       -9.314119
  Si           1.611895       -2.748902       -9.357823
  Si           1.616664       -2.250838       -9.401527
  Si           1.627155       -1.155099       -9.497675
  Si           1.631924       -0.657035       -9.541379
  Si           1.636693       -0.158972       -9.585084
  Si           1.641462        0.339092       -9.628788
  Si           1.646230        0.837155       -9.672492
  Si           1.650999        1.335219       -9.716196
  Si           1.655768        1.833282       -9.759900
  Si           1.660537        2.331346       -9.803604
  Si           1.665306        2.829409       -9.847308
  Si           1.670074        3.327472       -9.891012
  Si           1.674843        3.825536       -9.934716
  Si           1.510797      -13.307847       -8.431298
  Si           1.515565      -12.809784       -8.475002
  Si           1.520334      -12.311720       -8.518706
  Si           1.525103      -11.813657       -8.562410
  Si           1.529872      -11.315593       -8.606114
  Si           1.534641      -10.817530       -8.649818
  Si           1.539409      -10.319467       -8.693522
  Si           1.544178       -9.821403       -8.737226
  Si           1.548947       -9.323340       -8.780930
  Si           1.553716       -8.825276       -8.824634
  Si           1.558485       -8.327213       -8.868338
  Si           1.618616       -7.328000      -10.059119
  Si           1.623385       -6.829937      -10.102823
  Si           1.628154       -6.331873      -10.146527
  Si           1.632922       -5.833810      -10.190231
  Si           1.637691       -5.335746      -10.233935
  Si           1.642460       -4.837683      -10.277639
  Si           1.647229       -4.339619      -10.321343
  Si           1.651998       -3.841556      -10.365047
  Si           1.656766       -3.343492      -10.408751
  Si           1.661535       -2.845429      -10.452455
  Si           1.666304       -2.347365      -10.496159
  Si           1.676795       -1.251626      -10.592308
  Si           1.681564       -0.753562      -10.636012
  Si           1.686333       -0.255499      -10.679716
  Si           1.691102        0.242565      -10.723420
  Si           1.695871        0.740628      -10.767124
  Si           1.700639        1.238692      -10.810828
  Si           1.705408        1.736755      -10.854532
  Si           1.710177        2.234819      -10.898236
  Si           1.714946        2.732882      -10.941940
  Si           1.719714        3.230945      -10.985644
  Si           1.724483        3.729009      -11.029348
  Si           1.560437      -13.404374       -9.525930
  Si           1.565206      -12.906311       -9.569634
  Si           1.569974      -12.408247       -9.613338
  Si           1.574743      -11.910184       -9.657042
  Si           1.579512      -11.412120       -9.700746
  Si           1.584281      -10.914057       -9.744450
  Si           1.589050      -10.415994       -9.788154
  Si           1.593818       -9.917930       -9.831858
  Si           1.598587       -9.419867       -9.875562
  Si           1.603356       -8.921803       -9.919266
  Si           1.608125       -8.423740       -9.962970
  Si           1.668256       -7.424527      -11.153752
  Si           1.673025       -6.926464      -11.197456
  Si           1.677794       -6.428400      -11.241160
  Si           1.682563       -5.930337      -11.284864
  Si           1.687331       -5.432273      -11.328568
  Si           1.692100       -4.934210      -11.372272
  Si           1.696869       -4.436146      -11.415976
  Si           1.701638       -3.938083      -11.459680
  Si           1.706407       -3.440019      -11.503384
  Si           1.711175       -2.941956      -11.547088
  Si           1.715944       -2.443892      -11.590792
  Si           1.726435       -1.348153      -11.686941
  Si           1.731204       -0.850089      -11.730645
  Si           1.735973       -0.352026      -11.774349
  Si           1.740742        0.146038      -11.818053
  Si           1.745511        0.644101      -11.861757
  Si           1.750279        1.142165      -11.905461
  Si           1.755048        1.640228      -11.949165
  Si           1.759817        2.138292      -11.992869
  Si           1.764586        2.636355      -12.036573
  Si           1.769355        3.134419      -12.080277
  Si           1.774123        3.632482      -12.123981
  Si           1.610077      -13.500901      -10.620563
  Si           1.614846      -13.002838      -10.664267
  Si           1.619615      -12.504774      -10.707971
  Si           1.624383      -12.006711      -10.751675
  Si           1.629152      -11.508647      -10.795379
  Si           1.633921      -11.010584      -10.839083
  Si           1.638690      -10.512520      -10.882787
  Si           1.643458      -10.014457      -10.926491
  Si           1.648227       -9.516394      -10.970195
  Si           1.652996       -9.018330      -11.013899
  Si           1.657765       -8.520267      -11.057603
  Si           0.874014       -5.880095        6.360370
  Si           0.878783       -5.382032        6.316666
  Si           0.883552       -4.883968        6.272962
  Si           0.888320       -4.385905        6.229258
  Si           0.893089       -3.887842        6.185554
  Si           0.897858       -3.389778        6.141850
  Si           0.902627       -2.891715        6.098146
  Si           0.907395       -2.393651        6.054442
  Si           0.912164       -1.895588        6.010738
  Si           0.916933       -1.397524        5.967034
  Si           0.921702       -0.899461        5.923330
  Si           0.932193        0.196279        5.827181
  Si           0.936962        0.694342        5.783477
  Si           0.941731        1.192406        5.739773
  Si           0.946500        1.690469        5.696069
  Si           0.951268        2.188533        5.652365
  Si           0.956037        2.686596        5.608661
  Si           0.960806        3.184660        5.564957
  Si           0.965575        3.682723        5.521253
  Si           0.970344        4.180787        5.477549
  Si           0.975112        4.678850        5.433845
  Si           0.979881        5.176914        5.390141
  Si           0.815835      -11.956470        6.893559
  Si           0.820603      -11.458406        6.849855
  Si           0.825372      -10.960343        6.806151
  Si           0.830141      -10.462279        6.762447
  Si           0.834910       -9.964216        6.718743
  Si           0.839679       -9.466152        6.675039
  Si           0.844447       -8.968089        6.631335
  Si           0.849216       -8.470025        6.587631
  Si           0.853985       -7.971962        6.543927
  Si           0.858754       -7.473898        6.500223
  Si           0.863523       -6.975835        6.456519
  Si           0.923654       -5.976622        5.265738
  Si           0.928423       -5.478559        5.222034
  Si           0.933192       -4.980495        5.178330
  Si           0.937960       -4.482432        5.134626
  Si           0.942729       -3.984368        5.090922
  Si           0.947498       -3.486305        5.047218
  Si           0.952267       -2.988242        5.003514
  Si           0.957036       -2.490178        4.959810
  Si           0.961804       -1.992115        4.916106
  Si           0.966573       -1.494051        4.872402
  Si           0.971342       -0.995988        4.828698
  Si           0.981833        0.099752        4.732549
  Si           0.986602        0.597815        4.688845
  Si           0.991371        1.095879        4.645141
  Si           0.996140        1.593942        4.601437
  Si           1.000908        2.092006        4.557733
  Si           1.005677        2.590069        4.514029
  Si           1.010446        3.088133        4.470325
  Si           1.015215        3.586196        4.426621
  Si           1.019984        4.084260        4.382917
  Si           1.024752        4.582323        4.339213
  Si           1.029521        5.080387        4.295509
  Si           0.865475      -12.052997        5.798927
  Si           0.870244      -11.554933        5.755223
  Si           0.875012      -11.056870        5.711519
  Si           0.879781      -10.558806        5.667815
  Si           0.884550      -10.060743        5.624111
  Si           0.889319       -9.562679        5.580407
  Si           0.894088       -9.064616        5.536703
  Si           0.898856       -8.566552        5.492999
  Si           0.903625       -8.068489        5.449295
  Si           0.908394       -7.570425        5.405591
  Si           0.913163       -7.072362        5.361886
  Si           0.973294       -6.073149        4.171105
  Si           0.978063       -5.575086        4.127401
  Si           0.982832       -5.077022        4.083697
  Si           0.987601       -4.578959        4.039993
  Si           0.992369       -4.080895        3.996289
  Si           0.997138       -3.582832        3.952585
  Si           1.001907       -3.084769        3.908881
  Si           1.006676       -2.586705        3.865177
  Si           1.011445       -2.088642        3.821473
  Si           1.016213       -1.590578        3.777769
  Si           1.020982       -1.092515        3.734065
  Si           1.031473        0.003225        3.637916
  Si           1.036242        0.501288        3.594212
  Si           1.041011        0.999352        3.550508
  Si           1.045780        1.497415        3.506804
  Si           1.050549        1.995479        3.463100
  Si           1.055317        2.493542        3.419396
  Si           1.060086        2.991606        3.375692
  Si           1.064855        3.489669        3.331988
  Si           1.069624        3.987733        3.288284
  Si           1.074393        4.485796        3.244580
  Si           1.079161        4.983860        3.200876
  Si           0.915115      -12.149524        4.704294
  Si           0.919884      -11.651460        4.660590
  Si           0.924653      -11.153397        4.616886
  Si           0.929421      -10.655333        4.573182
  Si           0.934190      -10.157270        4.529478
  Si           0.938959       -9.659206        4.485774
  Si           0.943728       -9.161143        4.442070
  Si           0.948496       -8.663079        4.398366
  Si           0.953265       -8.165016        4.354662
  Si           0.958034       -7.666952        4.310958
  Si           0.962803       -7.168889        4.267254
  Si           1.022934       -6.169676        3.076472
  Si           1.027703       -5.671613        3.032768
  Si           1.032472       -5.173549        2.989064
  Si           1.037241       -4.675486        2.945360
  Si           1.042010       -4.177422        2.901656
  Si           1.046778       -3.679359        2.857952
  Si           1.051547       -3.181296        2.814248
  Si           1.056316       -2.683232        2.770544
  Si           1.061085       -2.185169        2.726840
  Si           1.065853       -1.687105        2.683136
  Si           1.070622       -1.189042        2.639432
  Si           1.081114       -0.093302        2.543283
  Si           1.085882        0.404761        2.499579
  Si           1.090651        0.902825        2.455875
  Si           1.095420        1.400888        2.412171
  Si           1.100189        1.898952        2.368467
  Si           1.104958        2.397015        2.324763
  Si           1.109726        2.895079        2.281059
  Si           1.114495        3.393142        2.237355
  Si           1.119264        3.891206        2.193651
  Si           1.124033        4.389269        2.149947
  Si           1.128802        4.887333        2.106243
  Si           0.964755      -12.246051        3.609661
  Si           0.969524      -11.747987        3.565957
  Si           0.974293      -11.249924        3.522253
  Si           0.979061      -10.751860        3.478549
  Si           0.983830      -10.253797        3.434845
  Si           0.988599       -9.755733        3.391141
  Si           0.993368       -9.257670        3.347437
  Si           0.998137       -8.759606        3.303733
  Si           1.002905       -8.261543        3.260029
  Si           1.007674       -7.763479        3.216325
  Si           1.012443       -7.265416        3.172621
  Si           1.072574       -6.266203        1.981840
  Si           1.077343       -5.768140        1.938136
  Si           1.082112       -5.270076        1.894432
  Si           1.086881       -4.772013        1.850728
  Si           1.091650       -4.273949        1.807024
  Si           1.096418       -3.775886        1.763320
  Si           1.101187       -3.277822        1.719616
  Si           1.105956       -2.779759        1.675912
  Si           1.110725       -2.281696        1.632208
  Si           1.115494       -1.783632        1.588504
  Si           1.120262       -1.285569        1.544800
  Si           1.130754       -0.189829        1.448651
  Si           1.135523        0.308234        1.404947
  Si           1.140291        0.806298        1.361243
  Si           1.145060        1.304361        1.317539
  Si           1.149829        1.802425        1.273835
  Si           1.154598        2.300488        1.230131
  Si           1.159367        2.798552        1.186427
  Si           1.164135        3.296615        1.142723
  Si           1.168904        3.794679        1.099019
  Si           1.173673        4.292742        1.055315
  Si           1.178442        4.790806        1.011611
  Si           1.014395      -12.342578        2.515029
  Si           1.019164      -11.844514        2.471325
  Si           1.023933      -11.346451        2.427621
  Si           1.028702      -10.848387        2.383917
  Si           1.033470      -10.350324        2.340213
  Si           1.038239       -9.852260        2.296509
  Si           1.043008       -9.354197        2.252805
  Si           1.047777       -8.856133        2.209101
  Si           1.052546       -8.358070        2.165397
  Si           1.057314       -7.860006        2.121693
  Si           1.062083       -7.361943        2.077989
  Si           1.122215       -6.362730        0.887207
  Si           1.126983       -5.864667        0.843503
  Si           1.131752       -5.366603        0.799799
  Si           1.136521       -4.868540        0.756095
  Si           1.141290       -4.370476        0.712391
  Si           1.146059       -3.872413        0.668687
  Si           1.150827       -3.374349        0.624983
  Si           1.155596       -2.876286        0.581279
  Si           1.160365       -2.378223        0.537575
  Si           1.165134       -1.880159        0.493871
  Si           1.169903       -1.382096        0.450167
  Si           1.180394       -0.286356        0.354018
  Si           1.185163        0.211708        0.310314
  Si           1.189931        0.709771        0.266610
  Si           1.194700        1.207834        0.222906
  Si           1.199469        1.705898        0.179202
  Si           1.204238        2.203961        0.135498
  Si           1.209007        2.702025        0.091794
  Si           1.213775        3.200088        0.048090
  Si           1.218544        3.698152        0.004386
  Si           1.223313        4.196215       -0.039318
  Si           1.228082        4.694279       -0.083022
  Si           1.064035      -12.439105        1.420396
  Si           1.068804      -11.941041        1.376692
  Si           1.073573      -11.442978        1.332988
  Si           1.078342      -10.944914        1.289284
  Si           1.083111      -10.446851        1.245580
  Si           1.087879       -9.948787        1.201876
  Si           1.092648       -9.450724        1.158172
  Si           1.097417       -8.952660        1.114468
  Si           1.102186       -8.454597        1.070764
  Si           1.106955       -7.956533        1.027060
  Si           1.111723       -7.458470        0.983356
  Si           1.171855       -6.459257       -0.207425
  Si           1.176624       -5.961194       -0.251130
  Si           1.181392       -5.463130       -0.294834
  Si           1.186161       -4.965067       -0.338538
  Si           1.190930       -4.467003       -0.382242
  Si           1.195699       -3.968940       -0.425946
  Si           1.200468       -3.470876       -0.469650
  Si           1.205236       -2.972813       -0.513354
  Si           1.210005       -2.474749       -0.557058
  Si           1.214774       -1.976686       -0.600762
  Si           1.219543       -1.478623       -0.644466
  Si           1.230034       -0.382883       -0.740614
  Si           1.234803        0.115181       -0.784318
  Si           1.239572        0.613244       -0.828022
  Si           1.244340        1.111307       -0.871726
  Si           1.249109        1.609371       -0.915430
  Si           1.253878        2.107434       -0.959134
  Si           1.258647        2.605498       -1.002838
  Si           1.263416        3.103561       -1.046543
  Si           1.268184        3.601625       -1.090247
  Si           1.272953        4.099688       -1.133951
  Si           1.277722        4.597752       -1.177655
  Si           1.113676      -12.535632        0.325763
  Si           1.118444      -12.037568        0.282059
  Si           1.123213      -11.539505        0.238355
  Si           1.127982      -11.041441        0.194651
  Si           1.132751      -10.543378        0.150947
  Si           1.137519      -10.045314        0.107243
  Si           1.142288       -9.547251        0.063539
  Si           1.147057       -9.049187        0.019835
  Si           1.151826       -8.551124       -0.023869
  Si           1.156595       -8.053060       -0.067573
  Si           1.161363       -7.554997       -0.111277
  Si           1.221495       -6.555784       -1.302058
  Si           1.226264       -6.057721       -1.345762
  Si           1.231033       -5.559657       -1.389466
  Si           1.235801       -5.061594       -1.433170
  Si           1.240570       -4.563530       -1.476874
  Si           1.245339       -4.065467       -1.520578
  Si           1.250108       -3.567403       -1.564282
  Si           1.254876       -3.069340       -1.607986
  Si           1.259645       -2.571276       -1.651690
  Si           1.264414       -2.073213       -1.695394
  Si           1.269183       -1.575150       -1.739098
  Si           1.279674       -0.479410       -1.835247
  Si           1.284443        0.018654       -1.878951
  Si           1.289212        0.516717       -1.922655
  Si           1.293981        1.014780       -1.966359
  Si           1.298749        1.512844       -2.010063
  Si           1.303518        2.010907       -2.053767
  Si           1.308287        2.508971       -2.097471
  Si           1.313056        3.007034       -2.141175
  Si           1.317825        3.505098       -2.184879
  Si           1.322593        4.003161       -2.228583
  Si           1.327362        4.501225       -2.272287
  Si           1.163316      -12.632159       -0.768869
  Si           1.168084      -12.134095       -0.812573
  Si           1.172853      -11.636032       -0.856277
  Si           1.177622      -11.137968       -0.899981
  Si           1.182391      -10.639905       -0.943685
  Si           1.187160      -10.141841       -0.987389
  Si           1.191928       -9.643778       -1.031093
  Si           1.196697       -9.145714       -1.074797
  Si           1.201466       -8.647651       -1.118501
  Si           1.206235       -8.149587       -1.162205
  Si           1.211004       -7.651524       -1.205909
